*SPEF "ieee 1481-1999"
*DESIGN "S_term_single2"
*DATE "20:52:35 Monday August 25, 2025"
*VENDOR "The OpenROAD Project"
*PROGRAM "OpenROAD"
*VERSION "341650e72dad0dc8571822ff8c5d9c5e365327f7"
*DESIGN_FLOW "NAME_SCOPE LOCAL" "PIN_CAP NONE"
*DIVIDER /
*DELIMITER :
*BUS_DELIMITER []
*T_UNIT 1 NS
*C_UNIT 1 PF
*R_UNIT 1 OHM
*L_UNIT 1 HENRY

*NAME_MAP
*1 FrameData[0]
*2 FrameData[10]
*3 FrameData[11]
*4 FrameData[12]
*5 FrameData[13]
*6 FrameData[14]
*7 FrameData[15]
*8 FrameData[16]
*9 FrameData[17]
*10 FrameData[18]
*11 FrameData[19]
*12 FrameData[1]
*13 FrameData[20]
*14 FrameData[21]
*15 FrameData[22]
*16 FrameData[23]
*17 FrameData[24]
*18 FrameData[25]
*19 FrameData[26]
*20 FrameData[27]
*21 FrameData[28]
*22 FrameData[29]
*23 FrameData[2]
*24 FrameData[30]
*25 FrameData[31]
*26 FrameData[3]
*27 FrameData[4]
*28 FrameData[5]
*29 FrameData[6]
*30 FrameData[7]
*31 FrameData[8]
*32 FrameData[9]
*33 FrameData_O[0]
*34 FrameData_O[10]
*35 FrameData_O[11]
*36 FrameData_O[12]
*37 FrameData_O[13]
*38 FrameData_O[14]
*39 FrameData_O[15]
*40 FrameData_O[16]
*41 FrameData_O[17]
*42 FrameData_O[18]
*43 FrameData_O[19]
*44 FrameData_O[1]
*45 FrameData_O[20]
*46 FrameData_O[21]
*47 FrameData_O[22]
*48 FrameData_O[23]
*49 FrameData_O[24]
*50 FrameData_O[25]
*51 FrameData_O[26]
*52 FrameData_O[27]
*53 FrameData_O[28]
*54 FrameData_O[29]
*55 FrameData_O[2]
*56 FrameData_O[30]
*57 FrameData_O[31]
*58 FrameData_O[3]
*59 FrameData_O[4]
*60 FrameData_O[5]
*61 FrameData_O[6]
*62 FrameData_O[7]
*63 FrameData_O[8]
*64 FrameData_O[9]
*65 FrameStrobe[0]
*66 FrameStrobe[10]
*67 FrameStrobe[11]
*68 FrameStrobe[12]
*69 FrameStrobe[13]
*70 FrameStrobe[14]
*71 FrameStrobe[15]
*72 FrameStrobe[16]
*73 FrameStrobe[17]
*74 FrameStrobe[18]
*75 FrameStrobe[19]
*76 FrameStrobe[1]
*77 FrameStrobe[2]
*78 FrameStrobe[3]
*79 FrameStrobe[4]
*80 FrameStrobe[5]
*81 FrameStrobe[6]
*82 FrameStrobe[7]
*83 FrameStrobe[8]
*84 FrameStrobe[9]
*85 FrameStrobe_O[0]
*86 FrameStrobe_O[10]
*87 FrameStrobe_O[11]
*88 FrameStrobe_O[12]
*89 FrameStrobe_O[13]
*90 FrameStrobe_O[14]
*91 FrameStrobe_O[15]
*92 FrameStrobe_O[16]
*93 FrameStrobe_O[17]
*94 FrameStrobe_O[18]
*95 FrameStrobe_O[19]
*96 FrameStrobe_O[1]
*97 FrameStrobe_O[2]
*98 FrameStrobe_O[3]
*99 FrameStrobe_O[4]
*100 FrameStrobe_O[5]
*101 FrameStrobe_O[6]
*102 FrameStrobe_O[7]
*103 FrameStrobe_O[8]
*104 FrameStrobe_O[9]
*105 N1BEG[0]
*106 N1BEG[1]
*107 N1BEG[2]
*108 N1BEG[3]
*109 N2BEG[0]
*110 N2BEG[1]
*111 N2BEG[2]
*112 N2BEG[3]
*113 N2BEG[4]
*114 N2BEG[5]
*115 N2BEG[6]
*116 N2BEG[7]
*117 N2BEGb[0]
*118 N2BEGb[1]
*119 N2BEGb[2]
*120 N2BEGb[3]
*121 N2BEGb[4]
*122 N2BEGb[5]
*123 N2BEGb[6]
*124 N2BEGb[7]
*125 N4BEG[0]
*126 N4BEG[10]
*127 N4BEG[11]
*128 N4BEG[12]
*129 N4BEG[13]
*130 N4BEG[14]
*131 N4BEG[15]
*132 N4BEG[1]
*133 N4BEG[2]
*134 N4BEG[3]
*135 N4BEG[4]
*136 N4BEG[5]
*137 N4BEG[6]
*138 N4BEG[7]
*139 N4BEG[8]
*140 N4BEG[9]
*141 NN4BEG[0]
*142 NN4BEG[10]
*143 NN4BEG[11]
*144 NN4BEG[12]
*145 NN4BEG[13]
*146 NN4BEG[14]
*147 NN4BEG[15]
*148 NN4BEG[1]
*149 NN4BEG[2]
*150 NN4BEG[3]
*151 NN4BEG[4]
*152 NN4BEG[5]
*153 NN4BEG[6]
*154 NN4BEG[7]
*155 NN4BEG[8]
*156 NN4BEG[9]
*157 S1END[0]
*158 S1END[1]
*159 S1END[2]
*160 S1END[3]
*161 S2END[0]
*162 S2END[1]
*163 S2END[2]
*164 S2END[3]
*165 S2END[4]
*166 S2END[5]
*167 S2END[6]
*168 S2END[7]
*169 S2MID[0]
*170 S2MID[1]
*171 S2MID[2]
*172 S2MID[3]
*173 S2MID[4]
*174 S2MID[5]
*175 S2MID[6]
*176 S2MID[7]
*177 S4END[0]
*178 S4END[10]
*179 S4END[11]
*180 S4END[12]
*181 S4END[13]
*182 S4END[14]
*183 S4END[15]
*184 S4END[1]
*185 S4END[2]
*186 S4END[3]
*187 S4END[4]
*188 S4END[5]
*189 S4END[6]
*190 S4END[7]
*191 S4END[8]
*192 S4END[9]
*193 SS4END[0]
*194 SS4END[10]
*195 SS4END[11]
*196 SS4END[12]
*197 SS4END[13]
*198 SS4END[14]
*199 SS4END[15]
*200 SS4END[1]
*201 SS4END[2]
*202 SS4END[3]
*203 SS4END[4]
*204 SS4END[5]
*205 SS4END[6]
*206 SS4END[7]
*207 SS4END[8]
*208 SS4END[9]
*209 UserCLK
*210 UserCLKo
*213 net1
*214 net10
*215 net100
*216 net101
*217 net102
*218 net103
*219 net104
*220 net105
*221 net11
*222 net12
*223 net13
*224 net14
*225 net15
*226 net16
*227 net17
*228 net18
*229 net19
*230 net2
*231 net20
*232 net21
*233 net22
*234 net23
*235 net24
*236 net25
*237 net26
*238 net27
*239 net28
*240 net29
*241 net3
*242 net30
*243 net31
*244 net32
*245 net33
*246 net34
*247 net35
*248 net36
*249 net37
*250 net38
*251 net39
*252 net4
*253 net40
*254 net41
*255 net42
*256 net43
*257 net44
*258 net45
*259 net46
*260 net47
*261 net48
*262 net49
*263 net5
*264 net50
*265 net51
*266 net52
*267 net53
*268 net54
*269 net55
*270 net56
*271 net57
*272 net58
*273 net59
*274 net6
*275 net60
*276 net61
*277 net62
*278 net63
*279 net64
*280 net65
*281 net66
*282 net67
*283 net68
*284 net69
*285 net7
*286 net70
*287 net71
*288 net72
*289 net73
*290 net74
*291 net75
*292 net76
*293 net77
*294 net78
*295 net79
*296 net8
*297 net80
*298 net81
*299 net82
*300 net83
*301 net84
*302 net85
*303 net86
*304 net87
*305 net88
*306 net89
*307 net9
*308 net90
*309 net91
*310 net92
*311 net93
*312 net94
*313 net95
*314 net96
*315 net97
*316 net98
*317 net99
*318 FILLER_0_0
*319 FILLER_0_105
*320 FILLER_0_112
*321 FILLER_0_119
*322 FILLER_0_126
*323 FILLER_0_133
*324 FILLER_0_14
*325 FILLER_0_140
*326 FILLER_0_147
*327 FILLER_0_154
*328 FILLER_0_161
*329 FILLER_0_168
*330 FILLER_0_175
*331 FILLER_0_186
*332 FILLER_0_193
*333 FILLER_0_200
*334 FILLER_0_208
*335 FILLER_0_21
*336 FILLER_0_215
*337 FILLER_0_222
*338 FILLER_0_229
*339 FILLER_0_239
*340 FILLER_0_252
*341 FILLER_0_259
*342 FILLER_0_266
*343 FILLER_0_273
*344 FILLER_0_28
*345 FILLER_0_280
*346 FILLER_0_287
*347 FILLER_0_294
*348 FILLER_0_301
*349 FILLER_0_308
*350 FILLER_0_315
*351 FILLER_0_337
*352 FILLER_0_339
*353 FILLER_0_35
*354 FILLER_0_360
*355 FILLER_0_364
*356 FILLER_0_373
*357 FILLER_0_380
*358 FILLER_0_387
*359 FILLER_0_394
*360 FILLER_0_401
*361 FILLER_0_408
*362 FILLER_0_415
*363 FILLER_0_42
*364 FILLER_0_422
*365 FILLER_0_429
*366 FILLER_0_433
*367 FILLER_0_438
*368 FILLER_0_445
*369 FILLER_0_452
*370 FILLER_0_460
*371 FILLER_0_467
*372 FILLER_0_469
*373 FILLER_0_49
*374 FILLER_0_56
*375 FILLER_0_63
*376 FILLER_0_7
*377 FILLER_0_70
*378 FILLER_0_77
*379 FILLER_0_84
*380 FILLER_0_91
*381 FILLER_0_98
*382 FILLER_10_0
*383 FILLER_10_105
*384 FILLER_10_112
*385 FILLER_10_14
*386 FILLER_10_185
*387 FILLER_10_21
*388 FILLER_10_222
*389 FILLER_10_231
*390 FILLER_10_233
*391 FILLER_10_242
*392 FILLER_10_249
*393 FILLER_10_254
*394 FILLER_10_269
*395 FILLER_10_276
*396 FILLER_10_28
*397 FILLER_10_284
*398 FILLER_10_291
*399 FILLER_10_300
*400 FILLER_10_304
*401 FILLER_10_309
*402 FILLER_10_311
*403 FILLER_10_316
*404 FILLER_10_323
*405 FILLER_10_330
*406 FILLER_10_332
*407 FILLER_10_35
*408 FILLER_10_373
*409 FILLER_10_380
*410 FILLER_10_387
*411 FILLER_10_394
*412 FILLER_10_401
*413 FILLER_10_408
*414 FILLER_10_415
*415 FILLER_10_42
*416 FILLER_10_422
*417 FILLER_10_429
*418 FILLER_10_436
*419 FILLER_10_443
*420 FILLER_10_450
*421 FILLER_10_457
*422 FILLER_10_464
*423 FILLER_10_468
*424 FILLER_10_49
*425 FILLER_10_56
*426 FILLER_10_63
*427 FILLER_10_7
*428 FILLER_10_70
*429 FILLER_10_77
*430 FILLER_10_84
*431 FILLER_10_91
*432 FILLER_10_98
*433 FILLER_11_0
*434 FILLER_11_14
*435 FILLER_11_21
*436 FILLER_11_226
*437 FILLER_11_233
*438 FILLER_11_237
*439 FILLER_11_246
*440 FILLER_11_248
*441 FILLER_11_28
*442 FILLER_11_305
*443 FILLER_11_312
*444 FILLER_11_316
*445 FILLER_11_325
*446 FILLER_11_35
*447 FILLER_11_379
*448 FILLER_11_386
*449 FILLER_11_390
*450 FILLER_11_395
*451 FILLER_11_402
*452 FILLER_11_409
*453 FILLER_11_416
*454 FILLER_11_42
*455 FILLER_11_423
*456 FILLER_11_430
*457 FILLER_11_437
*458 FILLER_11_444
*459 FILLER_11_451
*460 FILLER_11_458
*461 FILLER_11_465
*462 FILLER_11_49
*463 FILLER_11_56
*464 FILLER_11_63
*465 FILLER_11_7
*466 FILLER_11_70
*467 FILLER_11_77
*468 FILLER_11_84
*469 FILLER_11_91
*470 FILLER_11_98
*471 FILLER_1_0
*472 FILLER_1_105
*473 FILLER_1_112
*474 FILLER_1_119
*475 FILLER_1_126
*476 FILLER_1_133
*477 FILLER_1_14
*478 FILLER_1_140
*479 FILLER_1_147
*480 FILLER_1_154
*481 FILLER_1_161
*482 FILLER_1_168
*483 FILLER_1_175
*484 FILLER_1_182
*485 FILLER_1_189
*486 FILLER_1_196
*487 FILLER_1_203
*488 FILLER_1_21
*489 FILLER_1_210
*490 FILLER_1_217
*491 FILLER_1_224
*492 FILLER_1_231
*493 FILLER_1_238
*494 FILLER_1_246
*495 FILLER_1_250
*496 FILLER_1_255
*497 FILLER_1_262
*498 FILLER_1_269
*499 FILLER_1_276
*500 FILLER_1_28
*501 FILLER_1_283
*502 FILLER_1_290
*503 FILLER_1_297
*504 FILLER_1_304
*505 FILLER_1_311
*506 FILLER_1_318
*507 FILLER_1_325
*508 FILLER_1_332
*509 FILLER_1_339
*510 FILLER_1_346
*511 FILLER_1_35
*512 FILLER_1_353
*513 FILLER_1_360
*514 FILLER_1_367
*515 FILLER_1_374
*516 FILLER_1_381
*517 FILLER_1_388
*518 FILLER_1_395
*519 FILLER_1_402
*520 FILLER_1_409
*521 FILLER_1_416
*522 FILLER_1_42
*523 FILLER_1_423
*524 FILLER_1_430
*525 FILLER_1_437
*526 FILLER_1_444
*527 FILLER_1_451
*528 FILLER_1_458
*529 FILLER_1_465
*530 FILLER_1_472
*531 FILLER_1_49
*532 FILLER_1_56
*533 FILLER_1_63
*534 FILLER_1_7
*535 FILLER_1_70
*536 FILLER_1_77
*537 FILLER_1_84
*538 FILLER_1_91
*539 FILLER_1_98
*540 FILLER_2_0
*541 FILLER_2_105
*542 FILLER_2_112
*543 FILLER_2_119
*544 FILLER_2_126
*545 FILLER_2_133
*546 FILLER_2_14
*547 FILLER_2_140
*548 FILLER_2_147
*549 FILLER_2_154
*550 FILLER_2_161
*551 FILLER_2_168
*552 FILLER_2_175
*553 FILLER_2_182
*554 FILLER_2_189
*555 FILLER_2_196
*556 FILLER_2_203
*557 FILLER_2_21
*558 FILLER_2_210
*559 FILLER_2_217
*560 FILLER_2_224
*561 FILLER_2_231
*562 FILLER_2_246
*563 FILLER_2_253
*564 FILLER_2_260
*565 FILLER_2_267
*566 FILLER_2_274
*567 FILLER_2_28
*568 FILLER_2_281
*569 FILLER_2_288
*570 FILLER_2_295
*571 FILLER_2_302
*572 FILLER_2_309
*573 FILLER_2_316
*574 FILLER_2_323
*575 FILLER_2_330
*576 FILLER_2_337
*577 FILLER_2_344
*578 FILLER_2_35
*579 FILLER_2_351
*580 FILLER_2_358
*581 FILLER_2_365
*582 FILLER_2_372
*583 FILLER_2_379
*584 FILLER_2_386
*585 FILLER_2_393
*586 FILLER_2_400
*587 FILLER_2_407
*588 FILLER_2_414
*589 FILLER_2_42
*590 FILLER_2_421
*591 FILLER_2_428
*592 FILLER_2_435
*593 FILLER_2_442
*594 FILLER_2_449
*595 FILLER_2_456
*596 FILLER_2_463
*597 FILLER_2_470
*598 FILLER_2_477
*599 FILLER_2_49
*600 FILLER_2_56
*601 FILLER_2_63
*602 FILLER_2_7
*603 FILLER_2_70
*604 FILLER_2_77
*605 FILLER_2_84
*606 FILLER_2_91
*607 FILLER_2_98
*608 FILLER_3_0
*609 FILLER_3_105
*610 FILLER_3_112
*611 FILLER_3_119
*612 FILLER_3_126
*613 FILLER_3_133
*614 FILLER_3_14
*615 FILLER_3_140
*616 FILLER_3_147
*617 FILLER_3_154
*618 FILLER_3_161
*619 FILLER_3_168
*620 FILLER_3_175
*621 FILLER_3_182
*622 FILLER_3_189
*623 FILLER_3_196
*624 FILLER_3_203
*625 FILLER_3_21
*626 FILLER_3_210
*627 FILLER_3_217
*628 FILLER_3_224
*629 FILLER_3_231
*630 FILLER_3_235
*631 FILLER_3_240
*632 FILLER_3_249
*633 FILLER_3_256
*634 FILLER_3_263
*635 FILLER_3_270
*636 FILLER_3_277
*637 FILLER_3_28
*638 FILLER_3_284
*639 FILLER_3_291
*640 FILLER_3_298
*641 FILLER_3_305
*642 FILLER_3_312
*643 FILLER_3_319
*644 FILLER_3_326
*645 FILLER_3_333
*646 FILLER_3_340
*647 FILLER_3_347
*648 FILLER_3_35
*649 FILLER_3_354
*650 FILLER_3_361
*651 FILLER_3_368
*652 FILLER_3_375
*653 FILLER_3_382
*654 FILLER_3_389
*655 FILLER_3_396
*656 FILLER_3_403
*657 FILLER_3_410
*658 FILLER_3_417
*659 FILLER_3_42
*660 FILLER_3_424
*661 FILLER_3_431
*662 FILLER_3_438
*663 FILLER_3_445
*664 FILLER_3_452
*665 FILLER_3_459
*666 FILLER_3_466
*667 FILLER_3_473
*668 FILLER_3_477
*669 FILLER_3_49
*670 FILLER_3_56
*671 FILLER_3_63
*672 FILLER_3_7
*673 FILLER_3_70
*674 FILLER_3_77
*675 FILLER_3_84
*676 FILLER_3_91
*677 FILLER_3_98
*678 FILLER_4_0
*679 FILLER_4_105
*680 FILLER_4_112
*681 FILLER_4_119
*682 FILLER_4_126
*683 FILLER_4_133
*684 FILLER_4_14
*685 FILLER_4_140
*686 FILLER_4_147
*687 FILLER_4_154
*688 FILLER_4_161
*689 FILLER_4_168
*690 FILLER_4_175
*691 FILLER_4_182
*692 FILLER_4_189
*693 FILLER_4_196
*694 FILLER_4_203
*695 FILLER_4_21
*696 FILLER_4_210
*697 FILLER_4_217
*698 FILLER_4_224
*699 FILLER_4_231
*700 FILLER_4_238
*701 FILLER_4_250
*702 FILLER_4_257
*703 FILLER_4_264
*704 FILLER_4_271
*705 FILLER_4_278
*706 FILLER_4_28
*707 FILLER_4_285
*708 FILLER_4_292
*709 FILLER_4_299
*710 FILLER_4_306
*711 FILLER_4_313
*712 FILLER_4_320
*713 FILLER_4_327
*714 FILLER_4_334
*715 FILLER_4_341
*716 FILLER_4_348
*717 FILLER_4_35
*718 FILLER_4_355
*719 FILLER_4_362
*720 FILLER_4_369
*721 FILLER_4_376
*722 FILLER_4_383
*723 FILLER_4_390
*724 FILLER_4_397
*725 FILLER_4_404
*726 FILLER_4_411
*727 FILLER_4_418
*728 FILLER_4_42
*729 FILLER_4_425
*730 FILLER_4_432
*731 FILLER_4_439
*732 FILLER_4_446
*733 FILLER_4_453
*734 FILLER_4_460
*735 FILLER_4_467
*736 FILLER_4_474
*737 FILLER_4_49
*738 FILLER_4_56
*739 FILLER_4_63
*740 FILLER_4_7
*741 FILLER_4_70
*742 FILLER_4_77
*743 FILLER_4_84
*744 FILLER_4_91
*745 FILLER_4_98
*746 FILLER_5_0
*747 FILLER_5_105
*748 FILLER_5_112
*749 FILLER_5_119
*750 FILLER_5_126
*751 FILLER_5_133
*752 FILLER_5_14
*753 FILLER_5_140
*754 FILLER_5_147
*755 FILLER_5_154
*756 FILLER_5_161
*757 FILLER_5_168
*758 FILLER_5_175
*759 FILLER_5_182
*760 FILLER_5_189
*761 FILLER_5_196
*762 FILLER_5_203
*763 FILLER_5_21
*764 FILLER_5_210
*765 FILLER_5_217
*766 FILLER_5_236
*767 FILLER_5_243
*768 FILLER_5_250
*769 FILLER_5_257
*770 FILLER_5_264
*771 FILLER_5_271
*772 FILLER_5_278
*773 FILLER_5_28
*774 FILLER_5_285
*775 FILLER_5_292
*776 FILLER_5_299
*777 FILLER_5_306
*778 FILLER_5_313
*779 FILLER_5_320
*780 FILLER_5_327
*781 FILLER_5_334
*782 FILLER_5_341
*783 FILLER_5_348
*784 FILLER_5_35
*785 FILLER_5_355
*786 FILLER_5_362
*787 FILLER_5_369
*788 FILLER_5_376
*789 FILLER_5_383
*790 FILLER_5_390
*791 FILLER_5_397
*792 FILLER_5_404
*793 FILLER_5_411
*794 FILLER_5_418
*795 FILLER_5_42
*796 FILLER_5_425
*797 FILLER_5_432
*798 FILLER_5_439
*799 FILLER_5_446
*800 FILLER_5_453
*801 FILLER_5_460
*802 FILLER_5_467
*803 FILLER_5_474
*804 FILLER_5_49
*805 FILLER_5_56
*806 FILLER_5_63
*807 FILLER_5_7
*808 FILLER_5_70
*809 FILLER_5_77
*810 FILLER_5_84
*811 FILLER_5_91
*812 FILLER_5_98
*813 FILLER_6_0
*814 FILLER_6_105
*815 FILLER_6_112
*816 FILLER_6_119
*817 FILLER_6_126
*818 FILLER_6_133
*819 FILLER_6_14
*820 FILLER_6_140
*821 FILLER_6_147
*822 FILLER_6_154
*823 FILLER_6_161
*824 FILLER_6_168
*825 FILLER_6_175
*826 FILLER_6_182
*827 FILLER_6_189
*828 FILLER_6_196
*829 FILLER_6_203
*830 FILLER_6_21
*831 FILLER_6_210
*832 FILLER_6_217
*833 FILLER_6_224
*834 FILLER_6_235
*835 FILLER_6_246
*836 FILLER_6_253
*837 FILLER_6_260
*838 FILLER_6_267
*839 FILLER_6_274
*840 FILLER_6_28
*841 FILLER_6_281
*842 FILLER_6_288
*843 FILLER_6_295
*844 FILLER_6_302
*845 FILLER_6_309
*846 FILLER_6_316
*847 FILLER_6_323
*848 FILLER_6_330
*849 FILLER_6_337
*850 FILLER_6_344
*851 FILLER_6_35
*852 FILLER_6_351
*853 FILLER_6_358
*854 FILLER_6_365
*855 FILLER_6_372
*856 FILLER_6_379
*857 FILLER_6_386
*858 FILLER_6_393
*859 FILLER_6_400
*860 FILLER_6_407
*861 FILLER_6_414
*862 FILLER_6_42
*863 FILLER_6_421
*864 FILLER_6_428
*865 FILLER_6_435
*866 FILLER_6_442
*867 FILLER_6_449
*868 FILLER_6_456
*869 FILLER_6_463
*870 FILLER_6_470
*871 FILLER_6_477
*872 FILLER_6_49
*873 FILLER_6_56
*874 FILLER_6_63
*875 FILLER_6_7
*876 FILLER_6_70
*877 FILLER_6_77
*878 FILLER_6_84
*879 FILLER_6_91
*880 FILLER_6_98
*881 FILLER_7_0
*882 FILLER_7_105
*883 FILLER_7_112
*884 FILLER_7_119
*885 FILLER_7_126
*886 FILLER_7_133
*887 FILLER_7_14
*888 FILLER_7_140
*889 FILLER_7_147
*890 FILLER_7_154
*891 FILLER_7_161
*892 FILLER_7_168
*893 FILLER_7_175
*894 FILLER_7_182
*895 FILLER_7_189
*896 FILLER_7_196
*897 FILLER_7_203
*898 FILLER_7_21
*899 FILLER_7_210
*900 FILLER_7_217
*901 FILLER_7_224
*902 FILLER_7_239
*903 FILLER_7_243
*904 FILLER_7_248
*905 FILLER_7_255
*906 FILLER_7_262
*907 FILLER_7_269
*908 FILLER_7_276
*909 FILLER_7_28
*910 FILLER_7_283
*911 FILLER_7_290
*912 FILLER_7_297
*913 FILLER_7_304
*914 FILLER_7_311
*915 FILLER_7_318
*916 FILLER_7_325
*917 FILLER_7_332
*918 FILLER_7_339
*919 FILLER_7_346
*920 FILLER_7_35
*921 FILLER_7_353
*922 FILLER_7_360
*923 FILLER_7_367
*924 FILLER_7_374
*925 FILLER_7_381
*926 FILLER_7_388
*927 FILLER_7_395
*928 FILLER_7_402
*929 FILLER_7_409
*930 FILLER_7_416
*931 FILLER_7_42
*932 FILLER_7_423
*933 FILLER_7_430
*934 FILLER_7_437
*935 FILLER_7_444
*936 FILLER_7_451
*937 FILLER_7_458
*938 FILLER_7_465
*939 FILLER_7_472
*940 FILLER_7_476
*941 FILLER_7_49
*942 FILLER_7_56
*943 FILLER_7_63
*944 FILLER_7_7
*945 FILLER_7_70
*946 FILLER_7_77
*947 FILLER_7_84
*948 FILLER_7_91
*949 FILLER_7_98
*950 FILLER_8_0
*951 FILLER_8_105
*952 FILLER_8_112
*953 FILLER_8_119
*954 FILLER_8_126
*955 FILLER_8_133
*956 FILLER_8_14
*957 FILLER_8_140
*958 FILLER_8_147
*959 FILLER_8_154
*960 FILLER_8_161
*961 FILLER_8_168
*962 FILLER_8_175
*963 FILLER_8_182
*964 FILLER_8_189
*965 FILLER_8_196
*966 FILLER_8_203
*967 FILLER_8_21
*968 FILLER_8_210
*969 FILLER_8_217
*970 FILLER_8_224
*971 FILLER_8_226
*972 FILLER_8_235
*973 FILLER_8_242
*974 FILLER_8_247
*975 FILLER_8_251
*976 FILLER_8_256
*977 FILLER_8_263
*978 FILLER_8_270
*979 FILLER_8_277
*980 FILLER_8_28
*981 FILLER_8_284
*982 FILLER_8_291
*983 FILLER_8_298
*984 FILLER_8_305
*985 FILLER_8_312
*986 FILLER_8_319
*987 FILLER_8_326
*988 FILLER_8_333
*989 FILLER_8_340
*990 FILLER_8_347
*991 FILLER_8_35
*992 FILLER_8_354
*993 FILLER_8_361
*994 FILLER_8_368
*995 FILLER_8_375
*996 FILLER_8_382
*997 FILLER_8_389
*998 FILLER_8_396
*999 FILLER_8_403
*1000 FILLER_8_410
*1001 FILLER_8_417
*1002 FILLER_8_42
*1003 FILLER_8_424
*1004 FILLER_8_431
*1005 FILLER_8_438
*1006 FILLER_8_445
*1007 FILLER_8_452
*1008 FILLER_8_459
*1009 FILLER_8_466
*1010 FILLER_8_473
*1011 FILLER_8_477
*1012 FILLER_8_49
*1013 FILLER_8_56
*1014 FILLER_8_63
*1015 FILLER_8_7
*1016 FILLER_8_70
*1017 FILLER_8_77
*1018 FILLER_8_84
*1019 FILLER_8_91
*1020 FILLER_8_98
*1021 FILLER_9_0
*1022 FILLER_9_105
*1023 FILLER_9_112
*1024 FILLER_9_116
*1025 FILLER_9_138
*1026 FILLER_9_14
*1027 FILLER_9_207
*1028 FILLER_9_21
*1029 FILLER_9_214
*1030 FILLER_9_221
*1031 FILLER_9_228
*1032 FILLER_9_235
*1033 FILLER_9_242
*1034 FILLER_9_249
*1035 FILLER_9_256
*1036 FILLER_9_263
*1037 FILLER_9_265
*1038 FILLER_9_270
*1039 FILLER_9_28
*1040 FILLER_9_281
*1041 FILLER_9_288
*1042 FILLER_9_295
*1043 FILLER_9_302
*1044 FILLER_9_309
*1045 FILLER_9_316
*1046 FILLER_9_323
*1047 FILLER_9_330
*1048 FILLER_9_337
*1049 FILLER_9_344
*1050 FILLER_9_35
*1051 FILLER_9_351
*1052 FILLER_9_358
*1053 FILLER_9_365
*1054 FILLER_9_372
*1055 FILLER_9_379
*1056 FILLER_9_386
*1057 FILLER_9_393
*1058 FILLER_9_400
*1059 FILLER_9_407
*1060 FILLER_9_414
*1061 FILLER_9_42
*1062 FILLER_9_421
*1063 FILLER_9_428
*1064 FILLER_9_435
*1065 FILLER_9_442
*1066 FILLER_9_449
*1067 FILLER_9_456
*1068 FILLER_9_463
*1069 FILLER_9_470
*1070 FILLER_9_477
*1071 FILLER_9_49
*1072 FILLER_9_56
*1073 FILLER_9_63
*1074 FILLER_9_7
*1075 FILLER_9_70
*1076 FILLER_9_77
*1077 FILLER_9_84
*1078 FILLER_9_91
*1079 FILLER_9_98
*1080 _000_
*1081 _001_
*1082 _002_
*1083 _003_
*1084 _004_
*1085 _005_
*1086 _006_
*1087 _007_
*1088 _008_
*1089 _009_
*1090 _010_
*1091 _011_
*1092 _012_
*1093 _013_
*1094 _014_
*1095 _015_
*1096 _016_
*1097 _017_
*1098 _018_
*1099 _019_
*1100 _020_
*1101 _021_
*1102 _022_
*1103 _023_
*1104 _024_
*1105 _025_
*1106 _026_
*1107 _027_
*1108 _028_
*1109 _029_
*1110 _030_
*1111 _031_
*1112 _032_
*1113 _033_
*1114 _034_
*1115 _035_
*1116 _036_
*1117 _037_
*1118 _038_
*1119 _039_
*1120 _040_
*1121 _041_
*1122 _042_
*1123 _043_
*1124 _044_
*1125 _045_
*1126 _046_
*1127 _047_
*1128 _048_
*1129 _049_
*1130 _050_
*1131 _051_
*1132 _052_
*1133 _053_
*1134 _054_
*1135 _055_
*1136 _056_
*1137 _057_
*1138 _058_
*1139 _059_
*1140 _060_
*1141 _061_
*1142 _062_
*1143 _063_
*1144 _064_
*1145 _065_
*1146 _066_
*1147 _067_
*1148 _068_
*1149 _069_
*1150 _070_
*1151 _071_
*1152 _072_
*1153 _073_
*1154 _074_
*1155 _075_
*1156 _076_
*1157 _077_
*1158 _078_
*1159 _079_
*1160 _080_
*1161 _081_
*1162 _082_
*1163 _083_
*1164 _084_
*1165 _085_
*1166 _086_
*1167 _087_
*1168 _088_
*1169 _089_
*1170 _090_
*1171 _091_
*1172 _092_
*1173 _093_
*1174 _094_
*1175 _095_
*1176 _096_
*1177 _097_
*1178 _098_
*1179 _099_
*1180 _100_
*1181 _101_
*1182 _102_
*1183 _103_
*1184 _104_
*1185 output1
*1186 output10
*1187 output100
*1188 output101
*1189 output102
*1190 output103
*1191 output104
*1192 output105
*1193 output11
*1194 output12
*1195 output13
*1196 output14
*1197 output15
*1198 output16
*1199 output17
*1200 output18
*1201 output19
*1202 output2
*1203 output20
*1204 output21
*1205 output22
*1206 output23
*1207 output24
*1208 output25
*1209 output26
*1210 output27
*1211 output28
*1212 output29
*1213 output3
*1214 output30
*1215 output31
*1216 output32
*1217 output33
*1218 output34
*1219 output35
*1220 output36
*1221 output37
*1222 output38
*1223 output39
*1224 output4
*1225 output40
*1226 output41
*1227 output42
*1228 output43
*1229 output44
*1230 output45
*1231 output46
*1232 output47
*1233 output48
*1234 output49
*1235 output5
*1236 output50
*1237 output51
*1238 output52
*1239 output53
*1240 output54
*1241 output55
*1242 output56
*1243 output57
*1244 output58
*1245 output59
*1246 output6
*1247 output60
*1248 output61
*1249 output62
*1250 output63
*1251 output64
*1252 output65
*1253 output66
*1254 output67
*1255 output68
*1256 output69
*1257 output7
*1258 output70
*1259 output71
*1260 output72
*1261 output73
*1262 output74
*1263 output75
*1264 output76
*1265 output77
*1266 output78
*1267 output79
*1268 output8
*1269 output80
*1270 output81
*1271 output82
*1272 output83
*1273 output84
*1274 output85
*1275 output86
*1276 output87
*1277 output88
*1278 output89
*1279 output9
*1280 output90
*1281 output91
*1282 output92
*1283 output93
*1284 output94
*1285 output95
*1286 output96
*1287 output97
*1288 output98
*1289 output99

*PORTS
FrameData[0] I
FrameData[10] I
FrameData[11] I
FrameData[12] I
FrameData[13] I
FrameData[14] I
FrameData[15] I
FrameData[16] I
FrameData[17] I
FrameData[18] I
FrameData[19] I
FrameData[1] I
FrameData[20] I
FrameData[21] I
FrameData[22] I
FrameData[23] I
FrameData[24] I
FrameData[25] I
FrameData[26] I
FrameData[27] I
FrameData[28] I
FrameData[29] I
FrameData[2] I
FrameData[30] I
FrameData[31] I
FrameData[3] I
FrameData[4] I
FrameData[5] I
FrameData[6] I
FrameData[7] I
FrameData[8] I
FrameData[9] I
FrameData_O[0] O
FrameData_O[10] O
FrameData_O[11] O
FrameData_O[12] O
FrameData_O[13] O
FrameData_O[14] O
FrameData_O[15] O
FrameData_O[16] O
FrameData_O[17] O
FrameData_O[18] O
FrameData_O[19] O
FrameData_O[1] O
FrameData_O[20] O
FrameData_O[21] O
FrameData_O[22] O
FrameData_O[23] O
FrameData_O[24] O
FrameData_O[25] O
FrameData_O[26] O
FrameData_O[27] O
FrameData_O[28] O
FrameData_O[29] O
FrameData_O[2] O
FrameData_O[30] O
FrameData_O[31] O
FrameData_O[3] O
FrameData_O[4] O
FrameData_O[5] O
FrameData_O[6] O
FrameData_O[7] O
FrameData_O[8] O
FrameData_O[9] O
FrameStrobe[0] I
FrameStrobe[10] I
FrameStrobe[11] I
FrameStrobe[12] I
FrameStrobe[13] I
FrameStrobe[14] I
FrameStrobe[15] I
FrameStrobe[16] I
FrameStrobe[17] I
FrameStrobe[18] I
FrameStrobe[19] I
FrameStrobe[1] I
FrameStrobe[2] I
FrameStrobe[3] I
FrameStrobe[4] I
FrameStrobe[5] I
FrameStrobe[6] I
FrameStrobe[7] I
FrameStrobe[8] I
FrameStrobe[9] I
FrameStrobe_O[0] O
FrameStrobe_O[10] O
FrameStrobe_O[11] O
FrameStrobe_O[12] O
FrameStrobe_O[13] O
FrameStrobe_O[14] O
FrameStrobe_O[15] O
FrameStrobe_O[16] O
FrameStrobe_O[17] O
FrameStrobe_O[18] O
FrameStrobe_O[19] O
FrameStrobe_O[1] O
FrameStrobe_O[2] O
FrameStrobe_O[3] O
FrameStrobe_O[4] O
FrameStrobe_O[5] O
FrameStrobe_O[6] O
FrameStrobe_O[7] O
FrameStrobe_O[8] O
FrameStrobe_O[9] O
N1BEG[0] O
N1BEG[1] O
N1BEG[2] O
N1BEG[3] O
N2BEG[0] O
N2BEG[1] O
N2BEG[2] O
N2BEG[3] O
N2BEG[4] O
N2BEG[5] O
N2BEG[6] O
N2BEG[7] O
N2BEGb[0] O
N2BEGb[1] O
N2BEGb[2] O
N2BEGb[3] O
N2BEGb[4] O
N2BEGb[5] O
N2BEGb[6] O
N2BEGb[7] O
N4BEG[0] O
N4BEG[10] O
N4BEG[11] O
N4BEG[12] O
N4BEG[13] O
N4BEG[14] O
N4BEG[15] O
N4BEG[1] O
N4BEG[2] O
N4BEG[3] O
N4BEG[4] O
N4BEG[5] O
N4BEG[6] O
N4BEG[7] O
N4BEG[8] O
N4BEG[9] O
NN4BEG[0] O
NN4BEG[10] O
NN4BEG[11] O
NN4BEG[12] O
NN4BEG[13] O
NN4BEG[14] O
NN4BEG[15] O
NN4BEG[1] O
NN4BEG[2] O
NN4BEG[3] O
NN4BEG[4] O
NN4BEG[5] O
NN4BEG[6] O
NN4BEG[7] O
NN4BEG[8] O
NN4BEG[9] O
S1END[0] I
S1END[1] I
S1END[2] I
S1END[3] I
S2END[0] I
S2END[1] I
S2END[2] I
S2END[3] I
S2END[4] I
S2END[5] I
S2END[6] I
S2END[7] I
S2MID[0] I
S2MID[1] I
S2MID[2] I
S2MID[3] I
S2MID[4] I
S2MID[5] I
S2MID[6] I
S2MID[7] I
S4END[0] I
S4END[10] I
S4END[11] I
S4END[12] I
S4END[13] I
S4END[14] I
S4END[15] I
S4END[1] I
S4END[2] I
S4END[3] I
S4END[4] I
S4END[5] I
S4END[6] I
S4END[7] I
S4END[8] I
S4END[9] I
SS4END[0] I
SS4END[10] I
SS4END[11] I
SS4END[12] I
SS4END[13] I
SS4END[14] I
SS4END[15] I
SS4END[1] I
SS4END[2] I
SS4END[3] I
SS4END[4] I
SS4END[5] I
SS4END[6] I
SS4END[7] I
SS4END[8] I
SS4END[9] I
UserCLK I
UserCLKo O

*D_NET *1 0.0155632
*CONN
*P FrameData[0] I
*I *1080:A I *D sg13g2_buf_1
*CAP
1 FrameData[0] 0.0013822
2 *1080:A 0.000282032
3 *1:9 0.00315563
4 *1:7 0.0042558
5 *1080:A *1081:A 0
6 *1080:A *1120:A 0
7 *1080:A *238:8 0
8 *1:7 *12:5 0
9 *1:9 *12:5 0
10 *1:9 *78:9 0.00648757
*RES
1 FrameData[0] *1:7 16.4903 
2 *1:7 *1:9 42.7141 
3 *1:9 *1080:A 42.6986 
*END

*D_NET *2 0.0110702
*CONN
*P FrameData[10] I
*I *1090:A I *D sg13g2_buf_1
*CAP
1 FrameData[10] 0.00538873
2 *1090:A 6.51056e-05
3 *2:5 0.00545383
4 *1090:A *241:12 0
5 *1090:A *244:14 0.000162568
6 *1090:A *263:10 0
7 *2:5 *3:9 0
8 *2:5 *31:5 0
9 *2:5 *32:5 0
10 *2:5 *244:10 0
*RES
1 FrameData[10] *2:5 61.594 
2 *2:5 *1090:A 41.0712 
*END

*D_NET *3 0.0123852
*CONN
*P FrameData[11] I
*I *1091:A I *D sg13g2_buf_1
*CAP
1 FrameData[11] 0.00280179
2 *1091:A 0
3 *3:23 0
4 *3:19 0.00324635
5 *3:15 0.00339082
6 *3:9 0.00294626
7 *3:9 *4:9 0
8 *3:9 *5:5 0
9 *3:19 *11:13 0
10 *3:19 *76:15 0
11 *2:5 *3:9 0
*RES
1 FrameData[11] *3:9 33.7428 
2 *3:9 *3:15 41.4008 
3 *3:15 *3:19 48.0366 
4 *3:19 *3:23 40 
5 *3:23 *1091:A 20 
*END

*D_NET *4 0.00984753
*CONN
*P FrameData[12] I
*I *1092:A I *D sg13g2_buf_1
*CAP
1 FrameData[12] 0.0002929
2 *1092:A 0
3 *4:19 0.000102077
4 *4:11 0.00463087
5 *4:9 0.00482169
6 *4:9 *5:5 0
7 *4:11 *7:13 0
8 *4:11 *11:13 0
9 *4:19 *11:13 0
10 *3:9 *4:9 0
*RES
1 FrameData[12] *4:9 43.1621 
2 *4:9 *4:11 58.5349 
3 *4:11 *4:19 41.3184 
4 *4:19 *1092:A 40 
*END

*D_NET *5 0.0119214
*CONN
*P FrameData[13] I
*I *1093:A I *D sg13g2_buf_1
*CAP
1 FrameData[13] 0.00490327
2 *1093:A 8.5583e-05
3 *5:5 0.00498885
4 *1093:A *84:15 0
5 *5:5 *6:7 0
6 *5:5 *6:9 0
7 *5:5 *264:12 0.0019437
8 *5:5 *265:12 0
9 *5:5 *274:10 0
10 *3:9 *5:5 0
11 *4:9 *5:5 0
*RES
1 FrameData[13] *5:5 61.5013 
2 *5:5 *1093:A 40.7519 
*END

*D_NET *6 0.00957032
*CONN
*P FrameData[14] I
*I *1094:A I *D sg13g2_buf_1
*CAP
1 FrameData[14] 0.00139038
2 *1094:A 0
3 *6:9 0.00333045
4 *6:7 0.00472083
5 *6:7 *7:11 0
6 *6:7 *8:5 0
7 *6:9 *8:5 0
8 *6:9 *265:12 0.000128663
9 *5:5 *6:7 0
10 *5:5 *6:9 0
*RES
1 FrameData[14] *6:7 16.4903 
2 *6:7 *6:9 41.9725 
3 *6:9 *1094:A 40 
*END

*D_NET *7 0.00928978
*CONN
*P FrameData[15] I
*I *1095:A I *D sg13g2_buf_1
*CAP
1 FrameData[15] 0.000357138
2 *1095:A 0
3 *7:17 0
4 *7:13 0.00428775
5 *7:11 0.00464489
6 *7:11 *8:5 0
7 *7:11 *11:11 0
8 *4:11 *7:13 0
9 *6:7 *7:11 0
*RES
1 FrameData[15] *7:11 43.914 
2 *7:11 *7:13 55.9702 
3 *7:13 *7:17 40 
4 *7:17 *1095:A 40 
*END

*D_NET *8 0.0124907
*CONN
*P FrameData[16] I
*I *1096:A I *D sg13g2_buf_1
*CAP
1 FrameData[16] 0.00462683
2 *1096:A 8.12836e-05
3 *8:5 0.00470812
4 *8:5 *9:5 0
5 *8:5 *185:29 0
6 *8:5 *199:13 0.00307451
7 *8:5 *265:12 0
8 *8:5 *275:12 0
9 *6:7 *8:5 0
10 *6:9 *8:5 0
11 *7:11 *8:5 0
*RES
1 FrameData[16] *8:5 58.7821 
2 *8:5 *1096:A 40.7519 
*END

*D_NET *9 0.0194398
*CONN
*P FrameData[17] I
*I *1097:A I *D sg13g2_buf_1
*CAP
1 FrameData[17] 0.00405716
2 *1097:A 6.95e-05
3 *9:13 0.000182515
4 *9:5 0.00417018
5 *1097:A *187:17 0
6 *9:5 *10:11 0
7 *9:5 *13:9 0
8 *9:5 *185:19 7.51285e-05
9 *9:5 *185:29 0
10 *9:5 *187:27 0.00387074
11 *9:5 *275:12 0.00643784
12 *9:5 *283:12 0
13 *9:13 *185:19 0.000288087
14 *9:13 *199:13 0.000288675
15 *8:5 *9:5 0
*RES
1 FrameData[17] *9:5 60.0181 
2 *9:5 *9:13 41.8746 
3 *9:13 *1097:A 40.6695 
*END

*D_NET *10 0.0199852
*CONN
*P FrameData[18] I
*I *1098:A I *D sg13g2_buf_1
*CAP
1 FrameData[18] 0.000400671
2 *1098:A 0
3 *10:19 0.000194126
4 *10:13 0.00344999
5 *10:11 0.00365653
6 *10:11 *11:11 0
7 *10:11 *13:9 0
8 *10:13 *24:13 0.0122838
9 *10:19 *11:19 0
10 *10:19 *223:24 0
11 *9:5 *10:11 0
*RES
1 FrameData[18] *10:11 44.1303 
2 *10:11 *10:13 56.7118 
3 *10:13 *10:19 41.6171 
4 *10:19 *1098:A 40 
*END

*D_NET *11 0.0134725
*CONN
*P FrameData[19] I
*I *1099:A I *D sg13g2_buf_1
*CAP
1 FrameData[19] 0.000836384
2 *1099:A 0
3 *11:19 0.000689821
4 *11:13 0.0058608
5 *11:11 0.00600736
6 *11:11 *13:9 0
7 *11:11 *24:9 0
8 *11:13 *76:15 0
9 *11:19 *223:24 7.81195e-05
10 *3:19 *11:13 0
11 *4:11 *11:13 0
12 *4:19 *11:13 0
13 *7:11 *11:11 0
14 *10:11 *11:11 0
15 *10:19 *11:19 0
*RES
1 FrameData[19] *11:11 48.8889 
2 *11:11 *11:13 60.667 
3 *11:13 *11:19 47.2409 
4 *11:19 *1099:A 40 
*END

*D_NET *12 0.0234141
*CONN
*P FrameData[1] I
*I *1081:A I *D sg13g2_buf_1
*CAP
1 FrameData[1] 0.00441461
2 *1081:A 0.00021786
3 *12:5 0.00463247
4 *1081:A *84:15 0.00020815
5 *1081:A *238:8 0
6 *12:5 *23:7 0
7 *12:5 *23:9 0
8 *12:5 *77:9 0.00814609
9 *12:5 *78:9 0
10 *12:5 *79:9 0.00579493
11 *1080:A *1081:A 0
12 *1:7 *12:5 0
13 *1:9 *12:5 0
*RES
1 FrameData[1] *12:5 61.0069 
2 *12:5 *1081:A 42.0497 
*END

*D_NET *13 0.0135051
*CONN
*P FrameData[20] I
*I *1100:A I *D sg13g2_buf_1
*CAP
1 FrameData[20] 8.5488e-05
2 *1100:A 7.13182e-05
3 *13:9 0.00470499
4 *13:7 0.00471916
5 *1100:A *275:8 0
6 *13:9 *14:5 0
7 *13:9 *15:13 0
8 *13:9 *161:21 0.00392419
9 *13:9 *261:18 0
10 *13:9 *283:12 0
11 *9:5 *13:9 0
12 *10:11 *13:9 0
13 *11:11 *13:9 0
*RES
1 FrameData[20] *13:7 0.9785 
2 *13:7 *13:9 58.4422 
3 *13:9 *1100:A 40.7519 
*END

*D_NET *14 0.0186534
*CONN
*P FrameData[21] I
*I *1101:A I *D sg13g2_buf_1
*CAP
1 FrameData[21] 0.00400611
2 *1101:A 6.19157e-05
3 *14:5 0.00406803
4 *1101:A *275:8 0
5 *14:5 *15:11 0
6 *14:5 *15:13 0
7 *14:5 *16:5 0
8 *14:5 *17:13 0.00531215
9 *14:5 *157:17 0.00520517
10 *14:5 *226:10 0
11 *14:5 *272:16 0
12 *13:9 *14:5 0
*RES
1 FrameData[21] *14:5 58.5349 
2 *14:5 *1101:A 40.6695 
*END

*D_NET *15 0.0152434
*CONN
*P FrameData[22] I
*I *1102:A I *D sg13g2_buf_1
*CAP
1 FrameData[22] 0.000883488
2 *1102:A 9.23862e-05
3 *15:13 0.00601743
4 *15:11 0.00680853
5 *1102:A *84:15 0
6 *1102:A *161:11 0.000144542
7 *15:11 *16:5 0
8 *15:13 *157:17 0
9 *15:13 *161:21 0
10 *15:13 *224:14 0.000557987
11 *15:13 *226:10 0.000739019
12 *13:9 *15:13 0
13 *14:5 *15:11 0
14 *14:5 *15:13 0
*RES
1 FrameData[22] *15:11 49.2288 
2 *15:11 *15:13 54.2398 
3 *15:13 *1102:A 40.9682 
*END

*D_NET *16 0.0174267
*CONN
*P FrameData[23] I
*I *1103:A I *D sg13g2_buf_1
*CAP
1 FrameData[23] 0.00356393
2 *1103:A 0
3 *16:19 0.000831928
4 *16:11 0.000975033
5 *16:5 0.00370703
6 *16:5 *17:5 0
7 *16:5 *268:14 0
8 *16:5 *272:16 0
9 *16:5 *282:14 0.000395112
10 *16:19 *17:13 0.00408371
11 *16:19 *172:21 0
12 *16:19 *299:10 0.00386992
13 *14:5 *16:5 0
14 *15:11 *16:5 0
*RES
1 FrameData[23] *16:5 38.7589 
2 *16:5 *16:11 41.4008 
3 *16:11 *16:19 39.5597 
4 *16:19 *1103:A 20 
*END

*D_NET *17 0.0204594
*CONN
*P FrameData[24] I
*I *1104:A I *D sg13g2_buf_1
*CAP
1 FrameData[24] 0.00292597
2 *1104:A 0
3 *17:13 0.00167103
4 *17:11 0.00191115
5 *17:5 0.00316609
6 *17:5 *18:11 0
7 *17:5 *19:9 0
8 *17:5 *268:14 0
9 *17:5 *273:12 0.000554077
10 *17:11 *1255:A 0
11 *17:11 *157:17 0
12 *17:11 *172:21 0.000176396
13 *17:13 *84:23 0.000658807
14 *17:13 *172:21 0
15 *17:13 *226:10 0
16 *17:13 *226:12 0
17 *17:13 *299:10 0
18 *14:5 *17:13 0.00531215
19 *16:5 *17:5 0
20 *16:19 *17:13 0.00408371
*RES
1 FrameData[24] *17:5 34.0621 
2 *17:5 *17:11 42.4823 
3 *17:11 *17:13 30.0142 
4 *17:13 *1104:A 40 
*END

*D_NET *18 0.0332413
*CONN
*P FrameData[25] I
*I *1105:A I *D sg13g2_buf_1
*CAP
1 FrameData[25] 0.000613579
2 *1105:A 0.000677783
3 *18:19 0.000911557
4 *18:13 0.00238697
5 *18:11 0.00276677
6 *1105:A *195:15 0
7 *1105:A *208:21 0.00193372
8 *1105:A *232:10 0.000180577
9 *1105:A *280:16 0
10 *1105:A *310:22 0
11 *18:11 *19:9 0
12 *18:11 *20:11 0
13 *18:11 *21:9 0
14 *18:13 *21:13 0.0117524
15 *18:13 *22:13 0.0120179
16 *17:5 *18:11 0
*RES
1 FrameData[25] *18:11 46.5096 
2 *18:11 *18:13 55.4758 
3 *18:13 *18:19 41.8334 
4 *18:19 *1105:A 49.0022 
*END

*D_NET *19 0.0214435
*CONN
*P FrameData[26] I
*I *1106:A I *D sg13g2_buf_1
*CAP
1 FrameData[26] 0.00104489
2 *1106:A 0
3 *19:37 0.000146865
4 *19:31 0.00198229
5 *19:27 0.00363159
6 *19:19 0.00355118
7 *19:9 0.0027999
8 *19:9 *20:11 0
9 *19:9 *21:9 0
10 *19:19 *267:22 0
11 *19:27 *125:16 0
12 *19:27 *170:21 0.00129188
13 *19:27 *171:25 0.00124003
14 *19:27 *199:25 0
15 *19:27 *267:22 0
16 *19:27 *281:16 7.93742e-05
17 *19:27 *298:20 0
18 *19:27 *300:20 0.000405439
19 *19:31 *20:13 0
20 *19:31 *21:13 0.00522339
21 *19:31 *189:17 0
22 *19:31 *289:16 0
23 *19:37 *208:15 4.669e-05
24 *17:5 *19:9 0
25 *18:11 *19:9 0
*RES
1 FrameData[26] *19:9 31.6081 
2 *19:9 *19:19 42.5982 
3 *19:19 *19:27 41.5991 
4 *19:27 *19:31 48.0366 
5 *19:31 *19:37 41.4008 
6 *19:37 *1106:A 40 
*END

*D_NET *20 0.0265642
*CONN
*P FrameData[27] I
*I *1107:A I *D sg13g2_buf_1
*CAP
1 FrameData[27] 0.000729003
2 *1107:A 8.70755e-05
3 *20:19 0.000560864
4 *20:13 0.00573575
5 *20:11 0.00599096
6 *1107:A FrameStrobe_O[5] 0.000144869
7 *1107:A FrameStrobe_O[6] 1.54285e-05
8 *1107:A FrameStrobe_O[7] 0
9 *20:11 *21:9 0
10 *20:11 *22:11 0
11 *20:11 *24:9 0
12 *20:13 *21:13 0
13 *20:13 *22:13 0.0133002
14 *20:13 *25:13 0
15 *20:13 *223:28 0
16 *20:13 *289:16 0
17 *20:19 *259:14 0
18 *18:11 *20:11 0
19 *19:9 *20:11 0
20 *19:31 *20:13 0
*RES
1 FrameData[27] *20:11 47.6838 
2 *20:11 *20:13 83.4094 
3 *20:13 *20:19 45.2942 
4 *20:19 *1107:A 40.9682 
*END

*D_NET *21 0.0263832
*CONN
*P FrameData[28] I
*I *1108:A I *D sg13g2_buf_1
*CAP
1 FrameData[28] 0.000870969
2 *1108:A 0
3 *21:19 0.000427814
4 *21:13 0.0038327
5 *21:11 0.00340489
6 *21:9 0.000870969
7 *21:13 *22:13 0
8 *21:13 *289:16 0
9 *21:19 *25:21 0
10 *21:19 *189:17 0
11 *18:11 *21:9 0
12 *18:13 *21:13 0.0117524
13 *19:9 *21:9 0
14 *19:31 *21:13 0.00522339
15 *20:11 *21:9 0
16 *20:13 *21:13 0
*RES
1 FrameData[28] *21:9 30.1249 
2 *21:9 *21:11 20 
3 *21:11 *21:13 61.903 
4 *21:13 *21:19 43.7801 
5 *21:19 *1108:A 40 
*END

*D_NET *22 0.0333878
*CONN
*P FrameData[29] I
*I *1109:A I *D sg13g2_buf_1
*CAP
1 FrameData[29] 0.000868601
2 *1109:A 0
3 *22:19 0.000483271
4 *22:13 0.00316622
5 *22:11 0.00355155
6 *22:11 *24:9 0
7 *22:19 *189:17 0
8 *18:13 *22:13 0.0120179
9 *20:11 *22:11 0
10 *20:13 *22:13 0.0133002
11 *21:13 *22:13 0
*RES
1 FrameData[29] *22:11 48.2091 
2 *22:11 *22:13 62.3974 
3 *22:13 *22:19 44.2127 
4 *22:19 *1109:A 40 
*END

*D_NET *23 0.0185482
*CONN
*P FrameData[2] I
*I *1082:A I *D sg13g2_buf_1
*CAP
1 FrameData[2] 7.52775e-05
2 *1082:A 0.000194892
3 *23:9 0.00482233
4 *23:7 0.00470272
5 *1082:A *84:15 0
6 *23:7 *26:5 0
7 *23:9 *26:5 0
8 *23:9 *77:9 0.00835872
9 *23:9 *213:10 0
10 *23:9 *238:10 0.000394236
11 *12:5 *23:7 0
12 *12:5 *23:9 0
*RES
1 FrameData[2] *23:7 0.9785 
2 *23:7 *23:9 61.6558 
3 *23:9 *1082:A 41.6171 
*END

*D_NET *24 0.026631
*CONN
*P FrameData[30] I
*I *1110:A I *D sg13g2_buf_1
*CAP
1 FrameData[30] 0.00136721
2 *1110:A 0
3 *24:19 0.000733608
4 *24:13 0.0053142
5 *24:11 0.00458059
6 *24:9 0.00136721
7 *24:9 *25:9 0
8 *24:13 *25:13 0
9 *24:13 *223:24 0
10 *24:19 *25:21 0.000984307
11 *10:13 *24:13 0.0122838
12 *11:11 *24:9 0
13 *20:11 *24:9 0
14 *22:11 *24:9 0
*RES
1 FrameData[30] *24:9 31.8244 
2 *24:9 *24:11 20 
3 *24:11 *24:13 66.5998 
4 *24:13 *24:19 47.4572 
5 *24:19 *1110:A 40 
*END

*D_NET *25 0.0173351
*CONN
*P FrameData[31] I
*I *1111:A I *D sg13g2_buf_1
*CAP
1 FrameData[31] 0.00114676
2 *1111:A 0
3 *25:21 0.000899351
4 *25:13 0.00640978
5 *25:11 0.00551043
6 *25:9 0.00114676
7 *25:13 *223:24 0.0011629
8 *25:21 *309:20 0
9 *25:21 *311:16 7.48466e-05
10 *20:13 *25:13 0
11 *21:19 *25:21 0
12 *24:9 *25:9 0
13 *24:13 *25:13 0
14 *24:19 *25:21 0.000984307
*RES
1 FrameData[31] *25:9 31.33 
2 *25:9 *25:11 20 
3 *25:11 *25:13 66.847 
4 *25:13 *25:21 48.6726 
5 *25:21 *1111:A 40 
*END

*D_NET *26 0.0132011
*CONN
*P FrameData[3] I
*I *1083:A I *D sg13g2_buf_1
*CAP
1 FrameData[3] 0.00628448
2 *1083:A 0.000143887
3 *26:5 0.00642837
4 *1083:A *209:9 0.000322079
5 *1083:A *222:12 0
6 *26:5 *27:5 0
7 *26:5 *209:9 0
8 *26:5 *213:10 0
9 *26:5 *222:10 0
10 *26:5 *222:12 2.22695e-05
11 *23:7 *26:5 0
12 *23:9 *26:5 0
*RES
1 FrameData[3] *26:5 61.594 
2 *26:5 *1083:A 41.8128 
*END

*D_NET *27 0.0187942
*CONN
*P FrameData[4] I
*I *1084:A I *D sg13g2_buf_1
*CAP
1 FrameData[4] 0.00425279
2 *1084:A 8.33994e-05
3 *27:5 0.00433619
4 *27:5 *28:5 0
5 *27:5 *65:17 0.0101218
6 *27:5 *209:9 0
7 *26:5 *27:5 0
*RES
1 FrameData[4] *27:5 59.7709 
2 *27:5 *1084:A 40.7519 
*END

*D_NET *28 0.0125687
*CONN
*P FrameData[5] I
*I *1085:A I *D sg13g2_buf_1
*CAP
1 FrameData[5] 0.00576228
2 *1085:A 0.00013612
3 *28:5 0.0058984
4 *1085:A *65:17 0
5 *1085:A *234:12 0.000289003
6 *1085:A *240:8 0
7 *1085:A *262:14 0.000482904
8 *28:5 *29:5 0
9 *28:5 *65:17 0
10 *28:5 *262:14 0
11 *27:5 *28:5 0
*RES
1 FrameData[5] *28:5 61.594 
2 *28:5 *1085:A 42.5544 
*END

*D_NET *29 0.011054
*CONN
*P FrameData[6] I
*I *1086:A I *D sg13g2_buf_1
*CAP
1 FrameData[6] 0.00539937
2 *1086:A 7.14194e-05
3 *29:5 0.00547079
4 *1086:A *84:15 0.000112426
5 *29:5 *30:11 0
6 *29:5 *31:5 0
7 *29:5 *242:10 0
8 *29:5 *262:14 0
9 *28:5 *29:5 0
*RES
1 FrameData[6] *29:5 61.5013 
2 *29:5 *1086:A 40.7519 
*END

*D_NET *30 0.00960233
*CONN
*P FrameData[7] I
*I *1087:A I *D sg13g2_buf_1
*CAP
1 FrameData[7] 0.000353989
2 *1087:A 0
3 *30:17 0
4 *30:13 0.00444718
5 *30:11 0.00480117
6 *30:11 *31:5 0
7 *30:13 *76:15 0
8 *29:5 *30:11 0
*RES
1 FrameData[7] *30:11 43.914 
2 *30:11 *30:13 57.4534 
3 *30:13 *30:17 40 
4 *30:17 *1087:A 40 
*END

*D_NET *31 0.0103324
*CONN
*P FrameData[8] I
*I *1088:A I *D sg13g2_buf_1
*CAP
1 FrameData[8] 0.00514199
2 *1088:A 2.41961e-05
3 *31:5 0.00516619
4 *31:5 *32:5 0
5 *31:5 *242:10 0
6 *31:5 *244:10 0
7 *2:5 *31:5 0
8 *29:5 *31:5 0
9 *30:11 *31:5 0
*RES
1 FrameData[8] *31:5 61.5013 
2 *31:5 *1088:A 40.3193 
*END

*D_NET *32 0.0111348
*CONN
*P FrameData[9] I
*I *1089:A I *D sg13g2_buf_1
*CAP
1 FrameData[9] 0.00549389
2 *1089:A 7.34908e-05
3 *32:5 0.00556738
4 *1089:A *84:15 0
5 *2:5 *32:5 0
6 *31:5 *32:5 0
*RES
1 FrameData[9] *32:5 60.0181 
2 *32:5 *1089:A 40.7519 
*END

*D_NET *33 0.00115716
*CONN
*P FrameData_O[0] O
*I *1185:X O *D sg13g2_buf_1
*CAP
1 FrameData_O[0] 0.000538556
2 *1185:X 0.000538556
3 FrameData_O[0] FrameData_O[1] 0
4 FrameData_O[0] FrameData_O[2] 8.00444e-05
5 FrameData_O[0] *1185:A 0
*RES
1 *1185:X FrameData_O[0] 45.9225 
*END

*D_NET *34 0.000414745
*CONN
*P FrameData_O[10] O
*I *1202:X O *D sg13g2_buf_1
*CAP
1 FrameData_O[10] 0.000207372
2 *1202:X 0.000207372
3 FrameData_O[10] FrameData_O[11] 0
4 FrameData_O[10] FrameData_O[9] 0
5 FrameData_O[10] *230:18 0
*RES
1 *1202:X FrameData_O[10] 42.2145 
*END

*D_NET *35 0.000642009
*CONN
*P FrameData_O[11] O
*I *1213:X O *D sg13g2_buf_1
*CAP
1 FrameData_O[11] 0.000321005
2 *1213:X 0.000321005
3 FrameData_O[11] FrameData_O[12] 0
4 FrameData_O[11] FrameData_O[9] 0
5 FrameData_O[11] *252:8 0
6 FrameData_O[10] FrameData_O[11] 0
*RES
1 *1213:X FrameData_O[11] 43.2033 
*END

*D_NET *36 0.000419476
*CONN
*P FrameData_O[12] O
*I *1224:X O *D sg13g2_buf_1
*CAP
1 FrameData_O[12] 0.000209738
2 *1224:X 0.000209738
3 FrameData_O[12] FrameData_O[13] 0
4 FrameData_O[12] *1224:A 0
5 FrameData_O[11] FrameData_O[12] 0
*RES
1 *1224:X FrameData_O[12] 42.2145 
*END

*D_NET *37 0.000694372
*CONN
*P FrameData_O[13] O
*I *1235:X O *D sg13g2_buf_1
*CAP
1 FrameData_O[13] 0.000347186
2 *1235:X 0.000347186
3 FrameData_O[13] FrameData_O[14] 0
4 FrameData_O[13] FrameData_O[15] 0
5 FrameData_O[13] *1235:A 0
6 FrameData_O[13] *1246:A 0
7 FrameData_O[13] *274:12 0
8 FrameData_O[12] FrameData_O[13] 0
*RES
1 *1235:X FrameData_O[13] 43.4196 
*END

*D_NET *38 0.000297607
*CONN
*P FrameData_O[14] O
*I *1246:X O *D sg13g2_buf_1
*CAP
1 FrameData_O[14] 0.000148804
2 *1246:X 0.000148804
3 FrameData_O[14] FrameData_O[15] 0
4 FrameData_O[13] FrameData_O[14] 0
*RES
1 *1246:X FrameData_O[14] 41.6789 
*END

*D_NET *39 0.000687976
*CONN
*P FrameData_O[15] O
*I *1257:X O *D sg13g2_buf_1
*CAP
1 FrameData_O[15] 0.000343988
2 *1257:X 0.000343988
3 FrameData_O[15] FrameData_O[16] 0
4 FrameData_O[15] FrameData_O[17] 0
5 FrameData_O[15] *296:8 0
6 FrameData_O[13] FrameData_O[15] 0
7 FrameData_O[14] FrameData_O[15] 0
*RES
1 *1257:X FrameData_O[15] 43.6359 
*END

*D_NET *40 0.000297607
*CONN
*P FrameData_O[16] O
*I *1268:X O *D sg13g2_buf_1
*CAP
1 FrameData_O[16] 0.000148804
2 *1268:X 0.000148804
3 FrameData_O[16] FrameData_O[17] 0
4 FrameData_O[15] FrameData_O[16] 0
*RES
1 *1268:X FrameData_O[16] 41.6789 
*END

*D_NET *41 0.000708331
*CONN
*P FrameData_O[17] O
*I *1279:X O *D sg13g2_buf_1
*CAP
1 FrameData_O[17] 0.000354165
2 *1279:X 0.000354165
3 FrameData_O[17] FrameData_O[18] 0
4 FrameData_O[17] *1279:A 0
5 FrameData_O[17] *214:18 0
6 FrameData_O[15] FrameData_O[17] 0
7 FrameData_O[16] FrameData_O[17] 0
*RES
1 *1279:X FrameData_O[17] 43.8522 
*END

*D_NET *42 0.000348098
*CONN
*P FrameData_O[18] O
*I *1186:X O *D sg13g2_buf_1
*CAP
1 FrameData_O[18] 0.000174049
2 *1186:X 0.000174049
3 FrameData_O[18] FrameData_O[19] 0
4 FrameData_O[18] *223:34 0
5 FrameData_O[17] FrameData_O[18] 0
*RES
1 *1186:X FrameData_O[18] 41.9982 
*END

*D_NET *43 0.000613745
*CONN
*P FrameData_O[19] O
*I *1193:X O *D sg13g2_buf_1
*CAP
1 FrameData_O[19] 0.000306873
2 *1193:X 0.000306873
3 FrameData_O[19] FrameData_O[20] 0
4 FrameData_O[19] *1193:A 0
5 FrameData_O[18] FrameData_O[19] 0
*RES
1 *1193:X FrameData_O[19] 43.0797 
*END

*D_NET *44 0.00118814
*CONN
*P FrameData_O[1] O
*I *1194:X O *D sg13g2_buf_1
*CAP
1 FrameData_O[1] 0.000594071
2 *1194:X 0.000594071
3 FrameData_O[1] FrameData_O[2] 0
4 FrameData_O[1] *1185:A 0
5 FrameData_O[1] *238:10 0
6 FrameData_O[0] FrameData_O[1] 0
*RES
1 *1194:X FrameData_O[1] 46.0461 
*END

*D_NET *45 0.000682346
*CONN
*P FrameData_O[20] O
*I *1195:X O *D sg13g2_buf_1
*CAP
1 FrameData_O[20] 0.000293749
2 *1195:X 0.000293749
3 FrameData_O[20] FrameData_O[21] 0
4 FrameData_O[20] FrameData_O[22] 0
5 FrameData_O[20] *1193:A 7.94462e-05
6 FrameData_O[20] *1195:A 0
7 FrameData_O[20] *1197:A 1.54008e-05
8 FrameData_O[20] *214:18 0
9 FrameData_O[20] *221:12 0
10 FrameData_O[19] FrameData_O[20] 0
*RES
1 *1195:X FrameData_O[20] 43.2033 
*END

*D_NET *46 0.000637446
*CONN
*P FrameData_O[21] O
*I *1196:X O *D sg13g2_buf_1
*CAP
1 FrameData_O[21] 0.000318723
2 *1196:X 0.000318723
3 FrameData_O[21] FrameData_O[22] 0
4 FrameData_O[21] *1193:A 0
5 FrameData_O[21] *1197:A 0
6 FrameData_O[20] FrameData_O[21] 0
*RES
1 *1196:X FrameData_O[21] 43.296 
*END

*D_NET *47 0.000762639
*CONN
*P FrameData_O[22] O
*I *1197:X O *D sg13g2_buf_1
*CAP
1 FrameData_O[22] 0.000317426
2 *1197:X 0.000317426
3 FrameData_O[22] FrameData_O[23] 0
4 FrameData_O[22] FrameData_O[24] 0
5 FrameData_O[22] *1197:A 0.000112386
6 FrameData_O[22] *1200:A 1.54008e-05
7 FrameData_O[22] *224:28 0
8 FrameData_O[22] *228:8 0
9 FrameData_O[20] FrameData_O[22] 0
10 FrameData_O[21] FrameData_O[22] 0
*RES
1 *1197:X FrameData_O[22] 43.4196 
*END

*D_NET *48 0.00069527
*CONN
*P FrameData_O[23] O
*I *1198:X O *D sg13g2_buf_1
*CAP
1 FrameData_O[23] 0.000339907
2 *1198:X 0.000339907
3 FrameData_O[23] FrameData_O[24] 0
4 FrameData_O[23] FrameData_O[25] 1.54556e-05
5 FrameData_O[23] *1200:A 0
6 FrameData_O[22] FrameData_O[23] 0
*RES
1 *1198:X FrameData_O[23] 43.6153 
*END

*D_NET *49 0.000858649
*CONN
*P FrameData_O[24] O
*I *1199:X O *D sg13g2_buf_1
*CAP
1 FrameData_O[24] 0.000333131
2 *1199:X 0.000333131
3 FrameData_O[24] FrameData_O[25] 0
4 FrameData_O[24] FrameData_O[26] 0
5 FrameData_O[24] *1199:A 0
6 FrameData_O[24] *1200:A 0.000144843
7 FrameData_O[24] *1201:A 4.75442e-05
8 FrameData_O[24] *224:28 0
9 FrameData_O[24] *226:22 0
10 FrameData_O[22] FrameData_O[24] 0
11 FrameData_O[23] FrameData_O[24] 0
*RES
1 *1199:X FrameData_O[24] 43.6359 
*END

*D_NET *50 0.000751335
*CONN
*P FrameData_O[25] O
*I *1200:X O *D sg13g2_buf_1
*CAP
1 FrameData_O[25] 0.00036794
2 *1200:X 0.00036794
3 FrameData_O[25] FrameData_O[26] 0
4 FrameData_O[25] *1200:A 0
5 FrameData_O[23] FrameData_O[25] 1.54556e-05
6 FrameData_O[24] FrameData_O[25] 0
*RES
1 *1200:X FrameData_O[25] 43.8316 
*END

*D_NET *51 0.00114087
*CONN
*P FrameData_O[26] O
*I *1201:X O *D sg13g2_buf_1
*CAP
1 FrameData_O[26] 0.000329742
2 *1201:X 0.000329742
3 FrameData_O[26] FrameData_O[27] 0
4 FrameData_O[26] *1200:A 0.000176511
5 FrameData_O[26] *1201:A 0.000176626
6 FrameData_O[26] *226:22 0.000128248
7 FrameData_O[24] FrameData_O[26] 0
8 FrameData_O[25] FrameData_O[26] 0
*RES
1 *1201:X FrameData_O[26] 43.8522 
*END

*D_NET *52 0.000750319
*CONN
*P FrameData_O[27] O
*I *1203:X O *D sg13g2_buf_1
*CAP
1 FrameData_O[27] 0.00037516
2 *1203:X 0.00037516
3 FrameData_O[27] FrameData_O[28] 0
4 FrameData_O[27] *226:22 0
5 FrameData_O[26] FrameData_O[27] 0
*RES
1 *1203:X FrameData_O[27] 43.9758 
*END

*D_NET *53 0.00104391
*CONN
*P FrameData_O[28] O
*I *1204:X O *D sg13g2_buf_1
*CAP
1 FrameData_O[28] 0.000481854
2 *1204:X 0.000481854
3 FrameData_O[28] FrameData_O[29] 0
4 FrameData_O[28] FrameData_O[30] 0
5 FrameData_O[28] FrameData_O[31] 8.01995e-05
6 FrameData_O[28] *1204:A 0
7 FrameData_O[28] *226:22 0
8 FrameData_O[28] *231:8 0
9 FrameData_O[27] FrameData_O[28] 0
*RES
1 *1204:X FrameData_O[28] 45.1809 
*END

*D_NET *54 0.00128617
*CONN
*P FrameData_O[29] O
*I *1205:X O *D sg13g2_buf_1
*CAP
1 FrameData_O[29] 0.000631999
2 *1205:X 0.000631999
3 FrameData_O[29] FrameData_O[30] 0
4 FrameData_O[29] FrameData_O[31] 0
5 FrameData_O[29] *1199:A 2.21754e-05
6 FrameData_O[29] *1201:A 0
7 FrameData_O[29] *1203:A 0
8 FrameData_O[28] FrameData_O[29] 0
*RES
1 *1205:X FrameData_O[29] 46.4581 
*END

*D_NET *55 0.001524
*CONN
*P FrameData_O[2] O
*I *1206:X O *D sg13g2_buf_1
*CAP
1 FrameData_O[2] 0.000553759
2 *1206:X 0.000553759
3 FrameData_O[2] FrameData_O[3] 0
4 FrameData_O[2] FrameData_O[4] 0
5 FrameData_O[2] *1185:A 0
6 FrameData_O[2] *1210:A 0
7 FrameData_O[2] *1211:A 4.75166e-05
8 FrameData_O[2] *237:16 0
9 FrameData_O[2] *238:10 0.000288917
10 FrameData_O[0] FrameData_O[2] 8.00444e-05
11 FrameData_O[1] FrameData_O[2] 0
*RES
1 *1206:X FrameData_O[2] 46.2418 
*END

*D_NET *56 0.00126711
*CONN
*P FrameData_O[30] O
*I *1207:X O *D sg13g2_buf_1
*CAP
1 FrameData_O[30] 0.000633553
2 *1207:X 0.000633553
3 FrameData_O[30] FrameData_O[31] 0
4 FrameData_O[28] FrameData_O[30] 0
5 FrameData_O[29] FrameData_O[30] 0
*RES
1 *1207:X FrameData_O[30] 47.0349 
*END

*D_NET *57 0.00178869
*CONN
*P FrameData_O[31] O
*I *1208:X O *D sg13g2_buf_1
*CAP
1 FrameData_O[31] 0.000814143
2 *1208:X 0.000814143
3 FrameData_O[31] *1203:A 8.01995e-05
4 FrameData_O[31] *1204:A 0
5 FrameData_O[28] FrameData_O[31] 8.01995e-05
6 FrameData_O[29] FrameData_O[31] 0
7 FrameData_O[30] FrameData_O[31] 0
*RES
1 *1208:X FrameData_O[31] 49.1773 
*END

*D_NET *58 0.000603307
*CONN
*P FrameData_O[3] O
*I *1209:X O *D sg13g2_buf_1
*CAP
1 FrameData_O[3] 0.000301653
2 *1209:X 0.000301653
3 FrameData_O[3] FrameData_O[4] 0
4 FrameData_O[3] FrameData_O[5] 0
5 FrameData_O[3] *1210:A 0
6 FrameData_O[2] FrameData_O[3] 0
*RES
1 *1209:X FrameData_O[3] 43.2033 
*END

*D_NET *59 0.000399936
*CONN
*P FrameData_O[4] O
*I *1210:X O *D sg13g2_buf_1
*CAP
1 FrameData_O[4] 0.000199968
2 *1210:X 0.000199968
3 FrameData_O[4] FrameData_O[5] 0
4 FrameData_O[2] FrameData_O[4] 0
5 FrameData_O[3] FrameData_O[4] 0
*RES
1 *1210:X FrameData_O[4] 42.2145 
*END

*D_NET *60 0.000571688
*CONN
*P FrameData_O[5] O
*I *1211:X O *D sg13g2_buf_1
*CAP
1 FrameData_O[5] 0.000221513
2 *1211:X 0.000221513
3 FrameData_O[5] FrameData_O[6] 0
4 FrameData_O[5] FrameData_O[7] 0
5 FrameData_O[5] *240:8 0.000128662
6 FrameData_O[3] FrameData_O[5] 0
7 FrameData_O[4] FrameData_O[5] 0
*RES
1 *1211:X FrameData_O[5] 42.6677 
*END

*D_NET *61 0.000297607
*CONN
*P FrameData_O[6] O
*I *1212:X O *D sg13g2_buf_1
*CAP
1 FrameData_O[6] 0.000148804
2 *1212:X 0.000148804
3 FrameData_O[6] FrameData_O[7] 0
4 FrameData_O[5] FrameData_O[6] 0
*RES
1 *1212:X FrameData_O[6] 41.6789 
*END

*D_NET *62 0.000470293
*CONN
*P FrameData_O[7] O
*I *1214:X O *D sg13g2_buf_1
*CAP
1 FrameData_O[7] 0.000235147
2 *1214:X 0.000235147
3 FrameData_O[7] FrameData_O[8] 0
4 FrameData_O[7] FrameData_O[9] 0
5 FrameData_O[7] *243:16 0
6 FrameData_O[5] FrameData_O[7] 0
7 FrameData_O[6] FrameData_O[7] 0
*RES
1 *1214:X FrameData_O[7] 42.6677 
*END

*D_NET *63 0.000297607
*CONN
*P FrameData_O[8] O
*I *1215:X O *D sg13g2_buf_1
*CAP
1 FrameData_O[8] 0.000148804
2 *1215:X 0.000148804
3 FrameData_O[8] FrameData_O[9] 0
4 FrameData_O[7] FrameData_O[8] 0
*RES
1 *1215:X FrameData_O[8] 41.6789 
*END

*D_NET *64 0.00061701
*CONN
*P FrameData_O[9] O
*I *1216:X O *D sg13g2_buf_1
*CAP
1 FrameData_O[9] 0.000243864
2 *1216:X 0.000243864
3 FrameData_O[9] *230:18 0.000129281
4 FrameData_O[10] FrameData_O[9] 0
5 FrameData_O[11] FrameData_O[9] 0
6 FrameData_O[7] FrameData_O[9] 0
7 FrameData_O[8] FrameData_O[9] 0
*RES
1 *1216:X FrameData_O[9] 42.987 
*END

*D_NET *65 0.0320282
*CONN
*P FrameStrobe[0] I
*I *1112:A I *D sg13g2_buf_1
*CAP
1 FrameStrobe[0] 0.000432654
2 *1112:A 5.94754e-05
3 *65:17 0.00329539
4 *65:15 0.00366856
5 *1112:A *1114:A 0
6 *1112:A *1184:A 0
7 *1112:A *220:6 0
8 *1112:A *245:6 0
9 *65:17 *209:9 0.0144503
10 *65:17 *237:12 0
11 *65:17 *239:12 0
12 *65:17 *240:8 0
13 *1085:A *65:17 0
14 *27:5 *65:17 0.0101218
15 *28:5 *65:17 0
*RES
1 FrameStrobe[0] *65:15 24.8101 
2 *65:15 *65:17 68.083 
3 *65:17 *1112:A 40.5356 
*END

*D_NET *66 0.0095261
*CONN
*P FrameStrobe[10] I
*I *1122:A I *D sg13g2_buf_1
*CAP
1 FrameStrobe[10] 0.00102837
2 *1122:A 0.000241395
3 *66:9 0.00126977
4 *66:9 *67:9 0
5 *66:9 *77:9 0.00328037
6 *66:9 *79:9 0.0037062
*RES
1 FrameStrobe[10] *66:9 39.9202 
2 *66:9 *1122:A 42.0497 
*END

*D_NET *67 0.00773337
*CONN
*P FrameStrobe[11] I
*I *1123:A I *D sg13g2_buf_1
*CAP
1 FrameStrobe[11] 0.000955937
2 *1123:A 0.000192443
3 *67:9 0.00114838
4 *1123:A *1124:A 0
5 *67:9 *77:9 0.00210487
6 *67:9 *238:10 0.00333175
7 *66:9 *67:9 0
*RES
1 FrameStrobe[11] *67:9 36.892 
2 *67:9 *1123:A 41.6171 
*END

*D_NET *68 0.00629699
*CONN
*P FrameStrobe[12] I
*I *1124:A I *D sg13g2_buf_1
*CAP
1 FrameStrobe[12] 0.000627855
2 *1124:A 0.000157102
3 *68:9 0.000784957
4 *1124:A *70:13 7.92265e-05
5 *68:9 *213:10 0.00233091
6 *68:9 *238:10 0.00231694
7 *1123:A *1124:A 0
*RES
1 FrameStrobe[12] *68:9 32.6278 
2 *68:9 *1124:A 41.5347 
*END

*D_NET *69 0.00216692
*CONN
*P FrameStrobe[13] I
*I *1125:A I *D sg13g2_buf_1
*CAP
1 FrameStrobe[13] 0.000514023
2 *1125:A 0
3 *69:11 0.000514023
4 *69:11 *1115:A 0.000369771
5 *69:11 *237:12 0.0007691
6 *69:11 *239:12 0
*RES
1 FrameStrobe[13] *69:11 46.5405 
2 *69:11 *1125:A 20 
*END

*D_NET *70 0.00123592
*CONN
*P FrameStrobe[14] I
*I *1126:A I *D sg13g2_buf_1
*CAP
1 FrameStrobe[14] 0.000342384
2 *1126:A 0
3 *70:13 0.000342384
4 *70:13 *213:10 0.00023685
5 *70:13 *222:12 0.000235075
6 *1124:A *70:13 7.92265e-05
*RES
1 FrameStrobe[14] *70:13 44.1715 
2 *70:13 *1126:A 20 
*END

*D_NET *71 0.000928869
*CONN
*P FrameStrobe[15] I
*I *1127:A I *D sg13g2_buf_1
*CAP
1 FrameStrobe[15] 0.000464435
2 *1127:A 0
3 *71:13 0.000464435
4 *71:13 *238:10 0
*RES
1 FrameStrobe[15] *71:13 44.9131 
2 *71:13 *1127:A 20 
*END

*D_NET *72 0.00504577
*CONN
*P FrameStrobe[16] I
*I *1128:A I *D sg13g2_buf_1
*CAP
1 FrameStrobe[16] 0.00252288
2 *1128:A 0.00252288
3 *1128:A *226:18 0
*RES
1 FrameStrobe[16] *1128:A 45.1217 
*END

*D_NET *73 0.00629732
*CONN
*P FrameStrobe[17] I
*I *1129:A I *D sg13g2_buf_1
*CAP
1 FrameStrobe[17] 0.000776057
2 *1129:A 0
3 *73:9 0.000776057
4 *73:9 *237:12 0.00253294
5 *73:9 *239:12 0
6 *73:9 *255:10 0.00221226
*RES
1 FrameStrobe[17] *73:9 34.6981 
2 *73:9 *1129:A 40 
*END

*D_NET *74 0.000894714
*CONN
*P FrameStrobe[18] I
*I *1130:A I *D sg13g2_buf_1
*CAP
1 FrameStrobe[18] 0.000447357
2 *1130:A 0.000447357
*RES
1 FrameStrobe[18] *1130:A 25.0367 
*END

*D_NET *75 0.000894714
*CONN
*P FrameStrobe[19] I
*I *1131:A I *D sg13g2_buf_1
*CAP
1 FrameStrobe[19] 0.000447357
2 *1131:A 0.000447357
*RES
1 FrameStrobe[19] *1131:A 25.0367 
*END

*D_NET *76 0.015507
*CONN
*P FrameStrobe[1] I
*I *1113:A I *D sg13g2_buf_1
*CAP
1 FrameStrobe[1] 0.000773609
2 *1113:A 0
3 *76:23 0
4 *76:19 0.00141371
5 *76:15 0.00697991
6 *76:13 0.0055662
7 *76:11 0.000773609
8 *3:19 *76:15 0
9 *11:13 *76:15 0
10 *30:13 *76:15 0
*RES
1 FrameStrobe[1] *76:11 48.2709 
2 *76:11 *76:13 20 
3 *76:13 *76:15 63.139 
4 *76:15 *76:19 36.1092 
5 *76:19 *76:23 40 
6 *76:23 *1113:A 20 
*END

*D_NET *77 0.0284555
*CONN
*P FrameStrobe[2] I
*I *1114:A I *D sg13g2_buf_1
*CAP
1 FrameStrobe[2] 0.000125419
2 *1114:A 0.000211991
3 *77:9 0.00315732
4 *77:7 0.00307075
5 *1114:A *1115:A 0
6 *77:9 *79:9 0
7 *77:9 *238:10 0
8 *1112:A *1114:A 0
9 *12:5 *77:9 0.00814609
10 *23:9 *77:9 0.00835872
11 *66:9 *77:9 0.00328037
12 *67:9 *77:9 0.00210487
*RES
1 FrameStrobe[2] *77:7 21.2463 
2 *77:7 *77:9 58.6894 
3 *77:9 *1114:A 41.7454 
*END

*D_NET *78 0.0235839
*CONN
*P FrameStrobe[3] I
*I *1115:A I *D sg13g2_buf_1
*CAP
1 FrameStrobe[3] 6.14299e-05
2 *1115:A 0.000243112
3 *78:9 0.0030279
4 *78:7 0.00284621
5 *78:9 *79:9 0.0105479
6 *1114:A *1115:A 0
7 *1:9 *78:9 0.00648757
8 *12:5 *78:9 0
9 *69:11 *1115:A 0.000369771
*RES
1 FrameStrobe[3] *78:7 20.5974 
2 *78:7 *78:9 54.2398 
3 *78:9 *1115:A 42.4823 
*END

*D_NET *79 0.0251011
*CONN
*P FrameStrobe[4] I
*I *1116:A I *D sg13g2_buf_1
*CAP
1 FrameStrobe[4] 8.48693e-05
2 *1116:A 0.000264076
3 *79:9 0.0024412
4 *79:7 0.00226199
5 *12:5 *79:9 0.00579493
6 *66:9 *79:9 0.0037062
7 *77:9 *79:9 0
8 *78:9 *79:9 0.0105479
*RES
1 FrameStrobe[4] *79:7 20.8137 
2 *79:7 *79:9 49.7902 
3 *79:9 *1116:A 42.266 
*END

*D_NET *80 0.00496224
*CONN
*P FrameStrobe[5] I
*I *1117:A I *D sg13g2_buf_1
*CAP
1 FrameStrobe[5] 0.00224854
2 *1117:A 0.00224854
3 *1117:A *161:21 0.000465162
4 *1117:A *185:29 0
5 *1117:A *187:27 0
6 *1117:A *261:8 0
*RES
1 FrameStrobe[5] *1117:A 42.5879 
*END

*D_NET *81 0.000932289
*CONN
*P FrameStrobe[6] I
*I *1118:A I *D sg13g2_buf_1
*CAP
1 FrameStrobe[6] 0.000466145
2 *1118:A 0.000466145
*RES
1 FrameStrobe[6] *1118:A 25.0985 
*END

*D_NET *82 0.000929444
*CONN
*P FrameStrobe[7] I
*I *1119:A I *D sg13g2_buf_1
*CAP
1 FrameStrobe[7] 0.000464722
2 *1119:A 0.000464722
*RES
1 FrameStrobe[7] *1119:A 25.0985 
*END

*D_NET *83 0.00279066
*CONN
*P FrameStrobe[8] I
*I *1120:A I *D sg13g2_buf_1
*CAP
1 FrameStrobe[8] 0.00139533
2 *1120:A 0.00139533
3 *1120:A *265:12 0
4 *1080:A *1120:A 0
*RES
1 FrameStrobe[8] *1120:A 34.1213 
*END

*D_NET *84 0.0151879
*CONN
*P FrameStrobe[9] I
*I *1121:A I *D sg13g2_buf_1
*CAP
1 FrameStrobe[9] 0.00204715
2 *1121:A 0
3 *84:35 0.000567967
4 *84:23 0.00354033
5 *84:15 0.00501951
6 *84:15 *234:8 0
7 *84:15 *241:8 0
8 *84:15 *242:8 0.000112541
9 *84:15 *243:8 0
10 *84:15 *275:8 0
11 *84:15 *283:8 0
12 *84:23 *226:12 0
13 *84:23 *227:10 0
14 *84:23 *233:10 0
15 *84:23 *249:6 0.000175693
16 *84:23 *299:10 0.00215083
17 *84:35 FrameStrobe_O[7] 4.77083e-05
18 *84:35 FrameStrobe_O[9] 0.000144291
19 *84:35 *1233:A 0.000402474
20 *84:35 *1238:A 0
21 *84:35 *231:8 0
22 *84:35 *249:6 0
23 *84:35 *249:12 0
24 *84:35 *259:14 0
25 *1081:A *84:15 0.00020815
26 *1082:A *84:15 0
27 *1086:A *84:15 0.000112426
28 *1089:A *84:15 0
29 *1093:A *84:15 0
30 *1102:A *84:15 0
31 *17:13 *84:23 0.000658807
*RES
1 FrameStrobe[9] *84:15 39.673 
2 *84:15 *84:23 47.5937 
3 *84:23 *84:35 45.4796 
4 *84:35 *1121:A 20 
*END

*D_NET *85 0.000872922
*CONN
*P FrameStrobe_O[0] O
*I *1217:X O *D sg13g2_buf_1
*CAP
1 FrameStrobe_O[0] 0.000363968
2 *1217:X 0.000363968
3 FrameStrobe_O[0] FrameStrobe_O[1] 0
4 FrameStrobe_O[0] FrameStrobe_O[2] 0.000144985
5 FrameStrobe_O[0] UserCLKo 0
*RES
1 *1217:X FrameStrobe_O[0] 23.708 
*END

*D_NET *86 0.00181233
*CONN
*P FrameStrobe_O[10] O
*I *1218:X O *D sg13g2_buf_1
*CAP
1 FrameStrobe_O[10] 0.000338097
2 *1218:X 0.000173377
3 *86:8 0.000511474
4 FrameStrobe_O[10] FrameStrobe_O[11] 0
5 FrameStrobe_O[10] FrameStrobe_O[9] 0
6 *86:8 *88:10 0.00039473
7 *86:8 *103:12 0.00039465
8 *86:8 *231:8 0
*RES
1 *1218:X *86:8 42.8222 
2 *86:8 FrameStrobe_O[10] 22.7604 
*END

*D_NET *87 0.00145257
*CONN
*P FrameStrobe_O[11] O
*I *1219:X O *D sg13g2_buf_1
*CAP
1 FrameStrobe_O[11] 0.000718585
2 *1219:X 0.000718585
3 FrameStrobe_O[11] FrameStrobe_O[12] 0
4 FrameStrobe_O[11] FrameStrobe_O[13] 0
5 FrameStrobe_O[11] *1237:A 0
6 FrameStrobe_O[11] *103:12 1.54008e-05
7 FrameStrobe_O[11] *262:24 0
8 FrameStrobe_O[10] FrameStrobe_O[11] 0
*RES
1 *1219:X FrameStrobe_O[11] 26.3716 
*END

*D_NET *88 0.00158669
*CONN
*P FrameStrobe_O[12] O
*I *1220:X O *D sg13g2_buf_1
*CAP
1 FrameStrobe_O[12] 0.000308245
2 *1220:X 0.00024019
3 *88:10 0.000548435
4 FrameStrobe_O[12] FrameStrobe_O[13] 0
5 *88:10 FrameStrobe_O[17] 4.75425e-05
6 *88:10 FrameStrobe_O[18] 4.75425e-05
7 *88:10 *90:10 0
8 *88:10 *231:8 0
9 FrameStrobe_O[11] FrameStrobe_O[12] 0
10 *86:8 *88:10 0.00039473
*RES
1 *1220:X *88:10 43.1415 
2 *88:10 FrameStrobe_O[12] 22.5441 
*END

*D_NET *89 0.00145644
*CONN
*P FrameStrobe_O[13] O
*I *1221:X O *D sg13g2_buf_1
*CAP
1 FrameStrobe_O[13] 0.00071722
2 *1221:X 0.00071722
3 FrameStrobe_O[13] FrameStrobe_O[15] 2.19969e-05
4 FrameStrobe_O[13] *1237:A 0
5 FrameStrobe_O[11] FrameStrobe_O[13] 0
6 FrameStrobe_O[12] FrameStrobe_O[13] 0
*RES
1 *1221:X FrameStrobe_O[13] 26.4684 
*END

*D_NET *90 0.00165221
*CONN
*P FrameStrobe_O[14] O
*I *1222:X O *D sg13g2_buf_1
*CAP
1 FrameStrobe_O[14] 0.000176989
2 *1222:X 0.000347397
3 *90:10 0.000524387
4 FrameStrobe_O[14] FrameStrobe_O[15] 0
5 *90:10 FrameStrobe_O[19] 0.000209614
6 *90:10 *92:10 0.000393821
7 *88:10 *90:10 0
*RES
1 *1222:X *90:10 44.223 
2 *90:10 FrameStrobe_O[14] 21.4626 
*END

*D_NET *91 0.00151869
*CONN
*P FrameStrobe_O[15] O
*I *1223:X O *D sg13g2_buf_1
*CAP
1 FrameStrobe_O[15] 0.000659741
2 *1223:X 0.000659741
3 FrameStrobe_O[15] FrameStrobe_O[16] 0
4 FrameStrobe_O[15] FrameStrobe_O[17] 0
5 FrameStrobe_O[15] *246:30 0.000177212
6 FrameStrobe_O[13] FrameStrobe_O[15] 2.19969e-05
7 FrameStrobe_O[14] FrameStrobe_O[15] 0
*RES
1 *1223:X FrameStrobe_O[15] 25.8772 
*END

*D_NET *92 0.00142964
*CONN
*P FrameStrobe_O[16] O
*I *1225:X O *D sg13g2_buf_1
*CAP
1 FrameStrobe_O[16] 0.000149957
2 *1225:X 0.00036795
3 *92:10 0.000517907
4 FrameStrobe_O[16] FrameStrobe_O[17] 0
5 *92:10 *94:8 0
6 FrameStrobe_O[15] FrameStrobe_O[16] 0
7 *90:10 *92:10 0.000393821
*RES
1 *1225:X *92:10 44.4393 
2 *92:10 FrameStrobe_O[16] 21.2463 
*END

*D_NET *93 0.00137516
*CONN
*P FrameStrobe_O[17] O
*I *1226:X O *D sg13g2_buf_1
*CAP
1 FrameStrobe_O[17] 0.000656079
2 *1226:X 0.000656079
3 FrameStrobe_O[17] FrameStrobe_O[18] 0
4 FrameStrobe_O[17] FrameStrobe_O[19] 0
5 FrameStrobe_O[17] *246:30 1.54556e-05
6 FrameStrobe_O[17] *248:20 0
7 FrameStrobe_O[15] FrameStrobe_O[17] 0
8 FrameStrobe_O[16] FrameStrobe_O[17] 0
9 *88:10 FrameStrobe_O[17] 4.75425e-05
*RES
1 *1226:X FrameStrobe_O[17] 25.974 
*END

*D_NET *94 0.00123042
*CONN
*P FrameStrobe_O[18] O
*I *1227:X O *D sg13g2_buf_1
*CAP
1 FrameStrobe_O[18] 0.000335131
2 *1227:X 0.00025631
3 *94:8 0.000591441
4 FrameStrobe_O[18] FrameStrobe_O[19] 0
5 *94:8 *231:8 0
6 *94:8 *253:8 0
7 FrameStrobe_O[17] FrameStrobe_O[18] 0
8 *88:10 FrameStrobe_O[18] 4.75425e-05
9 *92:10 *94:8 0
*RES
1 *1227:X *94:8 42.8222 
2 *94:8 FrameStrobe_O[18] 22.7604 
*END

*D_NET *95 0.0014478
*CONN
*P FrameStrobe_O[19] O
*I *1228:X O *D sg13g2_buf_1
*CAP
1 FrameStrobe_O[19] 0.000608005
2 *1228:X 0.000608005
3 FrameStrobe_O[19] *248:20 2.21754e-05
4 FrameStrobe_O[19] *250:16 0
5 FrameStrobe_O[17] FrameStrobe_O[19] 0
6 FrameStrobe_O[18] FrameStrobe_O[19] 0
7 *90:10 FrameStrobe_O[19] 0.000209614
*RES
1 *1228:X FrameStrobe_O[19] 25.974 
*END

*D_NET *96 0.0012373
*CONN
*P FrameStrobe_O[1] O
*I *1229:X O *D sg13g2_buf_1
*CAP
1 FrameStrobe_O[1] 0.000173734
2 *1229:X 0.000235159
3 *96:10 0.000408893
4 FrameStrobe_O[1] FrameStrobe_O[2] 0
5 *96:10 FrameStrobe_O[3] 0.000209756
6 *96:10 FrameStrobe_O[4] 0.000209756
7 *96:10 *257:10 0
8 FrameStrobe_O[0] FrameStrobe_O[1] 0
*RES
1 *1229:X *96:10 42.7398 
2 *96:10 FrameStrobe_O[1] 21.4626 
*END

*D_NET *97 0.00142214
*CONN
*P FrameStrobe_O[2] O
*I *1230:X O *D sg13g2_buf_1
*CAP
1 FrameStrobe_O[2] 0.00055028
2 *1230:X 0.00055028
3 FrameStrobe_O[2] FrameStrobe_O[3] 0
4 FrameStrobe_O[2] FrameStrobe_O[4] 0
5 FrameStrobe_O[2] *1192:A 0
6 FrameStrobe_O[2] *199:7 0
7 FrameStrobe_O[2] *245:14 0.000176599
8 FrameStrobe_O[0] FrameStrobe_O[2] 0.000144985
9 FrameStrobe_O[1] FrameStrobe_O[2] 0
*RES
1 *1230:X FrameStrobe_O[2] 25.2736 
*END

*D_NET *98 0.00187181
*CONN
*P FrameStrobe_O[3] O
*I *1231:X O *D sg13g2_buf_1
*CAP
1 FrameStrobe_O[3] 0.000403388
2 *1231:X 0.000156765
3 *98:8 0.000560153
4 FrameStrobe_O[3] FrameStrobe_O[4] 0
5 FrameStrobe_O[3] *245:14 4.77699e-05
6 *98:8 *101:10 0.000183133
7 *98:8 *231:8 0.000129657
8 *98:8 *257:10 0.000181192
9 *98:8 *258:12 0
10 *98:8 *259:14 0
11 FrameStrobe_O[2] FrameStrobe_O[3] 0
12 *96:10 FrameStrobe_O[3] 0.000209756
*RES
1 *1231:X *98:8 42.3278 
2 *98:8 FrameStrobe_O[3] 23.6256 
*END

*D_NET *99 0.00137499
*CONN
*P FrameStrobe_O[4] O
*I *1232:X O *D sg13g2_buf_1
*CAP
1 FrameStrobe_O[4] 0.000582618
2 *1232:X 0.000582618
3 FrameStrobe_O[4] FrameStrobe_O[5] 0
4 FrameStrobe_O[4] *245:14 0
5 FrameStrobe_O[2] FrameStrobe_O[4] 0
6 FrameStrobe_O[3] FrameStrobe_O[4] 0
7 *96:10 FrameStrobe_O[4] 0.000209756
*RES
1 *1232:X FrameStrobe_O[4] 25.2736 
*END

*D_NET *100 0.00144119
*CONN
*P FrameStrobe_O[5] O
*I *1233:X O *D sg13g2_buf_1
*CAP
1 FrameStrobe_O[5] 0.000648161
2 *1233:X 0.000648161
3 FrameStrobe_O[5] FrameStrobe_O[6] 0
4 FrameStrobe_O[5] FrameStrobe_O[7] 0
5 FrameStrobe_O[5] *260:14 0
6 FrameStrobe_O[4] FrameStrobe_O[5] 0
7 *1107:A FrameStrobe_O[5] 0.000144869
*RES
1 *1233:X FrameStrobe_O[5] 25.871 
*END

*D_NET *101 0.0017817
*CONN
*P FrameStrobe_O[6] O
*I *1234:X O *D sg13g2_buf_1
*CAP
1 FrameStrobe_O[6] 0.000404367
2 *1234:X 0.000363331
3 *101:10 0.000767697
4 FrameStrobe_O[6] FrameStrobe_O[7] 0
5 *101:10 *103:12 0
6 *101:10 *231:8 0
7 *101:10 *262:24 4.77425e-05
8 FrameStrobe_O[5] FrameStrobe_O[6] 0
9 *1107:A FrameStrobe_O[6] 1.54285e-05
10 *98:8 *101:10 0.000183133
*RES
1 *1234:X *101:10 43.1415 
2 *101:10 FrameStrobe_O[6] 23.4093 
*END

*D_NET *102 0.0015337
*CONN
*P FrameStrobe_O[7] O
*I *1236:X O *D sg13g2_buf_1
*CAP
1 FrameStrobe_O[7] 0.000630957
2 *1236:X 0.000630957
3 FrameStrobe_O[7] FrameStrobe_O[9] 0.000143998
4 FrameStrobe_O[7] *259:20 8.00842e-05
5 FrameStrobe_O[5] FrameStrobe_O[7] 0
6 FrameStrobe_O[6] FrameStrobe_O[7] 0
7 *1107:A FrameStrobe_O[7] 0
8 *84:35 FrameStrobe_O[7] 4.77083e-05
*RES
1 *1236:X FrameStrobe_O[7] 26.077 
*END

*D_NET *103 0.00175
*CONN
*P FrameStrobe_O[8] O
*I *1237:X O *D sg13g2_buf_1
*CAP
1 FrameStrobe_O[8] 0.000310839
2 *1237:X 0.000359138
3 *103:12 0.000669977
4 FrameStrobe_O[11] *103:12 1.54008e-05
5 *86:8 *103:12 0.00039465
6 *101:10 *103:12 0
*RES
1 *1237:X *103:12 43.6771 
2 *103:12 FrameStrobe_O[8] 22.5441 
*END

*D_NET *104 0.00164508
*CONN
*P FrameStrobe_O[9] O
*I *1238:X O *D sg13g2_buf_1
*CAP
1 FrameStrobe_O[9] 0.000622202
2 *1238:X 0.000622202
3 FrameStrobe_O[9] *1238:A 0
4 FrameStrobe_O[9] *259:20 0.000112391
5 FrameStrobe_O[10] FrameStrobe_O[9] 0
6 FrameStrobe_O[7] FrameStrobe_O[9] 0.000143998
7 *84:35 FrameStrobe_O[9] 0.000144291
*RES
1 *1238:X FrameStrobe_O[9] 25.974 
*END

*D_NET *105 0.00175129
*CONN
*P N1BEG[0] O
*I *1239:X O *D sg13g2_buf_1
*CAP
1 N1BEG[0] 0.000331295
2 *1239:X 0.000320966
3 *105:8 0.000652261
4 N1BEG[0] N1BEG[1] 0
5 *105:8 *158:45 0
6 *105:8 *267:22 0
7 *105:8 *271:28 0.000446767
*RES
1 *1239:X *105:8 43.5638 
2 *105:8 N1BEG[0] 22.7604 
*END

*D_NET *106 0.00198919
*CONN
*P N1BEG[1] O
*I *1240:X O *D sg13g2_buf_1
*CAP
1 N1BEG[1] 0.000802136
2 *1240:X 0.000802136
3 N1BEG[1] N1BEG[2] 0
4 N1BEG[1] N1BEG[3] 0
5 N1BEG[1] *1242:A 1.54008e-05
6 N1BEG[1] *1245:A 0.000209871
7 N1BEG[1] *1247:A 0
8 N1BEG[1] *1251:A 4.77425e-05
9 N1BEG[1] *108:10 0.000111901
10 N1BEG[1] *110:18 0
11 N1BEG[0] N1BEG[1] 0
*RES
1 *1240:X N1BEG[1] 27.5602 
*END

*D_NET *107 0.0021249
*CONN
*P N1BEG[2] O
*I *1241:X O *D sg13g2_buf_1
*CAP
1 N1BEG[2] 0.000234718
2 *1241:X 0.000480359
3 *107:10 0.000715077
4 N1BEG[2] N1BEG[3] 0
5 *107:10 *1247:A 0.000242328
6 *107:10 *1249:A 0
7 *107:10 *108:10 0
8 *107:10 *112:10 0.000452421
9 *107:10 *267:22 0
10 N1BEG[1] N1BEG[2] 0
*RES
1 *1241:X *107:10 44.9646 
2 *107:10 N1BEG[2] 21.8952 
*END

*D_NET *108 0.00220677
*CONN
*P N1BEG[3] O
*I *1242:X O *D sg13g2_buf_1
*CAP
1 N1BEG[3] 0.000373772
2 *1242:X 0.000248965
3 *108:10 0.000622738
4 N1BEG[3] N2BEG[0] 0
5 N1BEG[3] *110:18 0.000272834
6 N1BEG[3] *116:12 4.77425e-05
7 *108:10 *1249:A 0.000144332
8 *108:10 *116:12 7.51285e-05
9 *108:10 *158:45 0.000181192
10 *108:10 *279:8 0.00012816
11 N1BEG[1] N1BEG[3] 0
12 N1BEG[1] *108:10 0.000111901
13 N1BEG[2] N1BEG[3] 0
14 *107:10 *108:10 0
*RES
1 *1242:X *108:10 42.9561 
2 *108:10 N1BEG[3] 23.4093 
*END

*D_NET *109 0.00247791
*CONN
*P N2BEG[0] O
*I *1243:X O *D sg13g2_buf_1
*CAP
1 N2BEG[0] 0.000272292
2 *1243:X 0.000252578
3 *109:10 0.000524871
4 N2BEG[0] N2BEG[1] 0
5 N2BEG[0] *110:18 0.000111568
6 *109:10 *112:10 0.000552466
7 *109:10 *267:22 0
8 *109:10 *271:28 0.000764139
9 N1BEG[3] N2BEG[0] 0
*RES
1 *1243:X *109:10 44.0994 
2 *109:10 N2BEG[0] 22.3278 
*END

*D_NET *110 0.00257171
*CONN
*P N2BEG[1] O
*I *1244:X O *D sg13g2_buf_1
*CAP
1 N2BEG[1] 0.000207058
2 *1244:X 0.00068437
3 *110:18 0.000891428
4 N2BEG[1] N2BEG[2] 0
5 *110:18 *1248:A 6.32858e-05
6 *110:18 *1250:A 0
7 *110:18 *1253:A 0.0001122
8 *110:18 *112:10 0
9 *110:18 *113:14 4.77702e-05
10 *110:18 *115:10 0
11 *110:18 *118:14 0
12 *110:18 *267:22 0.000181192
13 *110:18 *277:10 0
14 N1BEG[1] *110:18 0
15 N1BEG[3] *110:18 0.000272834
16 N2BEG[0] N2BEG[1] 0
17 N2BEG[0] *110:18 0.000111568
*RES
1 *1244:X *110:18 47.0761 
2 *110:18 N2BEG[1] 21.6789 
*END

*D_NET *111 0.00172262
*CONN
*P N2BEG[2] O
*I *1245:X O *D sg13g2_buf_1
*CAP
1 N2BEG[2] 0.000575746
2 *1245:X 0.00024552
3 *111:10 0.000821266
4 N2BEG[2] N2BEG[3] 0
5 N2BEG[2] N2BEG[5] 0
6 N2BEG[2] *1143:A 0
7 N2BEG[2] *1250:A 0
8 N2BEG[2] *113:14 0
9 N2BEG[2] *118:14 8.00842e-05
10 N2BEG[2] *277:10 0
11 *111:10 *273:12 0
12 *111:10 *277:10 0
13 N2BEG[1] N2BEG[2] 0
*RES
1 *1245:X *111:10 42.6162 
2 *111:10 N2BEG[2] 24.944 
*END

*D_NET *112 0.00264495
*CONN
*P N2BEG[3] O
*I *1247:X O *D sg13g2_buf_1
*CAP
1 N2BEG[3] 0.000240099
2 *1247:X 0.000362876
3 *112:10 0.000602975
4 N2BEG[3] N2BEG[4] 0
5 N2BEG[3] *1143:A 0.000144379
6 *112:10 *158:45 0.000289733
7 *112:10 *267:22 0
8 N2BEG[2] N2BEG[3] 0
9 *107:10 *112:10 0.000452421
10 *109:10 *112:10 0.000552466
11 *110:18 *112:10 0
*RES
1 *1247:X *112:10 44.8101 
2 *112:10 N2BEG[3] 22.1115 
*END

*D_NET *113 0.00266632
*CONN
*P N2BEG[4] O
*I *1248:X O *D sg13g2_buf_1
*CAP
1 N2BEG[4] 0.000254741
2 *1248:X 0.000369103
3 *113:14 0.000623844
4 N2BEG[4] N2BEG[5] 0
5 N2BEG[4] *1143:A 0.000207731
6 N2BEG[4] *1148:A 0.0002401
7 *113:14 *1253:A 0.0001122
8 *113:14 *118:14 0.000470131
9 *113:14 *158:45 0.000340704
10 *113:14 *277:10 0
11 N2BEG[2] *113:14 0
12 N2BEG[3] N2BEG[4] 0
13 *110:18 *113:14 4.77702e-05
*RES
1 *1248:X *113:14 44.5217 
2 *113:14 N2BEG[4] 22.5441 
*END

*D_NET *114 0.00313071
*CONN
*P N2BEG[5] O
*I *1249:X O *D sg13g2_buf_1
*CAP
1 N2BEG[5] 0.000390517
2 *1249:X 0.000287257
3 *114:8 0.000677774
4 N2BEG[5] N2BEG[6] 0
5 N2BEG[5] *1148:A 0.000374701
6 N2BEG[5] *170:29 0.000434265
7 N2BEG[5] *284:12 1.54008e-05
8 *114:8 *116:12 0
9 *114:8 *277:10 0
10 *114:8 *279:8 0.000446767
11 *114:8 *281:22 0.000504026
12 N2BEG[2] N2BEG[5] 0
13 N2BEG[4] N2BEG[5] 0
*RES
1 *1249:X *114:8 43.811 
2 *114:8 N2BEG[5] 24.2951 
*END

*D_NET *115 0.00263653
*CONN
*P N2BEG[6] O
*I *1250:X O *D sg13g2_buf_1
*CAP
1 N2BEG[6] 0.000602112
2 *1250:X 0.000259294
3 *115:10 0.000861407
4 N2BEG[6] N2BEG[7] 8.00842e-05
5 N2BEG[6] N2BEGb[0] 0.000112454
6 N2BEG[6] *1260:A 1.65559e-05
7 N2BEG[6] *120:16 0.000241167
8 N2BEG[6] *170:29 0.000337098
9 *115:10 *170:29 0
10 *115:10 *171:33 0.000126354
11 *115:10 *273:12 0
12 *115:10 *277:10 0
13 *115:10 *284:12 0
14 N2BEG[5] N2BEG[6] 0
15 *110:18 *115:10 0
*RES
1 *1250:X *115:10 42.6162 
2 *115:10 N2BEG[6] 25.8092 
*END

*D_NET *116 0.00245906
*CONN
*P N2BEG[7] O
*I *1251:X O *D sg13g2_buf_1
*CAP
1 N2BEG[7] 0.00039029
2 *1251:X 0.000626841
3 *116:12 0.00101713
4 N2BEG[7] N2BEGb[0] 4.77425e-05
5 *116:12 *1251:A 4.77425e-05
6 *116:12 *118:14 0
7 *116:12 *279:8 0
8 *116:12 *281:22 0
9 *116:12 *288:20 0.000126358
10 N1BEG[3] *116:12 4.77425e-05
11 N2BEG[6] N2BEG[7] 8.00842e-05
12 *108:10 *116:12 7.51285e-05
13 *114:8 *116:12 0
*RES
1 *1251:X *116:12 45.4075 
2 *116:12 N2BEG[7] 23.193 
*END

*D_NET *117 0.00204068
*CONN
*P N2BEGb[0] O
*I *1252:X O *D sg13g2_buf_1
*CAP
1 N2BEGb[0] 0.000844346
2 *1252:X 0.000844346
3 N2BEGb[0] N2BEGb[1] 0
4 N2BEGb[0] *1149:A 0
5 N2BEGb[0] *1255:A 0
6 N2BEGb[0] *1256:A 0
7 N2BEGb[0] *1258:A 0
8 N2BEGb[0] *119:10 0
9 N2BEGb[0] *120:16 0
10 N2BEGb[0] *124:16 0
11 N2BEGb[0] *133:14 0
12 N2BEGb[0] *280:28 1.54008e-05
13 N2BEGb[0] *298:30 0.000176396
14 N2BEG[6] N2BEGb[0] 0.000112454
15 N2BEG[7] N2BEGb[0] 4.77425e-05
*RES
1 *1252:X N2BEGb[0] 27.9104 
*END

*D_NET *118 0.0027646
*CONN
*P N2BEGb[1] O
*I *1253:X O *D sg13g2_buf_1
*CAP
1 N2BEGb[1] 0.000331199
2 *1253:X 0.000508931
3 *118:14 0.00084013
4 N2BEGb[1] N2BEGb[2] 0
5 N2BEGb[1] *133:14 0.00014379
6 *118:14 *1250:A 0
7 *118:14 *158:45 0.000390334
8 N2BEG[2] *118:14 8.00842e-05
9 N2BEGb[0] N2BEGb[1] 0
10 *110:18 *118:14 0
11 *113:14 *118:14 0.000470131
12 *116:12 *118:14 0
*RES
1 *1253:X *118:14 45.4487 
2 *118:14 N2BEGb[1] 22.7604 
*END

*D_NET *119 0.00237817
*CONN
*P N2BEGb[2] O
*I *1254:X O *D sg13g2_buf_1
*CAP
1 N2BEGb[2] 0.000301098
2 *1254:X 0.00010719
3 *119:16 0.000591805
4 *119:10 0.000397898
5 N2BEGb[2] *1150:A 0.000338002
6 N2BEGb[2] *133:14 0.000176484
7 *119:10 *122:10 0
8 *119:10 *273:12 7.51285e-05
9 *119:16 *123:16 0
10 *119:16 *163:27 0.000211579
11 *119:16 *171:25 0
12 *119:16 *288:20 0.000178985
13 *119:16 *297:30 0
14 N2BEGb[0] *119:10 0
15 N2BEGb[1] N2BEGb[2] 0
*RES
1 *1254:X *119:10 40.8858 
2 *119:10 *119:16 43.3475 
3 *119:16 N2BEGb[2] 22.9767 
*END

*D_NET *120 0.00329208
*CONN
*P N2BEGb[3] O
*I *1255:X O *D sg13g2_buf_1
*CAP
1 N2BEGb[3] 0.00035931
2 *1255:X 0.000507573
3 *120:16 0.000866882
4 N2BEGb[3] N2BEGb[4] 8.01118e-05
5 N2BEGb[3] *1150:A 0.000420866
6 *120:16 *1142:A 0
7 *120:16 *1255:A 0.000112453
8 *120:16 *124:8 0.000181192
9 *120:16 *170:29 0.000111037
10 *120:16 *281:22 0
11 *120:16 *287:8 2.16263e-05
12 *120:16 *288:20 0.000389866
13 N2BEG[6] *120:16 0.000241167
14 N2BEGb[0] *120:16 0
*RES
1 *1255:X *120:16 45.6135 
2 *120:16 N2BEGb[3] 23.4093 
*END

*D_NET *121 0.00230671
*CONN
*P N2BEGb[4] O
*I *1256:X O *D sg13g2_buf_1
*CAP
1 N2BEGb[4] 0.000822495
2 *1256:X 0.000822495
3 N2BEGb[4] N2BEGb[5] 0
4 N2BEGb[4] *1149:A 8.01116e-05
5 N2BEGb[4] *1256:A 0.000176396
6 N2BEGb[4] *1258:A 0
7 N2BEGb[4] *1259:A 0.000143351
8 N2BEGb[4] *1273:A 0.000181744
9 N2BEGb[3] N2BEGb[4] 8.01118e-05
*RES
1 *1256:X N2BEGb[4] 27.9104 
*END

*D_NET *122 0.0024666
*CONN
*P N2BEGb[5] O
*I *1258:X O *D sg13g2_buf_1
*CAP
1 N2BEGb[5] 0.000643681
2 *1258:X 0.000274359
3 *122:10 0.00091804
4 N2BEGb[5] N2BEGb[6] 0.000160338
5 N2BEGb[5] *1259:A 0.000240634
6 N2BEGb[5] *1271:A 0
7 N2BEGb[5] *1273:A 0.0001816
8 N2BEGb[5] *132:14 0
9 *122:10 *132:14 4.79476e-05
10 *122:10 *273:12 0
11 *122:10 *284:12 0
12 *122:10 *298:30 0
13 N2BEGb[4] N2BEGb[5] 0
14 *119:10 *122:10 0
*RES
1 *1258:X *122:10 42.6162 
2 *122:10 N2BEGb[5] 25.8092 
*END

*D_NET *123 0.00223784
*CONN
*P N2BEGb[6] O
*I *1259:X O *D sg13g2_buf_1
*CAP
1 N2BEGb[6] 0.00068393
2 *1259:X 3.34444e-05
3 *123:16 0.000901779
4 *123:8 0.000251294
5 N2BEGb[6] N2BEGb[7] 0
6 N2BEGb[6] *1162:A 0.00014391
7 N2BEGb[6] *1271:A 1.54008e-05
8 *123:8 *1271:A 4.77425e-05
9 *123:16 *125:16 0
10 *123:16 *132:14 0
11 *123:16 *297:30 0
12 *123:16 *298:30 0
13 N2BEGb[5] N2BEGb[6] 0.000160338
14 *119:16 *123:16 0
*RES
1 *1259:X *123:8 40.3193 
2 *123:8 *123:16 42.0956 
3 *123:16 N2BEGb[6] 26.0461 
*END

*D_NET *124 0.00266557
*CONN
*P N2BEGb[7] O
*I *1260:X O *D sg13g2_buf_1
*CAP
1 N2BEGb[7] 0.000386751
2 *1260:X 3.55018e-05
3 *124:16 0.000847266
4 *124:8 0.000496017
5 N2BEGb[7] *304:18 0.000175809
6 *124:8 *281:22 0.000181387
7 *124:16 *132:22 7.51285e-05
8 *124:16 *133:14 8.00842e-05
9 *124:16 *158:45 0
10 *124:16 *288:20 0.000126354
11 *124:16 *297:30 0
12 *124:16 *298:30 8.00842e-05
13 N2BEGb[0] *124:16 0
14 N2BEGb[6] N2BEGb[7] 0
15 *120:16 *124:8 0.000181192
*RES
1 *1260:X *124:8 40.8446 
2 *124:8 *124:16 44.0685 
3 *124:16 N2BEGb[7] 23.193 
*END

*D_NET *125 0.00190143
*CONN
*P N4BEG[0] O
*I *1261:X O *D sg13g2_buf_1
*CAP
1 N4BEG[0] 0.000330502
2 *1261:X 0.000107396
3 *125:16 0.00062985
4 *125:10 0.000406744
5 N4BEG[0] *136:16 0.000208342
6 N4BEG[0] *304:18 0.000143467
7 *125:10 *1271:A 0
8 *125:10 *134:8 0
9 *125:10 *273:12 7.51285e-05
10 *125:16 *297:30 0
11 *125:16 *300:20 0
12 *19:27 *125:16 0
13 *123:16 *125:16 0
*RES
1 *1261:X *125:10 40.8858 
2 *125:10 *125:16 43.3475 
3 *125:16 N4BEG[0] 22.9767 
*END

*D_NET *126 0.00224603
*CONN
*P N4BEG[10] O
*I *1262:X O *D sg13g2_buf_1
*CAP
1 N4BEG[10] 0.000858877
2 *1262:X 0.000858877
3 N4BEG[10] N4BEG[11] 0
4 N4BEG[10] N4BEG[9] 9.56551e-05
5 N4BEG[10] *1166:A 4.7885e-05
6 N4BEG[10] *1286:A 0.000241195
7 N4BEG[10] *306:10 0.000143544
*RES
1 *1262:X N4BEG[10] 27.9104 
*END

*D_NET *127 0.00251077
*CONN
*P N4BEG[11] O
*I *1263:X O *D sg13g2_buf_1
*CAP
1 N4BEG[11] 0.000758674
2 *1263:X 0.000129069
3 *127:10 0.000887744
4 N4BEG[11] N4BEG[12] 0
5 N4BEG[11] N4BEG[13] 0
6 N4BEG[11] *1166:A 8.00842e-05
7 N4BEG[11] *1167:A 8.00842e-05
8 N4BEG[11] *1286:A 0.000176511
9 N4BEG[11] *1288:A 1.51771e-05
10 *127:10 N4BEG[7] 4.77363e-05
11 *127:10 N4BEG[9] 4.75442e-05
12 *127:10 *293:10 0.000288143
13 *127:10 *294:12 0
14 *127:10 *306:18 0
15 N4BEG[10] N4BEG[11] 0
*RES
1 *1263:X *127:10 41.6583 
2 *127:10 N4BEG[11] 26.9113 
*END

*D_NET *128 0.00247827
*CONN
*P N4BEG[12] O
*I *1264:X O *D sg13g2_buf_1
*CAP
1 N4BEG[12] 0.000363148
2 *1264:X 0.000212613
3 *128:8 0.00057576
4 N4BEG[12] N4BEG[13] 0
5 *128:8 *130:12 0.000598687
6 *128:8 *139:12 0.000338485
7 *128:8 *158:45 0.000389579
8 *128:8 *301:14 0
9 N4BEG[11] N4BEG[12] 0
*RES
1 *1264:X *128:8 43.5638 
2 *128:8 N4BEG[12] 22.7604 
*END

*D_NET *129 0.0022375
*CONN
*P N4BEG[13] O
*I *1265:X O *D sg13g2_buf_1
*CAP
1 N4BEG[13] 0.000879314
2 *1265:X 0.000879314
3 N4BEG[13] N4BEG[14] 0
4 N4BEG[13] *1167:A 1.54008e-05
5 N4BEG[13] *1169:A 0
6 N4BEG[13] *1267:A 0.000143373
7 N4BEG[13] *1288:A 4.74714e-05
8 N4BEG[13] *150:12 0.000272628
9 N4BEG[11] N4BEG[13] 0
10 N4BEG[12] N4BEG[13] 0
*RES
1 *1265:X N4BEG[13] 28.5078 
*END

*D_NET *130 0.00335859
*CONN
*P N4BEG[14] O
*I *1266:X O *D sg13g2_buf_1
*CAP
1 N4BEG[14] 0.000281044
2 *1266:X 0.00039876
3 *130:12 0.000679804
4 N4BEG[14] *150:12 0.000143351
5 N4BEG[14] *152:12 0.000175693
6 *130:12 N4BEG[6] 4.75151e-05
7 *130:12 N4BEG[7] 0.00014454
8 *130:12 *1266:A 8.01116e-05
9 *130:12 *158:45 0
10 *130:12 *301:14 0.000809082
11 N4BEG[13] N4BEG[14] 0
12 *128:8 *130:12 0.000598687
*RES
1 *1266:X *130:12 45.562 
2 *130:12 N4BEG[14] 22.5441 
*END

*D_NET *131 0.00226437
*CONN
*P N4BEG[15] O
*I *1267:X O *D sg13g2_buf_1
*CAP
1 N4BEG[15] 0.000786565
2 *1267:X 0.000786565
3 N4BEG[15] NN4BEG[0] 0
4 N4BEG[15] *1169:A 0.000241352
5 N4BEG[15] *1170:A 0.000144875
6 N4BEG[15] *152:12 0.000305015
*RES
1 *1267:X N4BEG[15] 27.107 
*END

*D_NET *132 0.00298289
*CONN
*P N4BEG[1] O
*I *1269:X O *D sg13g2_buf_1
*CAP
1 N4BEG[1] 0.000385224
2 *1269:X 0.000188192
3 *132:22 0.000662999
4 *132:14 0.000465967
5 N4BEG[1] *1164:A 0
6 N4BEG[1] *136:16 0.000273026
7 N4BEG[1] *139:12 8.01118e-05
8 *132:14 *134:8 2.21839e-05
9 *132:14 *273:12 0
10 *132:14 *298:30 0
11 *132:22 *1162:A 0.00014391
12 *132:22 *158:45 0.000178206
13 *132:22 *288:12 0
14 *132:22 *290:10 0.000175721
15 *132:22 *297:30 0.00028427
16 N2BEGb[5] *132:14 0
17 *122:10 *132:14 4.79476e-05
18 *123:16 *132:14 0
19 *124:16 *132:22 7.51285e-05
*RES
1 *1269:X *132:14 41.8334 
2 *132:14 *132:22 43.3887 
3 *132:22 N4BEG[1] 23.4093 
*END

*D_NET *133 0.00286693
*CONN
*P N4BEG[2] O
*I *1270:X O *D sg13g2_buf_1
*CAP
1 N4BEG[2] 0.000204943
2 *1270:X 0.000672756
3 *133:14 0.0008777
4 N4BEG[2] *1164:A 0.000241793
5 *133:14 *1258:A 0
6 *133:14 *136:16 0.000181192
7 *133:14 *158:45 0
8 *133:14 *163:21 0
9 *133:14 *169:9 0
10 *133:14 *304:18 0.000288184
11 N2BEGb[0] *133:14 0
12 N2BEGb[1] *133:14 0.00014379
13 N2BEGb[2] *133:14 0.000176484
14 *124:16 *133:14 8.00842e-05
*RES
1 *1270:X *133:14 46.592 
2 *133:14 N4BEG[2] 21.8952 
*END

*D_NET *134 0.00246884
*CONN
*P N4BEG[3] O
*I *1271:X O *D sg13g2_buf_1
*CAP
1 N4BEG[3] 0.000722511
2 *1271:X 0.000267809
3 *134:8 0.00099032
4 N4BEG[3] N4BEG[4] 0
5 N4BEG[3] *1164:A 0.000353361
6 N4BEG[3] *187:27 0.000112656
7 N4BEG[3] *290:18 0
8 N4BEG[3] *302:28 0
9 *134:8 *273:12 0
10 *134:8 *290:10 0
11 *134:8 *298:30 0
12 *125:10 *134:8 0
13 *132:14 *134:8 2.21839e-05
*RES
1 *1271:X *134:8 42.3278 
2 *134:8 N4BEG[3] 26.695 
*END

*D_NET *135 0.00204841
*CONN
*P N4BEG[4] O
*I *1272:X O *D sg13g2_buf_1
*CAP
1 N4BEG[4] 0.0008802
2 *1272:X 0.0008802
3 N4BEG[4] N4BEG[6] 7.98567e-05
4 N4BEG[4] *1264:A 4.77425e-05
5 N4BEG[4] *185:29 0
6 N4BEG[4] *187:27 0.000144958
7 N4BEG[4] *291:12 1.54556e-05
8 N4BEG[3] N4BEG[4] 0
*RES
1 *1272:X N4BEG[4] 27.9104 
*END

*D_NET *136 0.00336383
*CONN
*P N4BEG[5] O
*I *1273:X O *D sg13g2_buf_1
*CAP
1 N4BEG[5] 0.000214699
2 *1273:X 8.06912e-05
3 *136:16 0.000608276
4 *136:8 0.000474269
5 *136:8 *281:22 0.000393755
6 *136:8 *297:30 0.000391485
7 *136:16 *1276:A 4.35073e-05
8 *136:16 *163:21 0.000494592
9 *136:16 *304:18 0
10 N4BEG[0] *136:16 0.000208342
11 N4BEG[1] *136:16 0.000273026
12 *133:14 *136:16 0.000181192
*RES
1 *1273:X *136:8 41.8334 
2 *136:8 *136:16 44.5938 
3 *136:16 N4BEG[5] 21.6789 
*END

*D_NET *137 0.00211302
*CONN
*P N4BEG[6] O
*I *1274:X O *D sg13g2_buf_1
*CAP
1 N4BEG[6] 0.000652304
2 *1274:X 0.000110312
3 *137:8 0.000762616
4 N4BEG[6] N4BEG[7] 0
5 N4BEG[6] *1266:A 0.000175886
6 N4BEG[6] *291:12 0
7 *137:8 *273:12 0
8 *137:8 *298:30 0.000284526
9 N4BEG[4] N4BEG[6] 7.98567e-05
10 *130:12 N4BEG[6] 4.75151e-05
*RES
1 *1274:X *137:8 41.339 
2 *137:8 N4BEG[6] 25.8298 
*END

*D_NET *138 0.00258141
*CONN
*P N4BEG[7] O
*I *1275:X O *D sg13g2_buf_1
*CAP
1 N4BEG[7] 0.001002
2 *1275:X 0.001002
3 N4BEG[7] N4BEG[8] 0
4 N4BEG[7] N4BEG[9] 0.000112568
5 N4BEG[7] *1168:A 0.000112392
6 N4BEG[7] *1263:A 4.77425e-05
7 N4BEG[7] *1266:A 0
8 N4BEG[7] *1277:A 0.000112426
9 N4BEG[7] *185:29 0
10 N4BEG[6] N4BEG[7] 0
11 *127:10 N4BEG[7] 4.77363e-05
12 *130:12 N4BEG[7] 0.00014454
*RES
1 *1275:X N4BEG[7] 29.373 
*END

*D_NET *139 0.002686
*CONN
*P N4BEG[8] O
*I *1276:X O *D sg13g2_buf_1
*CAP
1 N4BEG[8] 0.000391688
2 *1276:X 0.000348742
3 *139:12 0.000740429
4 N4BEG[8] N4BEG[9] 0
5 *139:12 *1164:A 8.00842e-05
6 *139:12 *158:45 0.000706457
7 *139:12 *301:14 0
8 N4BEG[1] *139:12 8.01118e-05
9 N4BEG[7] N4BEG[8] 0
10 *128:8 *139:12 0.000338485
*RES
1 *1276:X *139:12 44.635 
2 *139:12 N4BEG[8] 22.9767 
*END

*D_NET *140 0.0022439
*CONN
*P N4BEG[9] O
*I *1277:X O *D sg13g2_buf_1
*CAP
1 N4BEG[9] 0.000866097
2 *1277:X 0.000866097
3 N4BEG[9] *1168:A 0.000112392
4 N4BEG[9] *1277:A 0
5 N4BEG[9] *306:10 0.000143544
6 N4BEG[10] N4BEG[9] 9.56551e-05
7 N4BEG[7] N4BEG[9] 0.000112568
8 N4BEG[8] N4BEG[9] 0
9 *127:10 N4BEG[9] 4.75442e-05
*RES
1 *1277:X N4BEG[9] 27.9104 
*END

*D_NET *141 0.00203558
*CONN
*P NN4BEG[0] O
*I *1278:X O *D sg13g2_buf_1
*CAP
1 NN4BEG[0] 0.000849959
2 *1278:X 0.000849959
3 NN4BEG[0] NN4BEG[1] 4.76973e-05
4 NN4BEG[0] *1170:A 0.000144657
5 NN4BEG[0] *1278:A 0
6 NN4BEG[0] *1287:A 0.000143307
7 N4BEG[15] NN4BEG[0] 0
*RES
1 *1278:X NN4BEG[0] 27.107 
*END

*D_NET *142 0.00191766
*CONN
*P NN4BEG[10] O
*I *1280:X O *D sg13g2_buf_1
*CAP
1 NN4BEG[10] 0.000358941
2 *1280:X 0.000153835
3 *142:8 0.000512776
4 NN4BEG[10] NN4BEG[11] 0
5 NN4BEG[10] NN4BEG[9] 0
6 NN4BEG[10] *145:10 0
7 *142:8 *155:10 0.000339987
8 *142:8 *301:14 0.000552115
9 *142:8 *308:26 0
*RES
1 *1280:X *142:8 42.575 
2 *142:8 NN4BEG[10] 22.7604 
*END

*D_NET *143 0.00200184
*CONN
*P NN4BEG[11] O
*I *1281:X O *D sg13g2_buf_1
*CAP
1 NN4BEG[11] 0.000130577
2 *1281:X 0.000287474
3 *143:10 0.000418051
4 NN4BEG[11] NN4BEG[12] 0
5 *143:10 NN4BEG[6] 0
6 *143:10 NN4BEG[7] 0.000272528
7 *143:10 *162:9 0.000446352
8 *143:10 *169:9 0.000446854
9 NN4BEG[10] NN4BEG[11] 0
*RES
1 *1281:X *143:10 43.914 
2 *143:10 NN4BEG[11] 21.03 
*END

*D_NET *144 0.00151803
*CONN
*P NN4BEG[12] O
*I *1282:X O *D sg13g2_buf_1
*CAP
1 NN4BEG[12] 0.000751465
2 *1282:X 0.000751465
3 NN4BEG[12] NN4BEG[13] 0
4 NN4BEG[12] NN4BEG[14] 0
5 NN4BEG[12] *312:22 0
6 NN4BEG[12] *313:14 1.51e-05
7 NN4BEG[11] NN4BEG[12] 0
*RES
1 *1282:X NN4BEG[12] 26.4272 
*END

*D_NET *145 0.00119452
*CONN
*P NN4BEG[13] O
*I *1283:X O *D sg13g2_buf_1
*CAP
1 NN4BEG[13] 0.000185899
2 *1283:X 0.000295151
3 *145:10 0.000481049
4 NN4BEG[13] NN4BEG[14] 0
5 *145:10 *169:9 0.000232418
6 *145:10 *304:18 0
7 NN4BEG[10] *145:10 0
8 NN4BEG[12] NN4BEG[13] 0
*RES
1 *1283:X *145:10 42.4926 
2 *145:10 NN4BEG[13] 21.4626 
*END

*D_NET *146 0.000865747
*CONN
*P NN4BEG[14] O
*I *1284:X O *D sg13g2_buf_1
*CAP
1 NN4BEG[14] 0.000409025
2 *1284:X 0.000409025
3 NN4BEG[14] NN4BEG[15] 0
4 NN4BEG[14] *308:18 4.76973e-05
5 NN4BEG[12] NN4BEG[14] 0
6 NN4BEG[13] NN4BEG[14] 0
*RES
1 *1284:X NN4BEG[14] 23.4608 
*END

*D_NET *147 0.000842236
*CONN
*P NN4BEG[15] O
*I *1285:X O *D sg13g2_buf_1
*CAP
1 NN4BEG[15] 0.000333271
2 *1285:X 0.000333271
3 NN4BEG[15] *157:11 0
4 NN4BEG[15] *308:18 0.000175693
5 NN4BEG[14] NN4BEG[15] 0
*RES
1 *1285:X NN4BEG[15] 22.7604 
*END

*D_NET *148 0.00213149
*CONN
*P NN4BEG[1] O
*I *1286:X O *D sg13g2_buf_1
*CAP
1 NN4BEG[1] 0.000410174
2 *1286:X 0.000356587
3 *148:10 0.000766761
4 NN4BEG[1] NN4BEG[2] 0
5 *148:10 *158:45 0.000550268
6 *148:10 *215:16 0
7 *148:10 *217:10 0
8 *148:10 *301:14 0
9 *148:10 *316:10 0
10 NN4BEG[0] NN4BEG[1] 4.76973e-05
*RES
1 *1286:X *148:10 43.8213 
2 *148:10 NN4BEG[1] 23.193 
*END

*D_NET *149 0.00201382
*CONN
*P NN4BEG[2] O
*I *1287:X O *D sg13g2_buf_1
*CAP
1 NN4BEG[2] 0.000935252
2 *1287:X 0.000935252
3 NN4BEG[2] NN4BEG[3] 0
4 NN4BEG[2] NN4BEG[4] 0
5 NN4BEG[2] *1190:A 0
6 NN4BEG[2] *1278:A 0
7 NN4BEG[2] *1289:A 0
8 NN4BEG[2] *316:10 0.000143317
9 NN4BEG[1] NN4BEG[2] 0
*RES
1 *1287:X NN4BEG[2] 27.409 
*END

*D_NET *150 0.00281807
*CONN
*P NN4BEG[3] O
*I *1288:X O *D sg13g2_buf_1
*CAP
1 NN4BEG[3] 0.000213837
2 *1288:X 0.000395417
3 *150:12 0.000609254
4 NN4BEG[3] NN4BEG[4] 0
5 *150:12 *1187:A 7.97032e-05
6 *150:12 *152:12 0.000498581
7 *150:12 *304:18 0.000605298
8 N4BEG[13] *150:12 0.000272628
9 N4BEG[14] *150:12 0.000143351
10 NN4BEG[2] NN4BEG[3] 0
*RES
1 *1288:X *150:12 45.4384 
2 *150:12 NN4BEG[3] 21.6789 
*END

*D_NET *151 0.00268221
*CONN
*P NN4BEG[4] O
*I *1289:X O *D sg13g2_buf_1
*CAP
1 NN4BEG[4] 0.00101269
2 *1289:X 0.00101269
3 NN4BEG[4] NN4BEG[5] 0
4 NN4BEG[4] NN4BEG[6] 0.000351342
5 NN4BEG[4] *1188:A 0
6 NN4BEG[4] *1191:A 4.32965e-05
7 NN4BEG[4] *1289:A 0.000262183
8 NN4BEG[2] NN4BEG[4] 0
9 NN4BEG[3] NN4BEG[4] 0
*RES
1 *1289:X NN4BEG[4] 29.8839 
*END

*D_NET *152 0.00305509
*CONN
*P NN4BEG[5] O
*I *1187:X O *D sg13g2_buf_1
*CAP
1 NN4BEG[5] 0.000186176
2 *1187:X 0.00045677
3 *152:12 0.000642946
4 NN4BEG[5] NN4BEG[6] 0
5 *152:12 *1187:A 7.98942e-05
6 *152:12 *169:9 0.000710019
7 N4BEG[14] *152:12 0.000175693
8 N4BEG[15] *152:12 0.000305015
9 NN4BEG[4] NN4BEG[5] 0
10 *150:12 *152:12 0.000498581
*RES
1 *1187:X *152:12 46.1491 
2 *152:12 NN4BEG[5] 21.4626 
*END

*D_NET *153 0.00206568
*CONN
*P NN4BEG[6] O
*I *1188:X O *D sg13g2_buf_1
*CAP
1 NN4BEG[6] 0.000811556
2 *1188:X 0.000811556
3 NN4BEG[6] NN4BEG[7] 0
4 NN4BEG[6] NN4BEG[9] 4.77425e-05
5 NN4BEG[6] *1188:A 0
6 NN4BEG[6] *1191:A 4.34875e-05
7 NN4BEG[4] NN4BEG[6] 0.000351342
8 NN4BEG[5] NN4BEG[6] 0
9 *143:10 NN4BEG[6] 0
*RES
1 *1188:X NN4BEG[6] 27.107 
*END

*D_NET *154 0.00286303
*CONN
*P NN4BEG[7] O
*I *1189:X O *D sg13g2_buf_1
*CAP
1 NN4BEG[7] 0.000423944
2 *1189:X 0.000265935
3 *154:8 0.000689879
4 NN4BEG[7] NN4BEG[8] 0.000369553
5 *154:8 *217:10 0.000713322
6 *154:8 *303:18 0
7 *154:8 *316:10 0.000127867
8 NN4BEG[6] NN4BEG[7] 0
9 *143:10 NN4BEG[7] 0.000272528
*RES
1 *1189:X *154:8 43.3166 
2 *154:8 NN4BEG[7] 24.2951 
*END

*D_NET *155 0.00221767
*CONN
*P NN4BEG[8] O
*I *1190:X O *D sg13g2_buf_1
*CAP
1 NN4BEG[8] 0.000328099
2 *1190:X 0.000194493
3 *155:10 0.000522592
4 NN4BEG[8] NN4BEG[9] 1.54008e-05
5 *155:10 *308:26 0.000447541
6 NN4BEG[7] NN4BEG[8] 0.000369553
7 *142:8 *155:10 0.000339987
*RES
1 *1190:X *155:10 42.8943 
2 *155:10 NN4BEG[8] 22.9767 
*END

*D_NET *156 0.0015829
*CONN
*P NN4BEG[9] O
*I *1191:X O *D sg13g2_buf_1
*CAP
1 NN4BEG[9] 0.000703932
2 *1191:X 0.000703932
3 NN4BEG[9] *1188:A 0
4 NN4BEG[9] *194:19 0
5 NN4BEG[9] *207:21 0.000111896
6 NN4BEG[9] *312:22 0
7 NN4BEG[10] NN4BEG[9] 0
8 NN4BEG[6] NN4BEG[9] 4.77425e-05
9 NN4BEG[8] NN4BEG[9] 1.54008e-05
*RES
1 *1191:X NN4BEG[9] 26.3242 
*END

*D_NET *157 0.0129212
*CONN
*P S1END[0] I
*I *1135:A I *D sg13g2_buf_1
*CAP
1 S1END[0] 0.00104455
2 *1135:A 0
3 *157:17 0.00227495
4 *157:11 0.0033195
5 *157:11 *158:11 0
6 *157:11 *267:8 0.00030506
7 *157:11 *268:8 0.000498484
8 *157:11 *310:22 0.000273509
9 *157:17 *1247:A 0
10 *157:17 *272:16 0
11 NN4BEG[15] *157:11 0
12 *14:5 *157:17 0.00520517
13 *15:13 *157:17 0
14 *17:11 *157:17 0
*RES
1 S1END[0] *157:11 29.9189 
2 *157:11 *157:17 46.3474 
3 *157:17 *1135:A 20 
*END

*D_NET *158 0.0136228
*CONN
*P S1END[1] I
*I *1134:A I *D sg13g2_buf_1
*CAP
1 S1END[1] 0.000492043
2 *1134:A 0
3 *158:45 0.00213432
4 *158:19 0.00258739
5 *158:11 0.000945117
6 *158:11 *1133:A 0
7 *158:11 *197:19 0
8 *158:11 *267:8 0.00014391
9 *158:11 *271:14 0
10 *158:19 *184:17 0
11 *158:19 *215:16 1.4965e-05
12 *158:19 *281:16 0.00184945
13 *158:19 *302:20 0.00185406
14 *158:45 *169:9 0
15 *158:45 *267:22 0
16 *158:45 *269:8 0
17 *158:45 *271:28 0.000234813
18 *158:45 *297:30 0
19 *158:45 *301:14 0.000340288
20 *105:8 *158:45 0
21 *108:10 *158:45 0.000181192
22 *112:10 *158:45 0.000289733
23 *113:14 *158:45 0.000340704
24 *118:14 *158:45 0.000390334
25 *124:16 *158:45 0
26 *128:8 *158:45 0.000389579
27 *130:12 *158:45 0
28 *132:22 *158:45 0.000178206
29 *133:14 *158:45 0
30 *139:12 *158:45 0.000706457
31 *148:10 *158:45 0.000550268
32 *157:11 *158:11 0
*RES
1 S1END[1] *158:11 43.9449 
2 *158:11 *158:19 49.476 
3 *158:19 *158:45 44.1638 
4 *158:45 *1134:A 40 
*END

*D_NET *159 0.00097532
*CONN
*P S1END[2] I
*I *1133:A I *D sg13g2_buf_1
*CAP
1 S1END[2] 0.00048766
2 *1133:A 0.00048766
3 *1133:A *1132:A 0
4 *158:11 *1133:A 0
*RES
1 S1END[2] *1133:A 24.0067 
*END

*D_NET *160 0.00194182
*CONN
*P S1END[3] I
*I *1132:A I *D sg13g2_buf_1
*CAP
1 S1END[3] 0.00062504
2 *1132:A 0.00062504
3 *1132:A *1177:A 0.000691744
4 *1132:A *169:9 0
5 *1133:A *1132:A 0
*RES
1 S1END[3] *1132:A 25.9843 
*END

*D_NET *161 0.0127212
*CONN
*P S2END[0] I
*I *1151:A I *D sg13g2_buf_1
*CAP
1 S2END[0] 0.00128729
2 *1151:A 0
3 *161:21 0.00230923
4 *161:11 0.00359651
5 *161:11 *1136:A 0
6 *161:11 *1138:A 0
7 *161:11 *162:9 0
8 *161:11 *272:10 0
9 *161:11 *283:8 0
10 *161:21 *1271:A 0
11 *161:21 *214:16 0
12 *161:21 *223:14 0
13 *161:21 *224:14 0.000608025
14 *161:21 *288:12 0.000112656
15 *161:21 *290:18 0.000273624
16 *1102:A *161:11 0.000144542
17 *1117:A *161:21 0.000465162
18 *13:9 *161:21 0.00392419
19 *15:13 *161:21 0
*RES
1 S2END[0] *161:11 30.6617 
2 *161:11 *161:21 47.1096 
3 *161:21 *1151:A 20 
*END

*D_NET *162 0.0118312
*CONN
*P S2END[1] I
*I *1150:A I *D sg13g2_buf_1
*CAP
1 S2END[1] 0.00219385
2 *1150:A 0.000269225
3 *162:9 0.00246307
4 *162:9 *163:9 0
5 *162:9 *164:23 0.000870296
6 *162:9 *169:9 0
7 *162:9 *170:21 0.00298228
8 *162:9 *186:9 0
9 *162:9 *197:13 0.000815859
10 *162:9 *205:13 0.00103136
11 N2BEGb[2] *1150:A 0.000338002
12 N2BEGb[3] *1150:A 0.000420866
13 *143:10 *162:9 0.000446352
14 *161:11 *162:9 0
*RES
1 S2END[1] *162:9 45.8839 
2 *162:9 *1150:A 43.4248 
*END

*D_NET *163 0.00915085
*CONN
*P S2END[2] I
*I *1149:A I *D sg13g2_buf_1
*CAP
1 S2END[2] 0.000326523
2 *1149:A 0.000104511
3 *163:27 0.000396752
4 *163:21 0.00101372
5 *163:13 0.00256902
6 *163:9 0.00217406
7 *1149:A *1258:A 0
8 *1149:A *298:30 0
9 *163:9 *1147:A 0
10 *163:9 *164:9 0
11 *163:13 *188:17 0
12 *163:13 *271:20 0
13 *163:13 *281:16 0
14 *163:13 *297:22 0
15 *163:21 *169:9 0.00160347
16 *163:21 *184:17 0
17 *163:21 *188:25 0.000176518
18 *163:21 *304:18 0
19 *163:27 *171:25 0
20 N2BEGb[0] *1149:A 0
21 N2BEGb[4] *1149:A 8.01116e-05
22 *119:16 *163:27 0.000211579
23 *133:14 *163:21 0
24 *136:16 *163:21 0.000494592
25 *162:9 *163:9 0
*RES
1 S2END[2] *163:9 41.5548 
2 *163:9 *163:13 38.1486 
3 *163:13 *163:21 48.9198 
4 *163:21 *163:27 42.9149 
5 *163:27 *1149:A 40.9682 
*END

*D_NET *164 0.0120508
*CONN
*P S2END[3] I
*I *1148:A I *D sg13g2_buf_1
*CAP
1 S2END[3] 0.000102497
2 *1148:A 0.000252704
3 *164:23 0.000693803
4 *164:17 0.00217226
5 *164:9 0.00183366
6 *1148:A *1143:A 4.77699e-05
7 *164:9 *1147:A 0
8 *164:17 *170:17 0.00157543
9 *164:17 *171:13 0.00238394
10 *164:17 *267:16 0
11 *164:17 *298:20 0
12 *164:23 *169:9 0.00150369
13 *164:23 *170:21 0
14 N2BEG[4] *1148:A 0.0002401
15 N2BEG[5] *1148:A 0.000374701
16 *162:9 *164:23 0.000870296
17 *163:9 *164:9 0
*RES
1 S2END[3] *164:9 40.8137 
2 *164:9 *164:17 42.5261 
3 *164:17 *164:23 47.0246 
4 *164:23 *1148:A 42.9355 
*END

*D_NET *165 0.000969811
*CONN
*P S2END[4] I
*I *1147:A I *D sg13g2_buf_1
*CAP
1 S2END[4] 0.000484905
2 *1147:A 0.000484905
3 *1147:A *1146:A 0
4 *163:9 *1147:A 0
5 *164:9 *1147:A 0
*RES
1 S2END[4] *1147:A 24.2539 
*END

*D_NET *166 0.000956154
*CONN
*P S2END[5] I
*I *1146:A I *D sg13g2_buf_1
*CAP
1 S2END[5] 0.000478077
2 *1146:A 0.000478077
3 *1146:A *1145:A 0
4 *1147:A *1146:A 0
*RES
1 S2END[5] *1146:A 23.7595 
*END

*D_NET *167 0.000945541
*CONN
*P S2END[6] I
*I *1145:A I *D sg13g2_buf_1
*CAP
1 S2END[6] 0.00047277
2 *1145:A 0.00047277
3 *1145:A *1144:A 0
4 *1146:A *1145:A 0
*RES
1 S2END[6] *1145:A 23.7595 
*END

*D_NET *168 0.00103293
*CONN
*P S2END[7] I
*I *1144:A I *D sg13g2_buf_1
*CAP
1 S2END[7] 0.000516465
2 *1144:A 0.000516465
3 *1144:A *177:9 0
4 *1144:A *185:19 0
5 *1144:A *280:10 0
6 *1145:A *1144:A 0
*RES
1 S2END[7] *1144:A 24.2539 
*END

*D_NET *169 0.0108116
*CONN
*P S2MID[0] I
*I *1143:A I *D sg13g2_buf_1
*CAP
1 S2MID[0] 0.00214743
2 *1143:A 0.000255647
3 *169:9 0.00240307
4 *1143:A *1250:A 0
5 *169:9 *1177:A 0.000112426
6 *169:9 *170:11 0
7 *169:9 *197:13 0.00076274
8 *169:9 *267:22 0.000233913
9 *169:9 *304:18 0
10 *169:9 *308:18 0
11 N2BEG[2] *1143:A 0
12 N2BEG[3] *1143:A 0.000144379
13 N2BEG[4] *1143:A 0.000207731
14 *1132:A *169:9 0
15 *1148:A *1143:A 4.77699e-05
16 *133:14 *169:9 0
17 *143:10 *169:9 0.000446854
18 *145:10 *169:9 0.000232418
19 *152:12 *169:9 0.000710019
20 *158:45 *169:9 0
21 *162:9 *169:9 0
22 *163:21 *169:9 0.00160347
23 *164:23 *169:9 0.00150369
*RES
1 S2MID[0] *169:9 45.3277 
2 *169:9 *1143:A 42.6162 
*END

*D_NET *170 0.0129367
*CONN
*P S2MID[1] I
*I *1142:A I *D sg13g2_buf_1
*CAP
1 S2MID[1] 8.28957e-05
2 *1142:A 6.27939e-05
3 *170:29 0.000501792
4 *170:21 0.00130834
5 *170:17 0.00129072
6 *170:11 0.000504268
7 *1142:A *1255:A 0
8 *1142:A *277:10 0.000112621
9 *1142:A *284:12 7.99992e-05
10 *170:11 *171:9 0
11 *170:21 *186:9 0.00213368
12 *170:29 *1260:A 1.65874e-05
13 *170:29 *281:22 0
14 *170:29 *284:12 0.000111037
15 N2BEG[5] *170:29 0.000434265
16 N2BEG[6] *170:29 0.000337098
17 *19:27 *170:21 0.00129188
18 *115:10 *170:29 0
19 *120:16 *1142:A 0
20 *120:16 *170:29 0.000111037
21 *162:9 *170:21 0.00298228
22 *164:17 *170:17 0.00157543
23 *164:23 *170:21 0
24 *169:9 *170:11 0
*RES
1 S2MID[1] *170:11 40.7004 
2 *170:11 *170:17 47.2718 
3 *170:17 *170:21 36.4182 
4 *170:21 *170:29 44.5938 
5 *170:29 *1142:A 40.7519 
*END

*D_NET *171 0.01266
*CONN
*P S2MID[2] I
*I *1141:A I *D sg13g2_buf_1
*CAP
1 S2MID[2] 0.000101593
2 *1141:A 0
3 *171:33 0.000231943
4 *171:25 0.0016863
5 *171:19 0.00156992
6 *171:13 0.000548392
7 *171:9 0.000534424
8 *171:9 *172:15 0.000132598
9 *171:13 *298:20 0.00238335
10 *171:25 *186:9 0.00144753
11 *171:25 *288:20 0
12 *171:33 *1255:A 0.000273624
13 *171:33 *273:12 0
14 *171:33 *277:10 0
15 *19:27 *171:25 0.00124003
16 *115:10 *171:33 0.000126354
17 *119:16 *171:25 0
18 *163:27 *171:25 0
19 *164:17 *171:13 0.00238394
20 *170:11 *171:9 0
*RES
1 S2MID[2] *171:9 41.03 
2 *171:9 *171:13 30.9798 
3 *171:13 *171:19 40.9682 
4 *171:19 *171:25 38.4679 
5 *171:25 *171:33 42.4308 
6 *171:33 *1141:A 20 
*END

*D_NET *172 0.0132918
*CONN
*P S2MID[3] I
*I *1140:A I *D sg13g2_buf_1
*CAP
1 S2MID[3] 0.000897043
2 *1140:A 0
3 *172:21 0.00219418
4 *172:15 0.00309123
5 *172:15 *1139:A 0.000752321
6 *172:15 *272:10 0
7 *172:15 *275:8 0.000400669
8 *172:15 *312:12 0
9 *172:21 *194:19 0.00130195
10 *172:21 *272:16 0
11 *172:21 *299:10 0.00434541
12 *16:19 *172:21 0
13 *17:11 *172:21 0.000176396
14 *17:13 *172:21 0
15 *171:9 *172:15 0.000132598
*RES
1 S2MID[3] *172:15 29.0434 
2 *172:15 *172:21 46.7491 
3 *172:21 *1140:A 20 
*END

*D_NET *173 0.00204193
*CONN
*P S2MID[4] I
*I *1139:A I *D sg13g2_buf_1
*CAP
1 S2MID[4] 0.000540881
2 *1139:A 0.000540881
3 *1139:A *1138:A 0
4 *1139:A *272:10 0.000207845
5 *172:15 *1139:A 0.000752321
*RES
1 S2MID[4] *1139:A 25.8401 
*END

*D_NET *174 0.0013644
*CONN
*P S2MID[5] I
*I *1138:A I *D sg13g2_buf_1
*CAP
1 S2MID[5] 0.000682198
2 *1138:A 0.000682198
3 *1138:A *1137:A 0
4 *1138:A *272:10 0
5 *1139:A *1138:A 0
6 *161:11 *1138:A 0
*RES
1 S2MID[5] *1138:A 25.9431 
*END

*D_NET *175 0.000975242
*CONN
*P S2MID[6] I
*I *1137:A I *D sg13g2_buf_1
*CAP
1 S2MID[6] 0.000487621
2 *1137:A 0.000487621
3 *1137:A *1136:A 0
4 *1138:A *1137:A 0
*RES
1 S2MID[6] *1137:A 24.0067 
*END

*D_NET *176 0.000895269
*CONN
*P S2MID[7] I
*I *1136:A I *D sg13g2_buf_1
*CAP
1 S2MID[7] 0.000447634
2 *1136:A 0.000447634
3 *1137:A *1136:A 0
4 *161:11 *1136:A 0
*RES
1 S2MID[7] *1136:A 23.4093 
*END

*D_NET *177 0.008835
*CONN
*P S4END[0] I
*I *1167:A I *D sg13g2_buf_1
*CAP
1 S4END[0] 0.00169599
2 *1167:A 4.85372e-05
3 *177:17 0.000858634
4 *177:9 0.00250608
5 *177:9 *184:9 0
6 *177:9 *298:8 0.00039332
7 *177:9 *301:14 0
8 *177:9 *308:26 0.000445763
9 *177:9 *311:16 0.00106501
10 *177:17 *207:21 0
11 *177:17 *218:10 0.000979857
12 *177:17 *219:14 6.9037e-05
13 *177:17 *302:28 0.000391571
14 *177:17 *303:18 0
15 *177:17 *306:18 0
16 *177:17 *314:8 0.000285719
17 N4BEG[11] *1167:A 8.00842e-05
18 N4BEG[13] *1167:A 1.54008e-05
19 *1144:A *177:9 0
*RES
1 S4END[0] *177:9 35.6869 
2 *177:9 *177:17 49.3524 
3 *177:17 *1167:A 40.5356 
*END

*D_NET *178 0.00097132
*CONN
*P S4END[10] I
*I *1157:A I *D sg13g2_buf_1
*CAP
1 S4END[10] 0.000461903
2 *1157:A 0.000461903
3 *1157:A *1155:A 0
4 *1157:A *1158:A 0
5 *1157:A *179:11 0
6 *1157:A *301:8 4.75151e-05
*RES
1 S4END[10] *1157:A 23.7595 
*END

*D_NET *179 0.00121224
*CONN
*P S4END[11] I
*I *1156:A I *D sg13g2_buf_1
*CAP
1 S4END[11] 0.000515524
2 *1156:A 0
3 *179:11 0.000515524
4 *179:11 *1155:A 0
5 *179:11 *289:8 0
6 *179:11 *311:16 0.000181192
7 *1157:A *179:11 0
*RES
1 S4END[11] *179:11 44.2539 
2 *179:11 *1156:A 20 
*END

*D_NET *180 0.00154974
*CONN
*P S4END[12] I
*I *1155:A I *D sg13g2_buf_1
*CAP
1 S4END[12] 0.000703193
2 *1155:A 0.000703193
3 *1155:A *1154:A 0
4 *1155:A *1183:A 0
5 *1155:A *300:10 0.000143351
6 *1155:A *313:8 0
7 *1157:A *1155:A 0
8 *179:11 *1155:A 0
*RES
1 S4END[12] *1155:A 26.2315 
*END

*D_NET *181 0.000987415
*CONN
*P S4END[13] I
*I *1154:A I *D sg13g2_buf_1
*CAP
1 S4END[13] 0.000493708
2 *1154:A 0.000493708
3 *1154:A *1183:A 0
4 *1154:A *182:13 0
5 *1155:A *1154:A 0
*RES
1 S4END[13] *1154:A 24.2539 
*END

*D_NET *182 0.0017624
*CONN
*P S4END[14] I
*I *1153:A I *D sg13g2_buf_1
*CAP
1 S4END[14] 0.000463969
2 *1153:A 0
3 *182:13 0.000463969
4 *182:13 *1182:A 0.000272938
5 *182:13 *1183:A 0.000272938
6 *182:13 *183:13 0
7 *182:13 *197:13 0
8 *182:13 *308:18 0.000288587
9 *1154:A *182:13 0
*RES
1 S4END[14] *182:13 44.8513 
2 *182:13 *1153:A 20 
*END

*D_NET *183 0.00216928
*CONN
*P S4END[15] I
*I *1152:A I *D sg13g2_buf_1
*CAP
1 S4END[15] 0.000453132
2 *1152:A 0
3 *183:13 0.000453132
4 *183:13 *1180:A 0.00043485
5 *183:13 *1183:A 0
6 *183:13 *197:13 0
7 *183:13 *201:11 0.00043485
8 *183:13 *205:13 0.00039332
9 *182:13 *183:13 0
*RES
1 S4END[15] *183:13 45.3457 
2 *183:13 *1152:A 20 
*END

*D_NET *184 0.0104655
*CONN
*P S4END[1] I
*I *1166:A I *D sg13g2_buf_1
*CAP
1 S4END[1] 0.00185381
2 *1166:A 4.72488e-05
3 *184:17 0.000550837
4 *184:9 0.0023574
5 *184:9 *185:19 0
6 *184:9 *207:9 0.000870601
7 *184:9 *301:14 0.000284727
8 *184:9 *304:18 0.00437288
9 *184:17 *188:25 0
10 *184:17 *199:25 0
11 *184:17 *215:16 0
12 *184:17 *297:22 0
13 *184:17 *302:20 0
14 *184:17 *306:18 0
15 N4BEG[10] *1166:A 4.7885e-05
16 N4BEG[11] *1166:A 8.00842e-05
17 *158:19 *184:17 0
18 *163:21 *184:17 0
19 *177:9 *184:9 0
*RES
1 S4END[1] *184:9 42.4849 
2 *184:9 *184:17 43.9508 
3 *184:17 *1166:A 40.5356 
*END

*D_NET *185 0.0157933
*CONN
*P S4END[2] I
*I *1165:A I *D sg13g2_buf_1
*CAP
1 S4END[2] 0.00236928
2 *1165:A 0
3 *185:29 0.00163897
4 *185:19 0.00400825
5 *185:19 *186:9 0
6 *185:19 *187:9 0
7 *185:19 *187:27 0
8 *185:19 *198:9 0
9 *185:19 *199:13 2.20966e-06
10 *185:19 *232:8 0
11 *185:19 *235:10 4.77425e-05
12 *185:19 *236:14 0
13 *185:19 *280:10 0
14 *185:19 *283:12 0.0003946
15 *185:29 *1263:A 0
16 *185:29 *1277:A 4.75166e-05
17 *185:29 *187:27 0
18 *185:29 *199:13 0.00328747
19 *185:29 *199:19 0
20 *185:29 *275:12 0.00355387
21 *185:29 *291:12 8.02267e-05
22 N4BEG[4] *185:29 0
23 N4BEG[7] *185:29 0
24 *1117:A *185:29 0
25 *1144:A *185:19 0
26 *8:5 *185:29 0
27 *9:5 *185:19 7.51285e-05
28 *9:5 *185:29 0
29 *9:13 *185:19 0.000288087
30 *184:9 *185:19 0
*RES
1 S4END[2] *185:19 41.7336 
2 *185:19 *185:29 41.4407 
3 *185:29 *1165:A 20 
*END

*D_NET *186 0.0110071
*CONN
*P S4END[3] I
*I *1164:A I *D sg13g2_buf_1
*CAP
1 S4END[3] 0.00198444
2 *1164:A 0.000345284
3 *186:9 0.00232972
4 *186:9 *187:9 0
5 *186:9 *205:13 0.00209121
6 N4BEG[1] *1164:A 0
7 N4BEG[2] *1164:A 0.000241793
8 N4BEG[3] *1164:A 0.000353361
9 *139:12 *1164:A 8.00842e-05
10 *162:9 *186:9 0
11 *170:21 *186:9 0.00213368
12 *171:25 *186:9 0.00144753
13 *185:19 *186:9 0
*RES
1 S4END[3] *186:9 46.4401 
2 *186:9 *1164:A 43.5844 
*END

*D_NET *187 0.0187354
*CONN
*P S4END[4] I
*I *1163:A I *D sg13g2_buf_1
*CAP
1 S4END[4] 0.00157713
2 *1163:A 0
3 *187:27 0.00165127
4 *187:17 0.00178941
5 *187:9 0.00171527
6 *187:9 *188:13 0
7 *187:9 *190:13 0.000272673
8 *187:9 *198:9 0.00152531
9 *187:9 *236:14 0.000272718
10 *187:9 *261:18 0.00152214
11 *187:9 *303:8 0
12 *187:9 *304:8 0.000143351
13 *187:27 *261:8 0
14 *187:27 *283:12 0.00413779
15 *187:27 *290:18 0
16 N4BEG[3] *187:27 0.000112656
17 N4BEG[4] *187:27 0.000144958
18 *1097:A *187:17 0
19 *1117:A *187:27 0
20 *9:5 *187:27 0.00387074
21 *185:19 *187:9 0
22 *185:19 *187:27 0
23 *185:29 *187:27 0
24 *186:9 *187:9 0
*RES
1 S4END[4] *187:9 38.8696 
2 *187:9 *187:17 41.1021 
3 *187:17 *187:27 46.863 
4 *187:27 *1163:A 20 
*END

*D_NET *188 0.0128631
*CONN
*P S4END[5] I
*I *1162:A I *D sg13g2_buf_1
*CAP
1 S4END[5] 0.000300858
2 *1162:A 8.28444e-05
3 *188:25 0.000785001
4 *188:17 0.00221424
5 *188:13 0.00181294
6 *188:13 *189:11 0
7 *188:13 *197:13 0
8 *188:13 *205:13 0.000233942
9 *188:17 *267:16 0.00255107
10 *188:17 *271:20 0.00287251
11 *188:17 *297:14 0
12 *188:17 *297:22 0
13 *188:17 *298:20 0
14 *188:25 *199:25 0
15 *188:25 *281:22 0.000503028
16 *188:25 *288:12 0.000232418
17 *188:25 *297:22 0
18 *188:25 *297:30 0
19 *188:25 *298:20 0
20 *188:25 *298:30 0
21 *188:25 *302:28 0.000809863
22 N2BEGb[6] *1162:A 0.00014391
23 *132:22 *1162:A 0.00014391
24 *163:13 *188:17 0
25 *163:21 *188:25 0.000176518
26 *184:17 *188:25 0
27 *187:9 *188:13 0
*RES
1 S4END[5] *188:13 42.8737 
2 *188:13 *188:17 42.8454 
3 *188:17 *188:25 48.24 
4 *188:25 *1162:A 40.9682 
*END

*D_NET *189 0.0117152
*CONN
*P S4END[6] I
*I *1161:A I *D sg13g2_buf_1
*CAP
1 S4END[6] 0.00114452
2 *1161:A 0
3 *189:25 0.000647913
4 *189:17 0.00171005
5 *189:11 0.00220665
6 *189:11 *1159:A 0
7 *189:11 *190:13 0
8 *189:11 *206:13 0
9 *189:11 *300:10 0.000288087
10 *189:11 *303:8 0.000110965
11 *189:11 *303:18 0
12 *189:17 *289:16 0.00274554
13 *189:25 *268:14 0.00198421
14 *189:25 *282:14 0
15 *189:25 *303:28 0.000877299
16 *19:31 *189:17 0
17 *21:19 *189:17 0
18 *22:19 *189:17 0
19 *188:13 *189:11 0
*RES
1 S4END[6] *189:11 49.7232 
2 *189:11 *189:17 35.4088 
3 *189:17 *189:25 49.5687 
4 *189:25 *1161:A 40 
*END

*D_NET *190 0.0015839
*CONN
*P S4END[7] I
*I *1160:A I *D sg13g2_buf_1
*CAP
1 S4END[7] 0.000511526
2 *1160:A 0
3 *190:13 0.000511526
4 *190:13 *1159:A 0
5 *190:13 *197:13 0
6 *190:13 *308:18 0.000288174
7 *187:9 *190:13 0.000272673
8 *189:11 *190:13 0
*RES
1 S4END[7] *190:13 44.8513 
2 *190:13 *1160:A 20 
*END

*D_NET *191 0.000988788
*CONN
*P S4END[8] I
*I *1159:A I *D sg13g2_buf_1
*CAP
1 S4END[8] 0.000494394
2 *1159:A 0.000494394
3 *1159:A *1158:A 0
4 *189:11 *1159:A 0
5 *190:13 *1159:A 0
*RES
1 S4END[8] *1159:A 24.2539 
*END

*D_NET *192 0.000968839
*CONN
*P S4END[9] I
*I *1158:A I *D sg13g2_buf_1
*CAP
1 S4END[9] 0.000460662
2 *1158:A 0.000460662
3 *1158:A *301:8 4.75151e-05
4 *1157:A *1158:A 0
5 *1159:A *1158:A 0
*RES
1 S4END[9] *1158:A 23.7595 
*END

*D_NET *193 0.00144421
*CONN
*P SS4END[0] I
*I *1183:A I *D sg13g2_buf_1
*CAP
1 SS4END[0] 0.000585636
2 *1183:A 0.000585636
3 *1183:A *1182:A 0
4 *1183:A *313:8 0
5 *1154:A *1183:A 0
6 *1155:A *1183:A 0
7 *182:13 *1183:A 0.000272938
8 *183:13 *1183:A 0
*RES
1 SS4END[0] *1183:A 25.1397 
*END

*D_NET *194 0.0138715
*CONN
*P SS4END[10] I
*I *1173:A I *D sg13g2_buf_1
*CAP
1 SS4END[10] 0.00098012
2 *1173:A 0
3 *194:19 0.00220748
4 *194:11 0.0031876
5 *194:11 *195:15 0
6 *194:11 *206:13 0
7 *194:11 *208:9 0
8 *194:11 *309:8 0.000144142
9 *194:11 *310:8 0
10 *194:19 *1188:A 0
11 *194:19 *208:21 0.000369318
12 *194:19 *224:18 0.000989912
13 *194:19 *228:8 0
14 *194:19 *233:10 0.00327287
15 *194:19 *272:16 0.00141808
16 *194:19 *282:14 0
17 *194:19 *299:10 0
18 NN4BEG[9] *194:19 0
19 *172:21 *194:19 0.00130195
*RES
1 SS4END[10] *194:11 28.6211 
2 *194:11 *194:19 49.2932 
3 *194:19 *1173:A 20 
*END

*D_NET *195 0.0132747
*CONN
*P SS4END[11] I
*I *1172:A I *D sg13g2_buf_1
*CAP
1 SS4END[11] 0.00250397
2 *1172:A 0.000514064
3 *195:15 0.00301804
4 *1172:A *1170:A 0
5 *1172:A *215:8 0.000340818
6 *1172:A *219:14 0.00124685
7 *1172:A *273:12 0
8 *195:15 *196:9 0
9 *195:15 *198:7 0
10 *195:15 *219:14 4.81157e-05
11 *195:15 *232:10 0
12 *195:15 *235:12 0
13 *195:15 *236:16 0
14 *195:15 *264:18 0.000448232
15 *195:15 *273:12 0
16 *195:15 *280:16 0.00108311
17 *195:15 *308:8 0.000144842
18 *195:15 *310:14 0.00337016
19 *195:15 *312:12 0.000556517
20 *1105:A *195:15 0
21 *194:11 *195:15 0
*RES
1 SS4END[11] *195:15 49.9627 
2 *195:15 *1172:A 47.0658 
*END

*D_NET *196 0.0071097
*CONN
*P SS4END[12] I
*I *1171:A I *D sg13g2_buf_1
*CAP
1 SS4END[12] 0.000536457
2 *1171:A 0
3 *196:17 0
4 *196:13 0.00280864
5 *196:11 0.00280864
6 *196:9 0.000536457
7 *196:9 *197:13 0
8 *196:9 *198:7 0
9 *196:9 *204:13 0.00027467
10 *196:9 *308:8 0.000144842
11 *196:13 *280:20 0
12 *196:13 *289:16 0
13 *196:13 *297:14 0
14 *196:13 *300:20 0
15 *196:13 *302:14 0
16 *195:15 *196:9 0
*RES
1 SS4END[12] *196:9 45.1397 
2 *196:9 *196:11 20 
3 *196:11 *196:13 30.2614 
4 *196:13 *196:17 40 
5 *196:17 *1171:A 40 
*END

*D_NET *197 0.0115941
*CONN
*P SS4END[13] I
*I *1170:A I *D sg13g2_buf_1
*CAP
1 SS4END[13] 0.00299519
2 *1170:A 0.000771002
3 *197:19 0.00143136
4 *197:13 0.00365555
5 *1170:A *215:8 0.000872814
6 *1170:A *273:12 0
7 *197:13 *198:7 0
8 *197:13 *204:13 0
9 *197:13 *205:13 0
10 *197:13 *308:18 0
11 N4BEG[15] *1170:A 0.000144875
12 NN4BEG[0] *1170:A 0.000144657
13 *1172:A *1170:A 0
14 *158:11 *197:19 0
15 *162:9 *197:13 0.000815859
16 *169:9 *197:13 0.00076274
17 *182:13 *197:13 0
18 *183:13 *197:13 0
19 *188:13 *197:13 0
20 *190:13 *197:13 0
21 *196:9 *197:13 0
*RES
1 SS4END[13] *197:13 47.4804 
2 *197:13 *197:19 45.0779 
3 *197:19 *1170:A 47.4984 
*END

*D_NET *198 0.0190081
*CONN
*P SS4END[14] I
*I *1169:A I *D sg13g2_buf_1
*CAP
1 SS4END[14] 0.00123325
2 *1169:A 0.000760261
3 *198:9 0.00281134
4 *198:7 0.00328432
5 *1169:A *1267:A 0
6 *1169:A *1287:A 0
7 *198:7 *199:7 0
8 *198:7 *204:13 0
9 *198:7 *245:6 0.00114563
10 *198:9 *261:18 0.00472753
11 *198:9 *283:12 0.00327912
12 *198:9 *285:16 0
13 N4BEG[13] *1169:A 0
14 N4BEG[15] *1169:A 0.000241352
15 *185:19 *198:9 0
16 *187:9 *198:9 0.00152531
17 *195:15 *198:7 0
18 *196:9 *198:7 0
19 *197:13 *198:7 0
*RES
1 SS4END[14] *198:7 32.0613 
2 *198:7 *198:9 33.2278 
3 *198:9 *1169:A 46.4702 
*END

*D_NET *199 0.0242277
*CONN
*P SS4END[15] I
*I *1168:A I *D sg13g2_buf_1
*CAP
1 SS4END[15] 0.00134913
2 *1168:A 6.10642e-05
3 *199:25 0.00049537
4 *199:19 0.00103413
5 *199:13 0.00229083
6 *199:7 0.00304013
7 *199:7 UserCLKo 0
8 *199:7 *1192:A 0
9 *199:7 *245:6 0.00130736
10 *199:7 *258:6 0
11 *199:13 *265:12 0
12 *199:13 *285:16 0.00301045
13 *199:13 *296:8 0.000522505
14 *199:13 *307:12 0.0042391
15 *199:25 *298:20 0
16 *199:25 *306:18 0
17 FrameStrobe_O[2] *199:7 0
18 N4BEG[7] *1168:A 0.000112392
19 N4BEG[9] *1168:A 0.000112392
20 *8:5 *199:13 0.00307451
21 *9:13 *199:13 0.000288675
22 *19:27 *199:25 0
23 *184:17 *199:25 0
24 *185:19 *199:13 2.20966e-06
25 *185:29 *199:13 0.00328747
26 *185:29 *199:19 0
27 *188:25 *199:25 0
28 *198:7 *199:7 0
*RES
1 SS4END[15] *199:7 33.1428 
2 *199:7 *199:13 37.6053 
3 *199:13 *199:19 45.2942 
4 *199:19 *199:25 44.2127 
5 *199:25 *1168:A 40.7519 
*END

*D_NET *200 0.00155834
*CONN
*P SS4END[1] I
*I *1182:A I *D sg13g2_buf_1
*CAP
1 SS4END[1] 0.000642701
2 *1182:A 0.000642701
3 *1182:A *1180:A 0
4 *1182:A *201:11 0
5 *1183:A *1182:A 0
6 *182:13 *1182:A 0.000272938
*RES
1 SS4END[1] *1182:A 25.7371 
*END

*D_NET *201 0.00160699
*CONN
*P SS4END[2] I
*I *1181:A I *D sg13g2_buf_1
*CAP
1 SS4END[2] 0.000495474
2 *1181:A 0
3 *201:11 0.000495474
4 *201:11 *1180:A 0
5 *201:11 *208:9 0
6 *201:11 *309:20 0
7 *201:11 *311:16 0.000181192
8 *1182:A *201:11 0
9 *183:13 *201:11 0.00043485
*RES
1 SS4END[2] *201:11 44.7483 
2 *201:11 *1181:A 20 
*END

*D_NET *202 0.0019044
*CONN
*P SS4END[3] I
*I *1180:A I *D sg13g2_buf_1
*CAP
1 SS4END[3] 0.000694721
2 *1180:A 0.000694721
3 *1180:A *203:15 0
4 *1180:A *206:13 0
5 *1180:A *311:8 8.01116e-05
6 *1182:A *1180:A 0
7 *183:13 *1180:A 0.00043485
8 *201:11 *1180:A 0
*RES
1 SS4END[3] *1180:A 26.9731 
*END

*D_NET *203 0.00195197
*CONN
*P SS4END[4] I
*I *1179:A I *D sg13g2_buf_1
*CAP
1 SS4END[4] 0.00093593
2 *1179:A 0
3 *203:15 0.00093593
4 *203:15 *204:13 0
5 *203:15 *206:13 0
6 *203:15 *235:12 0
7 *203:15 *309:20 0
8 *203:15 *311:8 8.01116e-05
9 *1180:A *203:15 0
*RES
1 SS4END[4] *203:15 48.4151 
2 *203:15 *1179:A 20 
*END

*D_NET *204 0.00239606
*CONN
*P SS4END[5] I
*I *1178:A I *D sg13g2_buf_1
*CAP
1 SS4END[5] 0.000704276
2 *1178:A 0
3 *204:13 0.000704276
4 *204:13 *205:13 0
5 *204:13 *206:13 0
6 *204:13 *308:18 0.000712842
7 *196:9 *204:13 0.00027467
8 *197:13 *204:13 0
9 *198:7 *204:13 0
10 *203:15 *204:13 0
*RES
1 SS4END[5] *204:13 47.3233 
2 *204:13 *1178:A 20 
*END

*D_NET *205 0.00851452
*CONN
*P SS4END[6] I
*I *1177:A I *D sg13g2_buf_1
*CAP
1 SS4END[6] 0.00150403
2 *1177:A 0.000452363
3 *205:13 0.00195639
4 *1177:A *312:12 4.77425e-05
5 *205:13 *206:13 0
6 *1132:A *1177:A 0.000691744
7 *162:9 *205:13 0.00103136
8 *169:9 *1177:A 0.000112426
9 *183:13 *205:13 0.00039332
10 *186:9 *205:13 0.00209121
11 *188:13 *205:13 0.000233942
12 *197:13 *205:13 0
13 *204:13 *205:13 0
*RES
1 SS4END[6] *205:13 39.9408 
2 *205:13 *1177:A 44.6453 
*END

*D_NET *206 0.00876749
*CONN
*P SS4END[7] I
*I *1176:A I *D sg13g2_buf_1
*CAP
1 SS4END[7] 0.00261839
2 *1176:A 0
3 *206:13 0.00261839
4 *206:13 *207:9 0
5 *206:13 *208:9 0
6 *206:13 *219:14 0.000607743
7 *206:13 *235:12 0.00215622
8 *206:13 *300:10 0
9 *206:13 *303:18 0
10 *206:13 *309:8 0
11 *206:13 *309:20 0
12 *206:13 *312:12 0
13 *206:13 *312:22 0.000766752
14 *206:13 *313:14 0
15 *1180:A *206:13 0
16 *189:11 *206:13 0
17 *194:11 *206:13 0
18 *203:15 *206:13 0
19 *204:13 *206:13 0
20 *205:13 *206:13 0
*RES
1 SS4END[7] *206:13 48.6237 
2 *206:13 *1176:A 40 
*END

*D_NET *207 0.0110871
*CONN
*P SS4END[8] I
*I *1175:A I *D sg13g2_buf_1
*CAP
1 SS4END[8] 0.00172404
2 *1175:A 0
3 *207:21 0.000822627
4 *207:15 0.00104917
5 *207:9 0.00195059
6 *207:9 *208:9 0
7 *207:9 *298:8 0
8 *207:9 *301:14 0.00177249
9 *207:9 *304:18 0
10 *207:9 *308:18 0
11 *207:15 *283:8 4.75166e-05
12 *207:21 *271:8 0.000717274
13 *207:21 *303:18 0.000394866
14 *207:21 *309:20 0
15 *207:21 *313:14 0.00162605
16 NN4BEG[9] *207:21 0.000111896
17 *177:17 *207:21 0
18 *184:9 *207:9 0.000870601
19 *206:13 *207:9 0
*RES
1 SS4END[8] *207:9 37.7572 
2 *207:9 *207:15 41.8334 
3 *207:15 *207:21 30.7429 
4 *207:21 *1175:A 20 
*END

*D_NET *208 0.0126117
*CONN
*P SS4END[9] I
*I *1174:A I *D sg13g2_buf_1
*CAP
1 SS4END[9] 0.000998103
2 *1174:A 0
3 *208:21 0.00129839
4 *208:15 0.00177595
5 *208:9 0.00147566
6 *208:9 *298:8 0.000711316
7 *208:9 *308:18 0
8 *208:9 *309:20 0
9 *208:9 *311:16 0.00134927
10 *208:15 *289:14 0
11 *208:21 *228:8 0.000448794
12 *208:21 *232:10 0
13 *208:21 *268:14 0
14 *208:21 *282:14 0.00220448
15 *208:21 *310:22 0
16 *1105:A *208:21 0.00193372
17 *19:37 *208:15 4.669e-05
18 *194:11 *208:9 0
19 *194:19 *208:21 0.000369318
20 *201:11 *208:9 0
21 *206:13 *208:9 0
22 *207:9 *208:9 0
*RES
1 SS4END[9] *208:9 31.9789 
2 *208:9 *208:15 44.6453 
3 *208:15 *208:21 38.4061 
4 *208:21 *1174:A 20 
*END

*D_NET *209 0.0280135
*CONN
*P UserCLK I
*I *1184:A I *D sg13g2_buf_1
*CAP
1 UserCLK 0.000326877
2 *1184:A 5.79706e-05
3 *209:9 0.00629368
4 *209:7 0.00656258
5 *1184:A *220:6 0
6 *209:9 *222:12 0
7 *209:9 *237:12 0
8 *1083:A *209:9 0.000322079
9 *1112:A *1184:A 0
10 *26:5 *209:9 0
11 *27:5 *209:9 0
12 *65:17 *209:9 0.0144503
*RES
1 UserCLK *209:7 23.193 
2 *209:7 *209:9 72.7798 
3 *209:9 *1184:A 40.6695 
*END

*D_NET *210 0.000693578
*CONN
*P UserCLKo O
*I *1192:X O *D sg13g2_buf_1
*CAP
1 UserCLKo 0.000346789
2 *1192:X 0.000346789
3 FrameStrobe_O[0] UserCLKo 0
4 *199:7 UserCLKo 0
*RES
1 *1192:X UserCLKo 23.1106 
*END

*D_NET *213 0.0171568
*CONN
*I *1185:A I *D sg13g2_buf_1
*I *1080:X O *D sg13g2_buf_1
*CAP
1 *1185:A 0.000106827
2 *1080:X 2.44042e-05
3 *213:10 0.00724883
4 *213:8 0.00716641
5 *213:10 *222:10 4.25262e-05
6 *213:10 *222:12 0
7 *213:10 *237:16 0
8 *213:10 *238:10 0
9 FrameData_O[0] *1185:A 0
10 FrameData_O[1] *1185:A 0
11 FrameData_O[2] *1185:A 0
12 *23:9 *213:10 0
13 *26:5 *213:10 0
14 *68:9 *213:10 0.00233091
15 *70:13 *213:10 0.00023685
*RES
1 *1080:X *213:8 40.3193 
2 *213:8 *213:10 59.6782 
3 *213:10 *1185:A 40.9682 
*END

*D_NET *214 0.0196093
*CONN
*I *1186:A I *D sg13g2_buf_1
*I *1098:X O *D sg13g2_buf_1
*CAP
1 *1186:A 0
2 *1098:X 0.000367269
3 *214:18 0.00537177
4 *214:16 0.00573904
5 *214:16 *221:10 0
6 *214:16 *223:14 0.000148326
7 *214:16 *224:14 0
8 *214:16 *261:18 0
9 *214:18 *220:14 0
10 *214:18 *221:10 0
11 *214:18 *221:12 0.00785479
12 *214:18 *223:34 0
13 *214:18 *246:30 0.00012816
14 *214:18 *261:18 0
15 *214:18 *285:16 0
16 FrameData_O[17] *214:18 0
17 FrameData_O[20] *214:18 0
18 *161:21 *214:16 0
*RES
1 *1098:X *214:16 44.1303 
2 *214:16 *214:18 57.7006 
3 *214:18 *1186:A 40 
*END

*D_NET *215 0.00309809
*CONN
*I *1187:A I *D sg13g2_buf_1
*I *1173:X O *D sg13g2_buf_1
*CAP
1 *1187:A 4.30801e-05
2 *1173:X 0.000283681
3 *215:16 0.000320172
4 *215:8 0.000560773
5 *215:8 *273:12 0
6 *215:8 *306:18 0
7 *215:16 *302:20 7.90769e-05
8 *215:16 *303:18 0.00024265
9 *215:16 *316:10 0.000180461
10 *1170:A *215:8 0.000872814
11 *1172:A *215:8 0.000340818
12 *148:10 *215:16 0
13 *150:12 *1187:A 7.97032e-05
14 *152:12 *1187:A 7.98942e-05
15 *158:19 *215:16 1.4965e-05
16 *184:17 *215:16 0
*RES
1 *1173:X *215:8 44.3054 
2 *215:8 *215:16 42.8943 
3 *215:16 *1187:A 40.5356 
*END

*D_NET *216 0.000599102
*CONN
*I *1188:A I *D sg13g2_buf_1
*I *1174:X O *D sg13g2_buf_1
*CAP
1 *1188:A 0.000299551
2 *1174:X 0.000299551
3 NN4BEG[4] *1188:A 0
4 NN4BEG[6] *1188:A 0
5 NN4BEG[9] *1188:A 0
6 *194:19 *1188:A 0
*RES
1 *1174:X *1188:A 42.2319 
*END

*D_NET *217 0.00164798
*CONN
*I *1189:A I *D sg13g2_buf_1
*I *1175:X O *D sg13g2_buf_1
*CAP
1 *1189:A 0
2 *1175:X 0.000350237
3 *217:10 0.000350237
4 *217:10 *301:14 0
5 *217:10 *303:18 0
6 *217:10 *309:20 0.000234189
7 *217:10 *316:10 0
8 *148:10 *217:10 0
9 *154:8 *217:10 0.000713322
*RES
1 *1175:X *217:10 44.3775 
2 *217:10 *1189:A 40 
*END

*D_NET *218 0.00323319
*CONN
*I *1190:A I *D sg13g2_buf_1
*I *1176:X O *D sg13g2_buf_1
*CAP
1 *1190:A 0.000179849
2 *1176:X 0.000297909
3 *218:10 0.000477758
4 *1190:A *316:10 7.86681e-05
5 *218:10 *303:18 0.00113929
6 *218:10 *312:22 7.98567e-05
7 NN4BEG[2] *1190:A 0
8 *177:17 *218:10 0.000979857
*RES
1 *1176:X *218:10 45.8298 
2 *218:10 *1190:A 41.5347 
*END

*D_NET *219 0.00306336
*CONN
*I *1191:A I *D sg13g2_buf_1
*I *1177:X O *D sg13g2_buf_1
*CAP
1 *1191:A 3.51815e-05
2 *1177:X 0.000467236
3 *219:14 0.000502417
4 *219:14 *312:22 0
5 NN4BEG[4] *1191:A 4.32965e-05
6 NN4BEG[6] *1191:A 4.34875e-05
7 *1172:A *219:14 0.00124685
8 *177:17 *219:14 6.9037e-05
9 *195:15 *219:14 4.81157e-05
10 *206:13 *219:14 0.000607743
*RES
1 *1177:X *219:14 47.4289 
2 *219:14 *1191:A 40.4223 
*END

*D_NET *220 0.00576533
*CONN
*I *1192:A I *D sg13g2_buf_1
*I *1184:X O *D sg13g2_buf_1
*CAP
1 *1192:A 0.00100608
2 *1184:X 0.0013416
3 *220:14 0.00126457
4 *220:6 0.00160009
5 *1192:A *258:6 0
6 *1192:A *259:6 0
7 *220:6 *245:6 0
8 *220:14 *261:18 0.000552986
9 FrameStrobe_O[2] *1192:A 0
10 *1112:A *220:6 0
11 *1184:A *220:6 0
12 *199:7 *1192:A 0
13 *214:18 *220:14 0
*RES
1 *1184:X *220:6 32.8647 
2 *220:6 *220:14 42.8943 
3 *220:14 *1192:A 28.1061 
*END

*D_NET *221 0.0176177
*CONN
*I *1193:A I *D sg13g2_buf_1
*I *1099:X O *D sg13g2_buf_1
*CAP
1 *1193:A 0.000239074
2 *1099:X 0
3 *221:12 0.00242434
4 *221:10 0.00460266
5 *221:6 0.0024174
6 *1193:A *1195:A 0
7 *1193:A *1197:A 0
8 *221:10 *224:14 0
9 *221:10 *225:8 0
10 *221:12 *225:8 0
11 FrameData_O[19] *1193:A 0
12 FrameData_O[20] *1193:A 7.94462e-05
13 FrameData_O[20] *221:12 0
14 FrameData_O[21] *1193:A 0
15 *214:16 *221:10 0
16 *214:18 *221:10 0
17 *214:18 *221:12 0.00785479
*RES
1 *1099:X *221:6 40 
2 *221:6 *221:10 22.454 
3 *221:10 *221:12 36.3796 
4 *221:12 *1193:A 42.3999 
*END

*D_NET *222 0.0204562
*CONN
*I *1194:A I *D sg13g2_buf_1
*I *1081:X O *D sg13g2_buf_1
*CAP
1 *1194:A 5.68535e-05
2 *1081:X 3.60163e-05
3 *222:12 0.00532801
4 *222:10 0.00530717
5 *222:12 *237:12 0.00942824
6 *222:12 *237:16 0
7 *1083:A *222:12 0
8 *26:5 *222:10 0
9 *26:5 *222:12 2.22695e-05
10 *70:13 *222:12 0.000235075
11 *209:9 *222:12 0
12 *213:10 *222:10 4.25262e-05
13 *213:10 *222:12 0
*RES
1 *1081:X *222:10 40.515 
2 *222:10 *222:12 56.3719 
3 *222:12 *1194:A 40.5356 
*END

*D_NET *223 0.0145401
*CONN
*I *1195:A I *D sg13g2_buf_1
*I *1100:X O *D sg13g2_buf_1
*CAP
1 *1195:A 0.000300141
2 *1100:X 0.0002335
3 *223:34 0.00405223
4 *223:30 0.00375209
5 *223:28 0.00115671
6 *223:24 0.00167291
7 *223:14 0.000749703
8 *1195:A *1197:A 0
9 *1195:A *1199:A 4.77702e-05
10 *1195:A *1279:A 1.54008e-05
11 *223:14 *261:18 0.000538791
12 *223:34 *246:30 0.000128247
13 *223:34 *261:18 0.00050329
14 *223:34 *285:16 0
15 FrameData_O[18] *223:34 0
16 FrameData_O[20] *1195:A 0
17 *1193:A *1195:A 0
18 *10:19 *223:24 0
19 *11:19 *223:24 7.81195e-05
20 *20:13 *223:28 0
21 *24:13 *223:24 0
22 *25:13 *223:24 0.0011629
23 *161:21 *223:14 0
24 *214:16 *223:14 0.000148326
25 *214:18 *223:34 0
*RES
1 *1100:X *223:14 43.3166 
2 *223:14 *223:24 46.9319 
3 *223:24 *223:28 35.6354 
4 *223:28 *223:30 20 
5 *223:30 *223:34 36.5135 
6 *223:34 *1195:A 43.0797 
*END

*D_NET *224 0.0267024
*CONN
*I *1196:A I *D sg13g2_buf_1
*I *1101:X O *D sg13g2_buf_1
*CAP
1 *1196:A 0
2 *1101:X 5.87606e-05
3 *224:28 0.00122752
4 *224:24 0.00131128
5 *224:18 0.00154931
6 *224:14 0.00349875
7 *224:8 0.00209196
8 *224:8 *275:8 7.92265e-05
9 *224:14 *225:8 0
10 *224:18 *228:8 0.00456624
11 *224:18 *233:10 0
12 *224:18 *248:20 0.000771341
13 *224:28 *228:8 0
14 *224:28 *229:8 0.00461604
15 *224:28 *229:16 0
16 *224:28 *232:10 0.00477605
17 *224:28 *236:16 0
18 FrameData_O[22] *224:28 0
19 FrameData_O[24] *224:28 0
20 *15:13 *224:14 0.000557987
21 *161:21 *224:14 0.000608025
22 *194:19 *224:18 0.000989912
23 *214:16 *224:14 0
24 *221:10 *224:14 0
*RES
1 *1101:X *224:8 40.5356 
2 *224:8 *224:14 37.6954 
3 *224:14 *224:18 41.115 
4 *224:18 *224:24 40.7519 
5 *224:24 *224:28 45.3174 
6 *224:28 *1196:A 20 
*END

*D_NET *225 0.0184195
*CONN
*I *1197:A I *D sg13g2_buf_1
*I *1102:X O *D sg13g2_buf_1
*CAP
1 *1197:A 0.000288729
2 *1102:X 0
3 *225:8 0.00500408
4 *225:6 0.00471535
5 *1197:A *1199:A 0
6 *225:8 *226:12 0.00828351
7 *225:8 *227:10 0
8 *225:8 *228:8 0
9 FrameData_O[20] *1197:A 1.54008e-05
10 FrameData_O[21] *1197:A 0
11 FrameData_O[22] *1197:A 0.000112386
12 *1193:A *1197:A 0
13 *1195:A *1197:A 0
14 *221:10 *225:8 0
15 *221:12 *225:8 0
16 *224:14 *225:8 0
*RES
1 *1102:X *225:6 40 
2 *225:6 *225:8 57.9478 
3 *225:8 *1197:A 42.8325 
*END

*D_NET *226 0.0258918
*CONN
*I *1198:A I *D sg13g2_buf_1
*I *1103:X O *D sg13g2_buf_1
*CAP
1 *1198:A 0
2 *1103:X 0.000269665
3 *226:22 0.00205196
4 *226:18 0.00251601
5 *226:12 0.0021487
6 *226:10 0.00195431
7 *226:12 *227:10 0.00780039
8 *226:22 *229:16 0
9 *226:22 *231:8 0
10 *226:22 *235:12 0
11 FrameData_O[24] *226:22 0
12 FrameData_O[26] *226:22 0.000128248
13 FrameData_O[27] *226:22 0
14 FrameData_O[28] *226:22 0
15 *1128:A *226:18 0
16 *14:5 *226:10 0
17 *15:13 *226:10 0.000739019
18 *17:13 *226:10 0
19 *17:13 *226:12 0
20 *84:23 *226:12 0
21 *225:8 *226:12 0.00828351
*RES
1 *1103:X *226:10 43.7286 
2 *226:10 *226:12 39.0679 
3 *226:12 *226:18 44.429 
4 *226:18 *226:22 40.3734 
5 *226:22 *1198:A 20 
*END

*D_NET *227 0.0187758
*CONN
*I *1199:A I *D sg13g2_buf_1
*I *1104:X O *D sg13g2_buf_1
*CAP
1 *1199:A 0.00053956
2 *1104:X 5.74818e-05
3 *227:10 0.00538767
4 *227:8 0.00490559
5 *1199:A *1200:A 0
6 *1199:A *1201:A 0
7 *1199:A *1205:A 1.51734e-05
8 *227:10 *233:10 0
9 FrameData_O[24] *1199:A 0
10 FrameData_O[29] *1199:A 2.21754e-05
11 *1195:A *1199:A 4.77702e-05
12 *1197:A *1199:A 0
13 *84:23 *227:10 0
14 *225:8 *227:10 0
15 *226:12 *227:10 0.00780039
*RES
1 *1104:X *227:8 40.5356 
2 *227:8 *227:10 54.7342 
3 *227:10 *1199:A 45.2633 
*END

*D_NET *228 0.0229556
*CONN
*I *1200:A I *D sg13g2_buf_1
*I *1105:X O *D sg13g2_buf_1
*CAP
1 *1200:A 0.000473608
2 *1105:X 0
3 *228:8 0.00380614
4 *228:6 0.00333253
5 *1200:A *1201:A 0
6 *228:8 *229:8 0.00999159
7 *228:8 *232:10 0
8 *228:8 *233:10 0
9 FrameData_O[22] *1200:A 1.54008e-05
10 FrameData_O[22] *228:8 0
11 FrameData_O[23] *1200:A 0
12 FrameData_O[24] *1200:A 0.000144843
13 FrameData_O[25] *1200:A 0
14 FrameData_O[26] *1200:A 0.000176511
15 *1199:A *1200:A 0
16 *194:19 *228:8 0
17 *208:21 *228:8 0.000448794
18 *224:18 *228:8 0.00456624
19 *224:28 *228:8 0
20 *225:8 *228:8 0
*RES
1 *1105:X *228:6 40 
2 *228:6 *228:8 52.7566 
3 *228:8 *1200:A 44.7792 
*END

*D_NET *229 0.0227899
*CONN
*I *1201:A I *D sg13g2_buf_1
*I *1106:X O *D sg13g2_buf_1
*CAP
1 *1201:A 0.000331452
2 *1106:X 0
3 *229:16 0.000832082
4 *229:8 0.00331742
5 *229:6 0.00281679
6 *229:8 *232:10 0
7 *229:8 *250:16 0.000660393
8 *229:16 *1204:A 0
9 *229:16 *236:16 0
10 FrameData_O[24] *1201:A 4.75442e-05
11 FrameData_O[26] *1201:A 0.000176626
12 FrameData_O[29] *1201:A 0
13 *1199:A *1201:A 0
14 *1200:A *1201:A 0
15 *224:28 *229:8 0.00461604
16 *224:28 *229:16 0
17 *226:22 *229:16 0
18 *228:8 *229:8 0.00999159
*RES
1 *1106:X *229:6 40 
2 *229:6 *229:8 46.3294 
3 *229:8 *229:16 44.9337 
4 *229:16 *1201:A 43.0488 
*END

*D_NET *230 0.015672
*CONN
*I *1202:A I *D sg13g2_buf_1
*I *1090:X O *D sg13g2_buf_1
*CAP
1 *1202:A 0
2 *1090:X 2.65114e-05
3 *230:18 0.00159453
4 *230:12 0.00526499
5 *230:8 0.00369697
6 *230:12 *243:12 0
7 *230:12 *244:14 0
8 *230:12 *244:16 0.00495975
9 *230:18 *1216:A 0
10 *230:18 *243:16 0
11 FrameData_O[10] *230:18 0
12 FrameData_O[9] *230:18 0.000129281
*RES
1 *1090:X *230:8 40.3193 
2 *230:8 *230:12 44.702 
3 *230:12 *230:18 34.8835 
4 *230:18 *1202:A 20 
*END

*D_NET *231 0.00663399
*CONN
*I *1203:A I *D sg13g2_buf_1
*I *1107:X O *D sg13g2_buf_1
*CAP
1 *1203:A 4.90273e-05
2 *1107:X 0
3 *231:8 0.00272033
4 *231:6 0.0026713
5 *231:8 *235:12 0
6 *231:8 *249:12 0
7 *231:8 *253:8 0.000983484
8 FrameData_O[28] *231:8 0
9 FrameData_O[29] *1203:A 0
10 FrameData_O[31] *1203:A 8.01995e-05
11 *84:35 *231:8 0
12 *86:8 *231:8 0
13 *88:10 *231:8 0
14 *94:8 *231:8 0
15 *98:8 *231:8 0.000129657
16 *101:10 *231:8 0
17 *226:22 *231:8 0
*RES
1 *1107:X *231:6 40 
2 *231:6 *231:8 32.9806 
3 *231:8 *1203:A 40.5356 
*END

*D_NET *232 0.0241039
*CONN
*I *1204:A I *D sg13g2_buf_1
*I *1108:X O *D sg13g2_buf_1
*CAP
1 *1204:A 0.000404562
2 *1108:X 0.000161948
3 *232:10 0.00360278
4 *232:8 0.00336017
5 *1204:A *1207:A 0
6 *1204:A *1208:A 0.000273739
7 *232:8 *282:8 0
8 *232:10 *236:16 0.0106841
9 *232:10 *250:16 0.000659978
10 FrameData_O[28] *1204:A 0
11 FrameData_O[31] *1204:A 0
12 *1105:A *232:10 0.000180577
13 *185:19 *232:8 0
14 *195:15 *232:10 0
15 *208:21 *232:10 0
16 *224:28 *232:10 0.00477605
17 *228:8 *232:10 0
18 *229:8 *232:10 0
19 *229:16 *1204:A 0
*RES
1 *1108:X *232:8 41.4008 
2 *232:8 *232:10 51.0262 
3 *232:10 *1204:A 44.1303 
*END

*D_NET *233 0.0172754
*CONN
*I *1205:A I *D sg13g2_buf_1
*I *1109:X O *D sg13g2_buf_1
*CAP
1 *1205:A 0.000364733
2 *1109:X 0.000292979
3 *233:10 0.00540786
4 *233:8 0.0053361
5 *1205:A *1208:A 0
6 *233:8 *282:8 0.000305175
7 *233:8 *283:8 0
8 *233:10 *248:20 0.000768453
9 *233:10 *299:10 0.00151208
10 *1199:A *1205:A 1.51734e-05
11 *84:23 *233:10 0
12 *194:19 *233:10 0.00327287
13 *224:18 *233:10 0
14 *227:10 *233:10 0
15 *228:8 *233:10 0
*RES
1 *1109:X *233:8 42.6986 
2 *233:8 *233:10 54.9814 
3 *233:10 *1205:A 43.3475 
*END

*D_NET *234 0.020534
*CONN
*I *1206:A I *D sg13g2_buf_1
*I *1082:X O *D sg13g2_buf_1
*CAP
1 *1206:A 0
2 *1082:X 0.000150146
3 *234:14 0.00308503
4 *234:12 0.004866
5 *234:8 0.00193111
6 *234:8 *239:10 0
7 *234:12 *240:8 0.00473431
8 *234:12 *262:14 0
9 *234:14 *240:8 0
10 *234:14 *242:10 0
11 *234:14 *256:12 0.00456309
12 *234:14 *262:14 0.000915344
13 *1085:A *234:12 0.000289003
14 *84:15 *234:8 0
*RES
1 *1082:X *234:8 41.4008 
2 *234:8 *234:12 22.2377 
3 *234:12 *234:14 34.6492 
4 *234:14 *1206:A 40 
*END

*D_NET *235 0.0139432
*CONN
*I *1207:A I *D sg13g2_buf_1
*I *1110:X O *D sg13g2_buf_1
*CAP
1 *1207:A 0.000233973
2 *1110:X 6.58586e-05
3 *235:12 0.00429677
4 *235:10 0.00412866
5 *235:10 *236:14 0
6 *235:12 *236:16 0
7 *235:12 *245:14 0
8 *235:12 *247:14 0.000287017
9 *235:12 *249:12 0
10 *235:12 *259:14 0.000765608
11 *235:12 *264:18 0
12 *235:12 *265:22 0.000447289
13 *235:12 *310:14 0
14 *235:12 *312:12 0.00151403
15 *1204:A *1207:A 0
16 *185:19 *235:10 4.77425e-05
17 *195:15 *235:12 0
18 *203:15 *235:12 0
19 *206:13 *235:12 0.00215622
20 *226:22 *235:12 0
21 *231:8 *235:12 0
*RES
1 *1110:X *235:10 40.6695 
2 *235:10 *235:12 49.0486 
3 *235:12 *1207:A 42.266 
*END

*D_NET *236 0.0206421
*CONN
*I *1208:A I *D sg13g2_buf_1
*I *1111:X O *D sg13g2_buf_1
*CAP
1 *1208:A 0.000169593
2 *1111:X 0.000431456
3 *236:16 0.00322777
4 *236:14 0.00348964
5 *236:16 *264:18 0.00209309
6 *1204:A *1208:A 0.000273739
7 *1205:A *1208:A 0
8 *185:19 *236:14 0
9 *187:9 *236:14 0.000272718
10 *195:15 *236:16 0
11 *224:28 *236:16 0
12 *229:16 *236:16 0
13 *232:10 *236:16 0.0106841
14 *235:10 *236:14 0
15 *235:12 *236:16 0
*RES
1 *1111:X *236:14 43.9346 
2 *236:14 *236:16 49.7902 
3 *236:16 *1208:A 41.8334 
*END

*D_NET *237 0.0213807
*CONN
*I *1209:A I *D sg13g2_buf_1
*I *1083:X O *D sg13g2_buf_1
*CAP
1 *1209:A 0
2 *1083:X 5.80404e-05
3 *237:16 0.00129772
4 *237:12 0.00404558
5 *237:8 0.0028059
6 *237:12 *239:12 0
7 *237:12 *255:10 0
8 *237:16 *238:10 0
9 *237:16 *239:12 0
10 *237:16 *255:10 0.000443164
11 FrameData_O[2] *237:16 0
12 *65:17 *237:12 0
13 *69:11 *237:12 0.0007691
14 *73:9 *237:12 0.00253294
15 *209:9 *237:12 0
16 *213:10 *237:16 0
17 *222:12 *237:12 0.00942824
18 *222:12 *237:16 0
*RES
1 *1083:X *237:8 40.5356 
2 *237:8 *237:12 43.9604 
3 *237:12 *237:16 32.9265 
4 *237:16 *1209:A 20 
*END

*D_NET *238 0.0181556
*CONN
*I *1210:A I *D sg13g2_buf_1
*I *1084:X O *D sg13g2_buf_1
*CAP
1 *1210:A 0.000165063
2 *1084:X 8.6892e-05
3 *238:10 0.00582497
4 *238:8 0.0057468
5 FrameData_O[1] *238:10 0
6 FrameData_O[2] *1210:A 0
7 FrameData_O[2] *238:10 0.000288917
8 FrameData_O[3] *1210:A 0
9 *1080:A *238:8 0
10 *1081:A *238:8 0
11 *23:9 *238:10 0.000394236
12 *67:9 *238:10 0.00333175
13 *68:9 *238:10 0.00231694
14 *71:13 *238:10 0
15 *77:9 *238:10 0
16 *213:10 *238:10 0
17 *237:16 *238:10 0
*RES
1 *1084:X *238:8 40.7519 
2 *238:8 *238:10 60.667 
3 *238:10 *1210:A 41.4008 
*END

*D_NET *239 0.0195746
*CONN
*I *1211:A I *D sg13g2_buf_1
*I *1085:X O *D sg13g2_buf_1
*CAP
1 *1211:A 7.11994e-05
2 *1085:X 7.48428e-05
3 *239:12 0.0036489
4 *239:10 0.00365255
5 *1211:A *1212:A 0
6 *239:12 *240:8 0.0120796
7 *239:12 *255:10 0
8 FrameData_O[2] *1211:A 4.75166e-05
9 *65:17 *239:12 0
10 *69:11 *239:12 0
11 *73:9 *239:12 0
12 *234:8 *239:10 0
13 *237:12 *239:12 0
14 *237:16 *239:12 0
*RES
1 *1085:X *239:10 40.6695 
2 *239:10 *239:12 55.4758 
3 *239:12 *1211:A 40.7519 
*END

*D_NET *240 0.0249825
*CONN
*I *1212:A I *D sg13g2_buf_1
*I *1086:X O *D sg13g2_buf_1
*CAP
1 *1212:A 5.37247e-05
2 *1086:X 0
3 *240:8 0.00401998
4 *240:6 0.00396625
5 *240:8 *242:10 0
6 FrameData_O[5] *240:8 0.000128662
7 *1085:A *240:8 0
8 *1211:A *1212:A 0
9 *65:17 *240:8 0
10 *234:12 *240:8 0.00473431
11 *234:14 *240:8 0
12 *239:12 *240:8 0.0120796
*RES
1 *1086:X *240:6 40 
2 *240:6 *240:8 58.9366 
3 *240:8 *1212:A 40.5356 
*END

*D_NET *241 0.0119887
*CONN
*I *1213:A I *D sg13g2_buf_1
*I *1091:X O *D sg13g2_buf_1
*CAP
1 *1213:A 0
2 *1091:X 0.000139516
3 *241:14 0.00330869
4 *241:12 0.00585483
5 *241:8 0.00268566
6 *241:12 *252:8 0
7 *241:12 *263:10 0
8 *241:12 *264:12 0
9 *241:12 *274:12 0
10 *241:14 *252:8 0
11 *241:14 *274:12 0
12 *1090:A *241:12 0
13 *84:15 *241:8 0
*RES
1 *1091:X *241:8 41.4008 
2 *241:8 *241:12 22.9793 
3 *241:12 *241:14 35.638 
4 *241:14 *1213:A 40 
*END

*D_NET *242 0.0182174
*CONN
*I *1214:A I *D sg13g2_buf_1
*I *1087:X O *D sg13g2_buf_1
*CAP
1 *1214:A 5.80404e-05
2 *1087:X 6.77376e-05
3 *242:10 0.0041119
4 *242:8 0.0041216
5 *242:10 *243:12 0.00974557
6 *242:10 *243:16 0
7 *242:10 *244:10 0
8 *242:10 *244:14 0
9 *242:10 *256:12 0
10 *242:10 *262:14 0
11 *29:5 *242:10 0
12 *31:5 *242:10 0
13 *84:15 *242:8 0.000112541
14 *234:14 *242:10 0
15 *240:8 *242:10 0
*RES
1 *1087:X *242:8 40.7519 
2 *242:8 *242:10 58.9366 
3 *242:10 *1214:A 40.5356 
*END

*D_NET *243 0.0182456
*CONN
*I *1215:A I *D sg13g2_buf_1
*I *1088:X O *D sg13g2_buf_1
*CAP
1 *1215:A 0
2 *1088:X 5.27943e-05
3 *243:16 0.0014845
4 *243:12 0.00419721
5 *243:8 0.0027655
6 *243:12 *244:14 0
7 FrameData_O[7] *243:16 0
8 *84:15 *243:8 0
9 *230:12 *243:12 0
10 *230:18 *243:16 0
11 *242:10 *243:12 0.00974557
12 *242:10 *243:16 0
*RES
1 *1088:X *243:8 40.5356 
2 *243:8 *243:12 45.4436 
3 *243:12 *243:16 33.9153 
4 *243:16 *1215:A 20 
*END

*D_NET *244 0.0155751
*CONN
*I *1216:A I *D sg13g2_buf_1
*I *1089:X O *D sg13g2_buf_1
*CAP
1 *1216:A 5.05675e-05
2 *1089:X 0.000138821
3 *244:16 0.00273684
4 *244:14 0.00503703
5 *244:10 0.00248957
6 *244:14 *263:10 0
7 *244:16 *263:10 0
8 *1090:A *244:14 0.000162568
9 *2:5 *244:10 0
10 *31:5 *244:10 0
11 *230:12 *244:14 0
12 *230:12 *244:16 0.00495975
13 *230:18 *1216:A 0
14 *242:10 *244:10 0
15 *242:10 *244:14 0
16 *243:12 *244:14 0
*RES
1 *1089:X *244:10 41.5038 
2 *244:10 *244:14 23.1338 
3 *244:14 *244:16 35.638 
4 *244:16 *1216:A 40.5356 
*END

*D_NET *245 0.00715887
*CONN
*I *1217:A I *D sg13g2_buf_1
*I *1112:X O *D sg13g2_buf_1
*CAP
1 *1217:A 0
2 *1112:X 0.00188137
3 *245:14 0.000359385
4 *245:6 0.00224075
5 *245:6 *258:6 0
6 *245:14 *257:10 0
7 *245:14 *258:12 0
8 FrameStrobe_O[2] *245:14 0.000176599
9 FrameStrobe_O[3] *245:14 4.77699e-05
10 FrameStrobe_O[4] *245:14 0
11 *1112:A *245:6 0
12 *198:7 *245:6 0.00114563
13 *199:7 *245:6 0.00130736
14 *220:6 *245:6 0
15 *235:12 *245:14 0
*RES
1 *1112:X *245:6 30.6658 
2 *245:6 *245:14 43.7595 
3 *245:14 *1217:A 20 
*END

*D_NET *246 0.00850967
*CONN
*I *1218:A I *D sg13g2_buf_1
*I *1122:X O *D sg13g2_buf_1
*CAP
1 *1218:A 0
2 *1122:X 0.000977311
3 *246:30 0.000831058
4 *246:18 0.00161109
5 *246:10 0.00175734
6 *246:10 *249:6 0.00143047
7 *246:10 *260:14 0
8 *246:18 *251:10 0.000500737
9 *246:18 *254:12 0
10 *246:18 *274:12 0
11 *246:18 *296:8 0
12 *246:30 *248:20 0
13 *246:30 *250:6 0
14 *246:30 *251:10 0.000952593
15 *246:30 *262:24 0
16 FrameStrobe_O[15] *246:30 0.000177212
17 FrameStrobe_O[17] *246:30 1.54556e-05
18 *214:18 *246:30 0.00012816
19 *223:34 *246:30 0.000128247
*RES
1 *1122:X *246:10 30.7841 
2 *246:10 *246:18 48.1473 
3 *246:18 *246:30 49.1567 
4 *246:30 *1218:A 20 
*END

*D_NET *247 0.00677896
*CONN
*I *1219:A I *D sg13g2_buf_1
*I *1123:X O *D sg13g2_buf_1
*CAP
1 *1219:A 0
2 *1123:X 0.00191858
3 *247:14 0.000169803
4 *247:6 0.00208839
5 *247:6 *248:10 0
6 *247:6 *249:6 0
7 *247:6 *262:24 0.00226743
8 *247:6 *265:22 0
9 *247:14 *1237:A 4.77425e-05
10 *235:12 *247:14 0.000287017
*RES
1 *1123:X *247:6 38.7048 
2 *247:6 *247:14 42.0909 
3 *247:14 *1219:A 20 
*END

*D_NET *248 0.00876633
*CONN
*I *1220:A I *D sg13g2_buf_1
*I *1124:X O *D sg13g2_buf_1
*CAP
1 *1220:A 0
2 *1124:X 0.00160254
3 *248:20 0.000680341
4 *248:10 0.00228288
5 *248:10 *250:6 0
6 *248:10 *262:24 0.00217096
7 *248:20 *250:16 0
8 *248:20 *251:10 0
9 *248:20 *254:12 0.000467632
10 FrameStrobe_O[17] *248:20 0
11 FrameStrobe_O[19] *248:20 2.21754e-05
12 *224:18 *248:20 0.000771341
13 *233:10 *248:20 0.000768453
14 *246:30 *248:20 0
15 *247:6 *248:10 0
*RES
1 *1124:X *248:10 37.0259 
2 *248:10 *248:20 48.7756 
3 *248:20 *1220:A 20 
*END

*D_NET *249 0.00688283
*CONN
*I *1221:A I *D sg13g2_buf_1
*I *1125:X O *D sg13g2_buf_1
*CAP
1 *1221:A 0
2 *1125:X 0.002006
3 *249:12 0.000288335
4 *249:6 0.00229433
5 *249:6 *1233:A 0
6 *249:6 *1236:A 0.0002408
7 *249:6 *260:14 0
8 *249:6 *265:22 0
9 *249:12 *265:22 0.000447208
10 *84:23 *249:6 0.000175693
11 *84:35 *249:6 0
12 *84:35 *249:12 0
13 *231:8 *249:12 0
14 *235:12 *249:12 0
15 *246:10 *249:6 0.00143047
16 *247:6 *249:6 0
*RES
1 *1125:X *249:6 39.1689 
2 *249:6 *249:12 43.3166 
3 *249:12 *1221:A 20 
*END

*D_NET *250 0.00632381
*CONN
*I *1222:A I *D sg13g2_buf_1
*I *1126:X O *D sg13g2_buf_1
*CAP
1 *1222:A 0
2 *1126:X 0.00177898
3 *250:16 0.000553176
4 *250:6 0.00233216
5 *250:6 *251:10 0
6 *250:16 *1225:A 0
7 *250:16 *1227:A 0
8 *250:16 *1228:A 0.000339123
9 *250:16 *254:12 0
10 FrameStrobe_O[19] *250:16 0
11 *229:8 *250:16 0.000660393
12 *232:10 *250:16 0.000659978
13 *246:30 *250:6 0
14 *248:10 *250:6 0
15 *248:20 *250:16 0
*RES
1 *1126:X *250:6 36.7331 
2 *250:6 *250:16 47.3192 
3 *250:16 *1222:A 20 
*END

*D_NET *251 0.00535653
*CONN
*I *1223:A I *D sg13g2_buf_1
*I *1127:X O *D sg13g2_buf_1
*CAP
1 *1223:A 0
2 *1127:X 0.0019516
3 *251:10 0.0019516
4 *251:10 *254:12 0
5 *246:18 *251:10 0.000500737
6 *246:30 *251:10 0.000952593
7 *248:20 *251:10 0
8 *250:6 *251:10 0
*RES
1 *1127:X *251:10 40.0541 
2 *251:10 *1223:A 20 
*END

*D_NET *252 0.0212426
*CONN
*I *1224:A I *D sg13g2_buf_1
*I *1092:X O *D sg13g2_buf_1
*CAP
1 *1224:A 7.98381e-05
2 *1092:X 0
3 *252:8 0.00444676
4 *252:6 0.00436692
5 *1224:A *1235:A 0
6 *252:8 *263:10 0.012349
7 *252:8 *274:12 0
8 FrameData_O[11] *252:8 0
9 FrameData_O[12] *1224:A 0
10 *241:12 *252:8 0
11 *241:14 *252:8 0
*RES
1 *1092:X *252:6 40 
2 *252:6 *252:8 57.9478 
3 *252:8 *1224:A 40.7519 
*END

*D_NET *253 0.00158553
*CONN
*I *1225:A I *D sg13g2_buf_1
*I *1128:X O *D sg13g2_buf_1
*CAP
1 *1225:A 3.16905e-05
2 *1128:X 0.000269335
3 *253:8 0.000301025
4 *1225:A *1227:A 0
5 *94:8 *253:8 0
6 *231:8 *253:8 0.000983484
7 *250:16 *1225:A 0
*RES
1 *1128:X *253:8 44.5526 
2 *253:8 *1225:A 40.3193 
*END

*D_NET *254 0.00458048
*CONN
*I *1226:A I *D sg13g2_buf_1
*I *1129:X O *D sg13g2_buf_1
*CAP
1 *1226:A 0
2 *1129:X 0.00205642
3 *254:12 0.00205642
4 *254:12 *1227:A 0
5 *254:12 *1228:A 0
6 *246:18 *254:12 0
7 *248:20 *254:12 0.000467632
8 *250:16 *254:12 0
9 *251:10 *254:12 0
*RES
1 *1129:X *254:12 37.4731 
2 *254:12 *1226:A 20 
*END

*D_NET *255 0.00892805
*CONN
*I *1227:A I *D sg13g2_buf_1
*I *1130:X O *D sg13g2_buf_1
*CAP
1 *1227:A 0.00214796
2 *1130:X 0
3 *255:10 0.00313631
4 *255:6 0.000988348
5 *1227:A *1228:A 0
6 *1225:A *1227:A 0
7 *73:9 *255:10 0.00221226
8 *237:12 *255:10 0
9 *237:16 *255:10 0.000443164
10 *239:12 *255:10 0
11 *250:16 *1227:A 0
12 *254:12 *1227:A 0
*RES
1 *1130:X *255:6 40 
2 *255:6 *255:10 34.1934 
3 *255:10 *1227:A 41.0841 
*END

*D_NET *256 0.0113215
*CONN
*I *1228:A I *D sg13g2_buf_1
*I *1131:X O *D sg13g2_buf_1
*CAP
1 *1228:A 0.00180006
2 *1131:X 0.000196887
3 *256:12 0.00301277
4 *256:8 0.0014096
5 *1227:A *1228:A 0
6 *234:14 *256:12 0.00456309
7 *242:10 *256:12 0
8 *250:16 *1228:A 0.000339123
9 *254:12 *1228:A 0
*RES
1 *1131:X *256:8 41.8334 
2 *256:8 *256:12 41.115 
3 *256:12 *1228:A 34.2001 
*END

*D_NET *257 0.000831963
*CONN
*I *1229:A I *D sg13g2_buf_1
*I *1113:X O *D sg13g2_buf_1
*CAP
1 *1229:A 0
2 *1113:X 0.000325385
3 *257:10 0.000325385
4 *257:10 *258:12 0
5 *96:10 *257:10 0
6 *98:8 *257:10 0.000181192
7 *245:14 *257:10 0
*RES
1 *1113:X *257:10 43.8831 
2 *257:10 *1229:A 40 
*END

*D_NET *258 0.00481236
*CONN
*I *1230:A I *D sg13g2_buf_1
*I *1114:X O *D sg13g2_buf_1
*CAP
1 *1230:A 0
2 *1114:X 0.00209879
3 *258:12 0.000189608
4 *258:6 0.0022884
5 *258:6 *259:6 0
6 *258:12 *259:14 0.000235556
7 *1192:A *258:6 0
8 *98:8 *258:12 0
9 *199:7 *258:6 0
10 *245:6 *258:6 0
11 *245:14 *258:12 0
12 *257:10 *258:12 0
*RES
1 *1114:X *258:6 29.7441 
2 *258:6 *258:12 42.0806 
3 *258:12 *1230:A 20 
*END

*D_NET *259 0.00637524
*CONN
*I *1231:A I *D sg13g2_buf_1
*I *1115:X O *D sg13g2_buf_1
*CAP
1 *1231:A 0
2 *1115:X 0.00206457
3 *259:20 6.30096e-05
4 *259:14 0.000526232
5 *259:6 0.00252779
6 *259:6 *260:14 0
7 FrameStrobe_O[7] *259:20 8.00842e-05
8 FrameStrobe_O[9] *259:20 0.000112391
9 *1192:A *259:6 0
10 *20:19 *259:14 0
11 *84:35 *259:14 0
12 *98:8 *259:14 0
13 *235:12 *259:14 0.000765608
14 *258:6 *259:6 0
15 *258:12 *259:14 0.000235556
*RES
1 *1115:X *259:6 28.0494 
2 *259:6 *259:14 46.2624 
3 *259:14 *259:20 40.7519 
4 *259:20 *1231:A 20 
*END

*D_NET *260 0.00474135
*CONN
*I *1232:A I *D sg13g2_buf_1
*I *1116:X O *D sg13g2_buf_1
*CAP
1 *1232:A 0
2 *1116:X 0.0020887
3 *260:14 0.0020887
4 *260:14 *1233:A 0.000563956
5 FrameStrobe_O[5] *260:14 0
6 *246:10 *260:14 0
7 *249:6 *260:14 0
8 *259:6 *260:14 0
*RES
1 *1116:X *260:14 40.7545 
2 *260:14 *1232:A 20 
*END

*D_NET *261 0.0184755
*CONN
*I *1233:A I *D sg13g2_buf_1
*I *1117:X O *D sg13g2_buf_1
*CAP
1 *1233:A 0.000752149
2 *1117:X 0.000518504
3 *261:18 0.00431366
4 *261:8 0.00408001
5 *261:18 *283:12 0
6 *261:18 *285:16 0
7 *1117:A *261:8 0
8 *13:9 *261:18 0
9 *84:35 *1233:A 0.000402474
10 *187:9 *261:18 0.00152214
11 *187:27 *261:8 0
12 *198:9 *261:18 0.00472753
13 *214:16 *261:18 0
14 *214:18 *261:18 0
15 *220:14 *261:18 0.000552986
16 *223:14 *261:18 0.000538791
17 *223:34 *261:18 0.00050329
18 *249:6 *1233:A 0
19 *260:14 *1233:A 0.000563956
*RES
1 *1117:X *261:8 44.2127 
2 *261:8 *261:18 44.9492 
3 *261:18 *1233:A 48.0031 
*END

*D_NET *262 0.0185703
*CONN
*I *1234:A I *D sg13g2_buf_1
*I *1118:X O *D sg13g2_buf_1
*CAP
1 *1234:A 0
2 *1118:X 0.000298621
3 *262:24 0.0018102
4 *262:14 0.00604432
5 *262:12 0.00453274
6 *262:24 *1238:A 0
7 FrameStrobe_O[11] *262:24 0
8 *1085:A *262:14 0.000482904
9 *28:5 *262:14 0
10 *29:5 *262:14 0
11 *101:10 *262:24 4.77425e-05
12 *234:12 *262:14 0
13 *234:14 *262:14 0.000915344
14 *242:10 *262:14 0
15 *246:30 *262:24 0
16 *247:6 *262:24 0.00226743
17 *248:10 *262:24 0.00217096
*RES
1 *1118:X *262:12 43.0282 
2 *262:12 *262:14 40.3966 
3 *262:14 *262:24 40.1571 
4 *262:24 *1234:A 20 
*END

*D_NET *263 0.0198251
*CONN
*I *1235:A I *D sg13g2_buf_1
*I *1093:X O *D sg13g2_buf_1
*CAP
1 *1235:A 0.000300814
2 *1093:X 2.44042e-05
3 *263:10 0.00371363
4 *263:8 0.00343722
5 *1235:A *1246:A 0
6 FrameData_O[13] *1235:A 0
7 *1090:A *263:10 0
8 *1224:A *1235:A 0
9 *241:12 *263:10 0
10 *244:14 *263:10 0
11 *244:16 *263:10 0
12 *252:8 *263:10 0.012349
*RES
1 *1093:X *263:8 40.3193 
2 *263:8 *263:10 57.7006 
3 *263:10 *1235:A 43.0488 
*END

*D_NET *264 0.0141541
*CONN
*I *1236:A I *D sg13g2_buf_1
*I *1119:X O *D sg13g2_buf_1
*CAP
1 *1236:A 0.000134575
2 *1119:X 0.000816389
3 *264:18 0.00164027
4 *264:12 0.00365895
5 *264:8 0.00296964
6 *1236:A *265:22 0.000208458
7 *264:12 *274:12 0
8 *5:5 *264:12 0.0019437
9 *195:15 *264:18 0.000448232
10 *235:12 *264:18 0
11 *236:16 *264:18 0.00209309
12 *241:12 *264:12 0
13 *249:6 *1236:A 0.0002408
*RES
1 *1119:X *264:8 48.1061 
2 *264:8 *264:12 45.3174 
3 *264:12 *264:18 39.5803 
4 *264:18 *1236:A 41.6171 
*END

*D_NET *265 0.011252
*CONN
*I *1237:A I *D sg13g2_buf_1
*I *1120:X O *D sg13g2_buf_1
*CAP
1 *1237:A 0.000274394
2 *1120:X 0.000462093
3 *265:22 0.00158697
4 *265:16 0.0035548
5 *265:12 0.00270432
6 *265:12 *274:10 0
7 *265:12 *285:8 0
8 *265:12 *296:8 0
9 *265:16 *274:12 0
10 *265:16 *285:8 0.00139005
11 *265:16 *296:8 0
12 FrameStrobe_O[11] *1237:A 0
13 FrameStrobe_O[13] *1237:A 0
14 *1120:A *265:12 0
15 *1236:A *265:22 0.000208458
16 *5:5 *265:12 0
17 *6:9 *265:12 0.000128663
18 *8:5 *265:12 0
19 *199:13 *265:12 0
20 *235:12 *265:22 0.000447289
21 *247:6 *265:22 0
22 *247:14 *1237:A 4.77425e-05
23 *249:6 *265:22 0
24 *249:12 *265:22 0.000447208
*RES
1 *1120:X *265:12 45.0058 
2 *265:12 *265:16 46.2135 
3 *265:16 *265:22 31.9171 
4 *265:22 *1237:A 42.3031 
*END

*D_NET *266 0.000441461
*CONN
*I *1238:A I *D sg13g2_buf_1
*I *1121:X O *D sg13g2_buf_1
*CAP
1 *1238:A 0.00022073
2 *1121:X 0.00022073
3 FrameStrobe_O[9] *1238:A 0
4 *84:35 *1238:A 0
5 *262:24 *1238:A 0
*RES
1 *1121:X *1238:A 42.1012 
*END

*D_NET *267 0.0122338
*CONN
*I *1239:A I *D sg13g2_buf_1
*I *1132:X O *D sg13g2_buf_1
*CAP
1 *1239:A 0.000185197
2 *1132:X 0.000352554
3 *267:22 0.00101226
4 *267:16 0.00229484
5 *267:12 0.00146778
6 *267:8 0.000352554
7 *1239:A *271:28 0
8 *267:8 *268:8 0.000175693
9 *267:16 *271:20 0
10 *267:16 *298:20 0.00297781
11 *19:19 *267:22 0
12 *19:27 *267:22 0
13 *105:8 *267:22 0
14 *107:10 *267:22 0
15 *109:10 *267:22 0
16 *110:18 *267:22 0.000181192
17 *112:10 *267:22 0
18 *157:11 *267:8 0.00030506
19 *158:11 *267:8 0.00014391
20 *158:45 *267:22 0
21 *164:17 *267:16 0
22 *169:9 *267:22 0.000233913
23 *188:17 *267:16 0.00255107
*RES
1 *1132:X *267:8 43.5638 
2 *267:8 *267:12 40 
3 *267:12 *267:16 41.3622 
4 *267:16 *267:22 48.755 
5 *267:22 *1239:A 22.0497 
*END

*D_NET *268 0.00959792
*CONN
*I *1240:A I *D sg13g2_buf_1
*I *1133:X O *D sg13g2_buf_1
*CAP
1 *1240:A 0
2 *1133:X 0.000311576
3 *268:14 0.00252673
4 *268:8 0.0028383
5 *268:8 *312:12 0
6 *268:14 *273:12 0
7 *268:14 *280:28 0
8 *268:14 *282:14 0
9 *268:14 *290:18 0.00113468
10 *268:14 *310:22 0.000128247
11 *16:5 *268:14 0
12 *17:5 *268:14 0
13 *157:11 *268:8 0.000498484
14 *189:25 *268:14 0.00198421
15 *208:21 *268:14 0
16 *267:8 *268:8 0.000175693
*RES
1 *1133:X *268:8 43.3475 
2 *268:8 *268:14 46.1311 
3 *268:14 *1240:A 20 
*END

*D_NET *269 0.000696979
*CONN
*I *1241:A I *D sg13g2_buf_1
*I *1134:X O *D sg13g2_buf_1
*CAP
1 *1241:A 0.000122379
2 *1134:X 0.000121232
3 *269:8 0.000243611
4 *1241:A *1247:A 0.000209756
5 *158:45 *269:8 0
*RES
1 *1134:X *269:8 41.339 
2 *269:8 *1241:A 41.4008 
*END

*D_NET *270 0.000754894
*CONN
*I *1242:A I *D sg13g2_buf_1
*I *1135:X O *D sg13g2_buf_1
*CAP
1 *1242:A 0.000369746
2 *1135:X 0.000369746
3 *1242:A *1247:A 0
4 N1BEG[1] *1242:A 1.54008e-05
*RES
1 *1135:X *1242:A 44.0273 
*END

*D_NET *271 0.0116493
*CONN
*I *1243:A I *D sg13g2_buf_1
*I *1136:X O *D sg13g2_buf_1
*CAP
1 *1243:A 0
2 *1136:X 0.000135143
3 *271:28 0.000307278
4 *271:20 0.00254906
5 *271:14 0.00250831
6 *271:8 0.000401677
7 *271:8 *309:20 0.000712308
8 *271:20 *281:16 0
9 *271:28 *1247:A 0
10 *1239:A *271:28 0
11 *105:8 *271:28 0.000446767
12 *109:10 *271:28 0.000764139
13 *158:11 *271:14 0
14 *158:45 *271:28 0.000234813
15 *163:13 *271:20 0
16 *188:17 *271:20 0.00287251
17 *207:21 *271:8 0.000717274
18 *267:16 *271:20 0
*RES
1 *1136:X *271:8 43.3166 
2 *271:8 *271:14 42.0497 
3 *271:14 *271:20 46.3165 
4 *271:20 *271:28 45.0264 
5 *271:28 *1243:A 20 
*END

*D_NET *272 0.012461
*CONN
*I *1244:A I *D sg13g2_buf_1
*I *1137:X O *D sg13g2_buf_1
*CAP
1 *1244:A 0
2 *1137:X 0.000511565
3 *272:16 0.00229542
4 *272:10 0.00280699
5 *272:10 *273:8 0.00011101
6 *272:16 *1248:A 4.77425e-05
7 *272:16 *282:14 0.00506239
8 *1138:A *272:10 0
9 *1139:A *272:10 0.000207845
10 *14:5 *272:16 0
11 *16:5 *272:16 0
12 *157:17 *272:16 0
13 *161:11 *272:10 0
14 *172:15 *272:10 0
15 *172:21 *272:16 0
16 *194:19 *272:16 0.00141808
*RES
1 *1137:X *272:10 44.5629 
2 *272:10 *272:16 48.2941 
3 *272:16 *1244:A 20 
*END

*D_NET *273 0.00965921
*CONN
*I *1245:A I *D sg13g2_buf_1
*I *1138:X O *D sg13g2_buf_1
*CAP
1 *1245:A 0.000124912
2 *1138:X 8.29747e-05
3 *273:12 0.00282349
4 *273:8 0.00278156
5 *1245:A *1248:A 0
6 *273:12 *277:10 0
7 *273:12 *280:16 0.00044777
8 *273:12 *280:28 0.00171571
9 *273:12 *284:12 0
10 *273:12 *290:18 0
11 *273:12 *291:12 0
12 *273:12 *293:10 0.000657584
13 *273:12 *306:18 0
14 *273:12 *310:22 0
15 N1BEG[1] *1245:A 0.000209871
16 *1170:A *273:12 0
17 *1172:A *273:12 0
18 *17:5 *273:12 0.000554077
19 *111:10 *273:12 0
20 *115:10 *273:12 0
21 *119:10 *273:12 7.51285e-05
22 *122:10 *273:12 0
23 *125:10 *273:12 7.51285e-05
24 *132:14 *273:12 0
25 *134:8 *273:12 0
26 *137:8 *273:12 0
27 *171:33 *273:12 0
28 *195:15 *273:12 0
29 *215:8 *273:12 0
30 *268:14 *273:12 0
31 *272:10 *273:8 0.00011101
*RES
1 *1138:X *273:8 40.7519 
2 *273:8 *273:12 49.0254 
3 *273:12 *1245:A 21.4008 
*END

*D_NET *274 0.0121564
*CONN
*I *1246:A I *D sg13g2_buf_1
*I *1094:X O *D sg13g2_buf_1
*CAP
1 *1246:A 7.32769e-05
2 *1094:X 0.000271144
3 *274:12 0.00557254
4 *274:10 0.0057704
5 *274:10 *285:8 0.000469058
6 *274:12 *285:8 0
7 *274:12 *296:8 0
8 FrameData_O[13] *1246:A 0
9 FrameData_O[13] *274:12 0
10 *1235:A *1246:A 0
11 *5:5 *274:10 0
12 *241:12 *274:12 0
13 *241:14 *274:12 0
14 *246:18 *274:12 0
15 *252:8 *274:12 0
16 *264:12 *274:12 0
17 *265:12 *274:10 0
18 *265:16 *274:12 0
*RES
1 *1094:X *274:10 43.4814 
2 *274:10 *274:12 59.3383 
3 *274:12 *1246:A 40.7519 
*END

*D_NET *275 0.0173782
*CONN
*I *1247:A I *D sg13g2_buf_1
*I *1139:X O *D sg13g2_buf_1
*CAP
1 *1247:A 0.000914576
2 *1139:X 0.000781134
3 *275:12 0.00244611
4 *275:8 0.00231266
5 N1BEG[1] *1247:A 0
6 *1100:A *275:8 0
7 *1101:A *275:8 0
8 *1241:A *1247:A 0.000209756
9 *1242:A *1247:A 0
10 *8:5 *275:12 0
11 *9:5 *275:12 0.00643784
12 *84:15 *275:8 0
13 *107:10 *1247:A 0.000242328
14 *157:17 *1247:A 0
15 *172:15 *275:8 0.000400669
16 *185:29 *275:12 0.00355387
17 *224:8 *275:8 7.92265e-05
18 *271:28 *1247:A 0
*RES
1 *1139:X *275:8 47.2409 
2 *275:8 *275:12 49.767 
3 *275:12 *1247:A 29.6202 
*END

*D_NET *276 0.000849035
*CONN
*I *1248:A I *D sg13g2_buf_1
*I *1140:X O *D sg13g2_buf_1
*CAP
1 *1248:A 0.000369004
2 *1140:X 0.000369004
3 *1245:A *1248:A 0
4 *110:18 *1248:A 6.32858e-05
5 *272:16 *1248:A 4.77425e-05
*RES
1 *1140:X *1248:A 44.0273 
*END

*D_NET *277 0.00217225
*CONN
*I *1249:A I *D sg13g2_buf_1
*I *1141:X O *D sg13g2_buf_1
*CAP
1 *1249:A 8.91636e-05
2 *1141:X 0.000643917
3 *277:10 0.000733081
4 *277:10 *1250:A 0
5 *277:10 *281:22 0.000449137
6 N2BEG[2] *277:10 0
7 *1142:A *277:10 0.000112621
8 *107:10 *1249:A 0
9 *108:10 *1249:A 0.000144332
10 *110:18 *277:10 0
11 *111:10 *277:10 0
12 *113:14 *277:10 0
13 *114:8 *277:10 0
14 *115:10 *277:10 0
15 *171:33 *277:10 0
16 *273:12 *277:10 0
*RES
1 *1141:X *277:10 46.5405 
2 *277:10 *1249:A 40.9682 
*END

*D_NET *278 0.000253563
*CONN
*I *1250:A I *D sg13g2_buf_1
*I *1142:X O *D sg13g2_buf_1
*CAP
1 *1250:A 0.000126782
2 *1142:X 0.000126782
3 N2BEG[2] *1250:A 0
4 *1143:A *1250:A 0
5 *110:18 *1250:A 0
6 *118:14 *1250:A 0
7 *277:10 *1250:A 0
*RES
1 *1142:X *1250:A 41.4111 
*END

*D_NET *279 0.00103324
*CONN
*I *1251:A I *D sg13g2_buf_1
*I *1143:X O *D sg13g2_buf_1
*CAP
1 *1251:A 2.60565e-05
2 *1143:X 0.000155357
3 *279:8 0.000181413
4 N1BEG[1] *1251:A 4.77425e-05
5 *108:10 *279:8 0.00012816
6 *114:8 *279:8 0.000446767
7 *116:12 *1251:A 4.77425e-05
8 *116:12 *279:8 0
*RES
1 *1143:X *279:8 42.0806 
2 *279:8 *1251:A 40.3193 
*END

*D_NET *280 0.0103805
*CONN
*I *1252:A I *D sg13g2_buf_1
*I *1144:X O *D sg13g2_buf_1
*CAP
1 *1252:A 0
2 *1144:X 0.000381007
3 *280:28 0.000660841
4 *280:20 0.00207677
5 *280:16 0.001885
6 *280:10 0.000850087
7 *280:10 *282:8 0
8 *280:16 *310:22 0.000661056
9 *280:20 *289:16 0
10 *280:20 *300:20 0
11 *280:28 *1255:A 0
12 *280:28 *290:18 0.000603778
13 N2BEGb[0] *280:28 1.54008e-05
14 *1105:A *280:16 0
15 *1144:A *280:10 0
16 *185:19 *280:10 0
17 *195:15 *280:16 0.00108311
18 *196:13 *280:20 0
19 *268:14 *280:28 0
20 *273:12 *280:16 0.00044777
21 *273:12 *280:28 0.00171571
*RES
1 *1144:X *280:10 43.2651 
2 *280:10 *280:16 47.519 
3 *280:16 *280:20 34.6878 
4 *280:20 *280:28 48.7653 
5 *280:28 *1252:A 20 
*END

*D_NET *281 0.0138895
*CONN
*I *1253:A I *D sg13g2_buf_1
*I *1145:X O *D sg13g2_buf_1
*CAP
1 *1253:A 6.20563e-05
2 *1145:X 0
3 *281:22 0.000839976
4 *281:16 0.0022488
5 *281:10 0.00147088
6 *281:6 0
7 *281:16 *297:22 0.00415363
8 *281:16 *300:20 0
9 *281:16 *302:14 0.000804541
10 *281:16 *302:20 0
11 *281:22 *284:12 0
12 *281:22 *287:8 0.000125088
13 *281:22 *288:12 0
14 *281:22 *297:30 0
15 *281:22 *298:30 0
16 *19:27 *281:16 7.93742e-05
17 *110:18 *1253:A 0.0001122
18 *113:14 *1253:A 0.0001122
19 *114:8 *281:22 0.000504026
20 *116:12 *281:22 0
21 *120:16 *281:22 0
22 *124:8 *281:22 0.000181387
23 *136:8 *281:22 0.000393755
24 *158:19 *281:16 0.00184945
25 *163:13 *281:16 0
26 *170:29 *281:22 0
27 *188:25 *281:22 0.000503028
28 *271:20 *281:16 0
29 *277:10 *281:22 0.000449137
*RES
1 *1145:X *281:6 40 
2 *281:6 *281:10 40 
3 *281:10 *281:16 43.8754 
4 *281:16 *281:22 49.2494 
5 *281:22 *1253:A 20.7519 
*END

*D_NET *282 0.0132324
*CONN
*I *1254:A I *D sg13g2_buf_1
*I *1146:X O *D sg13g2_buf_1
*CAP
1 *1254:A 0
2 *1146:X 0.000416252
3 *282:14 0.00177717
4 *282:8 0.00219342
5 *282:8 *283:8 0
6 *282:14 *303:28 0.000878454
7 *16:5 *282:14 0.000395112
8 *189:25 *282:14 0
9 *194:19 *282:14 0
10 *208:21 *282:14 0.00220448
11 *232:8 *282:8 0
12 *233:8 *282:8 0.000305175
13 *268:14 *282:14 0
14 *272:16 *282:14 0.00506239
15 *280:10 *282:8 0
*RES
1 *1146:X *282:8 42.3332 
2 *282:8 *282:14 47.8306 
3 *282:14 *1254:A 20 
*END

*D_NET *283 0.0153227
*CONN
*I *1255:A I *D sg13g2_buf_1
*I *1147:X O *D sg13g2_buf_1
*CAP
1 *1255:A 0.000763433
2 *1147:X 0.000981983
3 *283:12 0.00255679
4 *283:8 0.00277534
5 N2BEGb[0] *1255:A 0
6 *1142:A *1255:A 0
7 *9:5 *283:12 0
8 *13:9 *283:12 0
9 *17:11 *1255:A 0
10 *84:15 *283:8 0
11 *120:16 *1255:A 0.000112453
12 *161:11 *283:8 0
13 *171:33 *1255:A 0.000273624
14 *185:19 *283:12 0.0003946
15 *187:27 *283:12 0.00413779
16 *198:9 *283:12 0.00327912
17 *207:15 *283:8 4.75166e-05
18 *233:8 *283:8 0
19 *261:18 *283:12 0
20 *280:28 *1255:A 0
21 *282:8 *283:8 0
*RES
1 *1147:X *283:8 48.5387 
2 *283:8 *283:12 47.7894 
3 *283:12 *1255:A 27.2409 
*END

*D_NET *284 0.00198048
*CONN
*I *1256:A I *D sg13g2_buf_1
*I *1148:X O *D sg13g2_buf_1
*CAP
1 *1256:A 0.000189564
2 *1148:X 0.000465881
3 *284:12 0.000655445
4 *1256:A *1258:A 0
5 *284:12 *298:30 0.000286752
6 N2BEG[5] *284:12 1.54008e-05
7 N2BEGb[0] *1256:A 0
8 N2BEGb[4] *1256:A 0.000176396
9 *1142:A *284:12 7.99992e-05
10 *115:10 *284:12 0
11 *122:10 *284:12 0
12 *170:29 *284:12 0.000111037
13 *273:12 *284:12 0
14 *281:22 *284:12 0
*RES
1 *1148:X *284:12 44.7586 
2 *284:12 *1256:A 41.7454 
*END

*D_NET *285 0.0166349
*CONN
*I *1257:A I *D sg13g2_buf_1
*I *1095:X O *D sg13g2_buf_1
*CAP
1 *1257:A 0
2 *1095:X 0.000714127
3 *285:16 0.00491603
4 *285:14 0.00516854
5 *285:8 0.000966634
6 *285:16 *296:8 0
7 *285:16 *307:12 0
8 *198:9 *285:16 0
9 *199:13 *285:16 0.00301045
10 *214:18 *285:16 0
11 *223:34 *285:16 0
12 *261:18 *285:16 0
13 *265:12 *285:8 0
14 *265:16 *285:8 0.00139005
15 *274:10 *285:8 0.000469058
16 *274:12 *285:8 0
*RES
1 *1095:X *285:8 48.5078 
2 *285:8 *285:14 42.4823 
3 *285:14 *285:16 52.015 
4 *285:16 *1257:A 40 
*END

*D_NET *286 0.000328119
*CONN
*I *1258:A I *D sg13g2_buf_1
*I *1149:X O *D sg13g2_buf_1
*CAP
1 *1258:A 0.000164059
2 *1149:X 0.000164059
3 N2BEGb[0] *1258:A 0
4 N2BEGb[4] *1258:A 0
5 *1149:A *1258:A 0
6 *1256:A *1258:A 0
7 *133:14 *1258:A 0
*RES
1 *1149:X *1258:A 41.9467 
*END

*D_NET *287 0.00152983
*CONN
*I *1259:A I *D sg13g2_buf_1
*I *1150:X O *D sg13g2_buf_1
*CAP
1 *1259:A 0.000422572
2 *1150:X 4.03311e-05
3 *287:8 0.000462903
4 *1259:A *1271:A 0
5 *287:8 *297:30 7.33256e-05
6 N2BEGb[4] *1259:A 0.000143351
7 N2BEGb[5] *1259:A 0.000240634
8 *120:16 *287:8 2.16263e-05
9 *281:22 *287:8 0.000125088
*RES
1 *1150:X *287:8 40.5974 
2 *287:8 *1259:A 44.017 
*END

*D_NET *288 0.0032246
*CONN
*I *1260:A I *D sg13g2_buf_1
*I *1151:X O *D sg13g2_buf_1
*CAP
1 *1260:A 8.89449e-06
2 *1151:X 0.000443295
3 *288:20 0.000216631
4 *288:12 0.000651031
5 *288:12 *1271:A 0
6 *288:12 *1276:A 0
7 *288:12 *298:30 0.00070497
8 N2BEG[6] *1260:A 1.65559e-05
9 *116:12 *288:20 0.000126358
10 *119:16 *288:20 0.000178985
11 *120:16 *288:20 0.000389866
12 *124:16 *288:20 0.000126354
13 *132:22 *288:12 0
14 *161:21 *288:12 0.000112656
15 *170:29 *1260:A 1.65874e-05
16 *171:25 *288:20 0
17 *188:25 *288:12 0.000232418
18 *281:22 *288:12 0
*RES
1 *1151:X *288:12 44.9796 
2 *288:12 *288:20 43.0179 
3 *288:20 *1260:A 40.1107 
*END

*D_NET *289 0.00979109
*CONN
*I *1261:A I *D sg13g2_buf_1
*I *1152:X O *D sg13g2_buf_1
*CAP
1 *1261:A 0
2 *1152:X 0.00028862
3 *289:20 0
4 *289:16 0.0024584
5 *289:14 0.00282195
6 *289:8 0.000652175
7 *289:8 *309:20 0.000824415
8 *289:8 *311:16 0
9 *19:31 *289:16 0
10 *20:13 *289:16 0
11 *21:13 *289:16 0
12 *179:11 *289:8 0
13 *189:17 *289:16 0.00274554
14 *196:13 *289:16 0
15 *208:15 *289:14 0
16 *280:20 *289:16 0
*RES
1 *1152:X *289:8 43.811 
2 *289:8 *289:14 43.5638 
3 *289:14 *289:16 31.4974 
4 *289:16 *289:20 40 
5 *289:20 *1261:A 40 
*END

*D_NET *290 0.00411027
*CONN
*I *1262:A I *D sg13g2_buf_1
*I *1162:X O *D sg13g2_buf_1
*CAP
1 *1262:A 6.32666e-05
2 *1162:X 0.000221453
3 *290:18 0.000600277
4 *290:10 0.000758463
5 *290:10 *298:30 0.000231238
6 *290:18 *302:28 4.77699e-05
7 N4BEG[3] *290:18 0
8 *132:22 *290:10 0.000175721
9 *134:8 *290:10 0
10 *161:21 *290:18 0.000273624
11 *187:27 *290:18 0
12 *268:14 *290:18 0.00113468
13 *273:12 *290:18 0
14 *280:28 *290:18 0.000603778
*RES
1 *1162:X *290:10 42.2763 
2 *290:10 *290:18 47.3439 
3 *290:18 *1262:A 40.5356 
*END

*D_NET *291 0.000663371
*CONN
*I *1263:A I *D sg13g2_buf_1
*I *1163:X O *D sg13g2_buf_1
*CAP
1 *1263:A 2.91618e-05
2 *1163:X 0.000230811
3 *291:12 0.000259973
4 *291:12 *293:10 0
5 *291:12 *294:12 0
6 N4BEG[4] *291:12 1.54556e-05
7 N4BEG[6] *291:12 0
8 N4BEG[7] *1263:A 4.77425e-05
9 *185:29 *1263:A 0
10 *185:29 *291:12 8.02267e-05
11 *273:12 *291:12 0
*RES
1 *1163:X *291:12 42.2248 
2 *291:12 *1263:A 40.3193 
*END

*D_NET *292 0.000221019
*CONN
*I *1264:A I *D sg13g2_buf_1
*I *1164:X O *D sg13g2_buf_1
*CAP
1 *1264:A 8.6638e-05
2 *1164:X 8.6638e-05
3 N4BEG[4] *1264:A 4.77425e-05
*RES
1 *1164:X *1264:A 40.9167 
*END

*D_NET *293 0.00183636
*CONN
*I *1265:A I *D sg13g2_buf_1
*I *1165:X O *D sg13g2_buf_1
*CAP
1 *1265:A 0.000123304
2 *1165:X 0.000233981
3 *293:10 0.000357284
4 *1265:A *1267:A 0.00017606
5 *293:10 *294:12 0
6 *127:10 *293:10 0.000288143
7 *273:12 *293:10 0.000657584
8 *291:12 *293:10 0
*RES
1 *1165:X *293:10 43.605 
2 *293:10 *1265:A 41.1845 
*END

*D_NET *294 0.00126725
*CONN
*I *1266:A I *D sg13g2_buf_1
*I *1166:X O *D sg13g2_buf_1
*CAP
1 *1266:A 0.000140745
2 *1166:X 0.000327473
3 *294:12 0.000468219
4 *294:12 *302:28 0
5 *294:12 *306:10 7.48178e-05
6 N4BEG[6] *1266:A 0.000175886
7 N4BEG[7] *1266:A 0
8 *127:10 *294:12 0
9 *130:12 *1266:A 8.01116e-05
10 *291:12 *294:12 0
11 *293:10 *294:12 0
*RES
1 *1166:X *294:12 43.1209 
2 *294:12 *1266:A 41.4008 
*END

*D_NET *295 0.000809424
*CONN
*I *1267:A I *D sg13g2_buf_1
*I *1167:X O *D sg13g2_buf_1
*CAP
1 *1267:A 0.000244996
2 *1167:X 0.000244996
3 N4BEG[13] *1267:A 0.000143373
4 *1169:A *1267:A 0
5 *1265:A *1267:A 0.00017606
*RES
1 *1167:X *1267:A 42.8119 
*END

*D_NET *296 0.0206364
*CONN
*I *1268:A I *D sg13g2_buf_1
*I *1096:X O *D sg13g2_buf_1
*CAP
1 *1268:A 7.56044e-05
2 *1096:X 0
3 *296:8 0.00385377
4 *296:6 0.00377816
5 *296:8 *307:12 0.0124063
6 FrameData_O[15] *296:8 0
7 *199:13 *296:8 0.000522505
8 *246:18 *296:8 0
9 *265:12 *296:8 0
10 *265:16 *296:8 0
11 *274:12 *296:8 0
12 *285:16 *296:8 0
*RES
1 *1096:X *296:6 40 
2 *296:6 *296:8 61.6558 
3 *296:8 *1268:A 40.7519 
*END

*D_NET *297 0.0118455
*CONN
*I *1269:A I *D sg13g2_buf_1
*I *1153:X O *D sg13g2_buf_1
*CAP
1 *1269:A 0
2 *1153:X 0
3 *297:34 0
4 *297:30 0.00103382
5 *297:22 0.00273566
6 *297:14 0.00216347
7 *297:6 0.000461632
8 *297:14 *302:14 0.000548248
9 *297:22 *302:14 0
10 *297:30 *302:28 0
11 *119:16 *297:30 0
12 *123:16 *297:30 0
13 *124:16 *297:30 0
14 *125:16 *297:30 0
15 *132:22 *297:30 0.00028427
16 *136:8 *297:30 0.000391485
17 *158:45 *297:30 0
18 *163:13 *297:22 0
19 *184:17 *297:22 0
20 *188:17 *297:14 0
21 *188:17 *297:22 0
22 *188:25 *297:22 0
23 *188:25 *297:30 0
24 *196:13 *297:14 0
25 *281:16 *297:22 0.00415363
26 *281:22 *297:30 0
27 *287:8 *297:30 7.33256e-05
*RES
1 *1153:X *297:6 40 
2 *297:6 *297:14 46.8083 
3 *297:14 *297:22 42.3201 
4 *297:22 *297:30 49.1361 
5 *297:30 *297:34 40 
6 *297:34 *1269:A 20 
*END

*D_NET *298 0.0169479
*CONN
*I *1270:A I *D sg13g2_buf_1
*I *1154:X O *D sg13g2_buf_1
*CAP
1 *1270:A 0
2 *1154:X 0.00060163
3 *298:30 0.000581825
4 *298:20 0.00267529
5 *298:14 0.0022805
6 *298:8 0.000788668
7 *298:8 *301:14 0.00140162
8 *298:8 *311:16 0
9 *298:30 *302:28 0.000388599
10 N2BEGb[0] *298:30 0.000176396
11 *1149:A *298:30 0
12 *19:27 *298:20 0
13 *122:10 *298:30 0
14 *123:16 *298:30 0
15 *124:16 *298:30 8.00842e-05
16 *132:14 *298:30 0
17 *134:8 *298:30 0
18 *137:8 *298:30 0.000284526
19 *164:17 *298:20 0
20 *171:13 *298:20 0.00238335
21 *177:9 *298:8 0.00039332
22 *188:17 *298:20 0
23 *188:25 *298:20 0
24 *188:25 *298:30 0
25 *199:25 *298:20 0
26 *207:9 *298:8 0
27 *208:9 *298:8 0.000711316
28 *267:16 *298:20 0.00297781
29 *281:22 *298:30 0
30 *284:12 *298:30 0.000286752
31 *288:12 *298:30 0.00070497
32 *290:10 *298:30 0.000231238
*RES
1 *1154:X *298:8 48.5078 
2 *298:8 *298:14 41.6171 
3 *298:14 *298:20 45.1732 
4 *298:20 *298:30 48.034 
5 *298:30 *1270:A 20 
*END

*D_NET *299 0.016683
*CONN
*I *1271:A I *D sg13g2_buf_1
*I *1155:X O *D sg13g2_buf_1
*CAP
1 *1271:A 0.000447853
2 *1155:X 0.000354431
3 *299:10 0.00201636
4 *299:8 0.00192294
5 N2BEGb[5] *1271:A 0
6 N2BEGb[6] *1271:A 1.54008e-05
7 *1259:A *1271:A 0
8 *16:19 *299:10 0.00386992
9 *17:13 *299:10 0
10 *84:23 *299:10 0.00215083
11 *123:8 *1271:A 4.77425e-05
12 *125:10 *1271:A 0
13 *161:21 *1271:A 0
14 *172:21 *299:10 0.00434541
15 *194:19 *299:10 0
16 *233:10 *299:10 0.00151208
17 *288:12 *1271:A 0
*RES
1 *1155:X *299:8 42.9149 
2 *299:8 *299:10 31.2502 
3 *299:10 *1271:A 44.2797 
*END

*D_NET *300 0.00827816
*CONN
*I *1272:A I *D sg13g2_buf_1
*I *1156:X O *D sg13g2_buf_1
*CAP
1 *1272:A 0
2 *1156:X 0.00049598
3 *300:24 0
4 *300:20 0.00310713
5 *300:14 0.00310713
6 *300:10 0.00049598
7 *300:10 *303:18 0.000235055
8 *300:10 *313:14 0
9 *300:20 *302:14 0
10 *300:20 *302:20 0
11 *1155:A *300:10 0.000143351
12 *19:27 *300:20 0.000405439
13 *125:16 *300:20 0
14 *189:11 *300:10 0.000288087
15 *196:13 *300:20 0
16 *206:13 *300:10 0
17 *280:20 *300:20 0
18 *281:16 *300:20 0
*RES
1 *1156:X *300:10 45.0264 
2 *300:10 *300:14 40 
3 *300:14 *300:20 49.0048 
4 *300:20 *300:24 40 
5 *300:24 *1272:A 20 
*END

*D_NET *301 0.0132397
*CONN
*I *1273:A I *D sg13g2_buf_1
*I *1157:X O *D sg13g2_buf_1
*CAP
1 *1273:A 0.000132131
2 *1157:X 2.67614e-05
3 *301:14 0.0031403
4 *301:8 0.00303493
5 *301:14 *304:18 0.00128685
6 N2BEGb[4] *1273:A 0.000181744
7 N2BEGb[5] *1273:A 0.0001816
8 *1157:A *301:8 4.75151e-05
9 *1158:A *301:8 4.75151e-05
10 *128:8 *301:14 0
11 *130:12 *301:14 0.000809082
12 *139:12 *301:14 0
13 *142:8 *301:14 0.000552115
14 *148:10 *301:14 0
15 *158:45 *301:14 0.000340288
16 *177:9 *301:14 0
17 *184:9 *301:14 0.000284727
18 *207:9 *301:14 0.00177249
19 *217:10 *301:14 0
20 *298:8 *301:14 0.00140162
*RES
1 *1157:X *301:8 40.3193 
2 *301:8 *301:14 32.6613 
3 *301:14 *1273:A 41.6377 
*END

*D_NET *302 0.0101618
*CONN
*I *1274:A I *D sg13g2_buf_1
*I *1158:X O *D sg13g2_buf_1
*CAP
1 *1274:A 0
2 *1158:X 0
3 *302:28 0.00063085
4 *302:20 0.00187585
5 *302:14 0.00192498
6 *302:6 0.000679985
7 *302:28 *306:10 0.000126354
8 *302:28 *314:8 0
9 *302:28 *316:10 0
10 N4BEG[3] *302:28 0
11 *158:19 *302:20 0.00185406
12 *177:17 *302:28 0.000391571
13 *184:17 *302:20 0
14 *188:25 *302:28 0.000809863
15 *196:13 *302:14 0
16 *215:16 *302:20 7.90769e-05
17 *281:16 *302:14 0.000804541
18 *281:16 *302:20 0
19 *290:18 *302:28 4.77699e-05
20 *294:12 *302:28 0
21 *297:14 *302:14 0.000548248
22 *297:22 *302:14 0
23 *297:30 *302:28 0
24 *298:30 *302:28 0.000388599
25 *300:20 *302:14 0
26 *300:20 *302:20 0
*RES
1 *1158:X *302:6 40 
2 *302:6 *302:14 48.9816 
3 *302:14 *302:20 34.0801 
4 *302:20 *302:28 47.5293 
5 *302:28 *1274:A 20 
*END

*D_NET *303 0.011671
*CONN
*I *1275:A I *D sg13g2_buf_1
*I *1159:X O *D sg13g2_buf_1
*CAP
1 *1275:A 0
2 *1159:X 8.26319e-05
3 *303:28 0.00022136
4 *303:18 0.00219928
5 *303:8 0.00206055
6 *303:18 *312:22 0
7 *303:18 *313:14 0.00294876
8 *303:18 *316:10 0.000232128
9 *303:28 *1277:A 4.77425e-05
10 *154:8 *303:18 0
11 *177:17 *303:18 0
12 *187:9 *303:8 0
13 *189:11 *303:8 0.000110965
14 *189:11 *303:18 0
15 *189:25 *303:28 0.000877299
16 *206:13 *303:18 0
17 *207:21 *303:18 0.000394866
18 *215:16 *303:18 0.00024265
19 *217:10 *303:18 0
20 *218:10 *303:18 0.00113929
21 *282:14 *303:28 0.000878454
22 *300:10 *303:18 0.000235055
*RES
1 *1159:X *303:8 40.7519 
2 *303:8 *303:18 44.3904 
3 *303:18 *303:28 44.7277 
4 *303:28 *1275:A 20 
*END

*D_NET *304 0.0138358
*CONN
*I *1276:A I *D sg13g2_buf_1
*I *1160:X O *D sg13g2_buf_1
*CAP
1 *1276:A 4.80212e-05
2 *1160:X 0.000103567
3 *304:18 0.00194849
4 *304:8 0.00200404
5 *304:18 *308:18 0.00267229
6 N2BEGb[7] *304:18 0.000175809
7 N4BEG[0] *304:18 0.000143467
8 *133:14 *304:18 0.000288184
9 *136:16 *1276:A 4.35073e-05
10 *136:16 *304:18 0
11 *145:10 *304:18 0
12 *150:12 *304:18 0.000605298
13 *163:21 *304:18 0
14 *169:9 *304:18 0
15 *184:9 *304:18 0.00437288
16 *187:9 *304:8 0.000143351
17 *207:9 *304:18 0
18 *288:12 *1276:A 0
19 *301:14 *304:18 0.00128685
*RES
1 *1160:X *304:8 40.9682 
2 *304:8 *304:18 49.8288 
3 *304:18 *1276:A 20.6412 
*END

*D_NET *305 0.000899075
*CONN
*I *1277:A I *D sg13g2_buf_1
*I *1161:X O *D sg13g2_buf_1
*CAP
1 *1277:A 0.000345695
2 *1161:X 0.000345695
3 N4BEG[7] *1277:A 0.000112426
4 N4BEG[9] *1277:A 0
5 *185:29 *1277:A 4.75166e-05
6 *303:28 *1277:A 4.77425e-05
*RES
1 *1161:X *1277:A 43.359 
*END

*D_NET *306 0.00287498
*CONN
*I *1278:A I *D sg13g2_buf_1
*I *1168:X O *D sg13g2_buf_1
*CAP
1 *1278:A 0.000258849
2 *1168:X 0.00011716
3 *306:18 0.00072402
4 *306:10 0.00058233
5 *1278:A *1287:A 0.000240187
6 *306:10 *314:8 2.14736e-05
7 *306:18 *314:8 0.000442702
8 N4BEG[10] *306:10 0.000143544
9 N4BEG[9] *306:10 0.000143544
10 NN4BEG[0] *1278:A 0
11 NN4BEG[2] *1278:A 0
12 *127:10 *306:18 0
13 *177:17 *306:18 0
14 *184:17 *306:18 0
15 *199:25 *306:18 0
16 *215:8 *306:18 0
17 *273:12 *306:18 0
18 *294:12 *306:10 7.48178e-05
19 *302:28 *306:10 0.000126354
*RES
1 *1168:X *306:10 41.5656 
2 *306:10 *306:18 44.3466 
3 *306:18 *1278:A 42.266 
*END

*D_NET *307 0.0251447
*CONN
*I *1279:A I *D sg13g2_buf_1
*I *1097:X O *D sg13g2_buf_1
*CAP
1 *1279:A 0.000261597
2 *1097:X 6.41016e-05
3 *307:12 0.00417787
4 *307:10 0.00398037
5 FrameData_O[17] *1279:A 0
6 *1195:A *1279:A 1.54008e-05
7 *199:13 *307:12 0.0042391
8 *285:16 *307:12 0
9 *296:8 *307:12 0.0124063
*RES
1 *1097:X *307:10 40.6695 
2 *307:10 *307:12 57.4534 
3 *307:12 *1279:A 42.7192 
*END

*D_NET *308 0.0121211
*CONN
*I *1280:A I *D sg13g2_buf_1
*I *1178:X O *D sg13g2_buf_1
*CAP
1 *1280:A 0
2 *1178:X 7.7698e-05
3 *308:26 0.000352074
4 *308:18 0.00285319
5 *308:8 0.00257881
6 *308:26 *309:20 0.000393372
7 *308:26 *311:16 0.000497722
8 NN4BEG[14] *308:18 4.76973e-05
9 NN4BEG[15] *308:18 0.000175693
10 *142:8 *308:26 0
11 *155:10 *308:26 0.000447541
12 *169:9 *308:18 0
13 *177:9 *308:26 0.000445763
14 *182:13 *308:18 0.000288587
15 *190:13 *308:18 0.000288174
16 *195:15 *308:8 0.000144842
17 *196:9 *308:8 0.000144842
18 *197:13 *308:18 0
19 *204:13 *308:18 0.000712842
20 *207:9 *308:18 0
21 *208:9 *308:18 0
22 *304:18 *308:18 0.00267229
*RES
1 *1178:X *308:8 40.9682 
2 *308:8 *308:18 46.368 
3 *308:18 *308:26 45.6135 
4 *308:26 *1280:A 20 
*END

*D_NET *309 0.0105196
*CONN
*I *1281:A I *D sg13g2_buf_1
*I *1179:X O *D sg13g2_buf_1
*CAP
1 *1281:A 0
2 *1179:X 9.41873e-05
3 *309:20 0.00214284
4 *309:8 0.00223703
5 *309:20 *311:16 0.00173706
6 *309:20 *313:14 0.00200005
7 *25:21 *309:20 0
8 *194:11 *309:8 0.000144142
9 *201:11 *309:20 0
10 *203:15 *309:20 0
11 *206:13 *309:8 0
12 *206:13 *309:20 0
13 *207:21 *309:20 0
14 *208:9 *309:20 0
15 *217:10 *309:20 0.000234189
16 *271:8 *309:20 0.000712308
17 *289:8 *309:20 0.000824415
18 *308:26 *309:20 0.000393372
*RES
1 *1179:X *309:8 40.9682 
2 *309:8 *309:20 48.3559 
3 *309:20 *1281:A 20 
*END

*D_NET *310 0.00888971
*CONN
*I *1282:A I *D sg13g2_buf_1
*I *1180:X O *D sg13g2_buf_1
*CAP
1 *1282:A 0
2 *1180:X 6.37056e-05
3 *310:22 0.000712467
4 *310:14 0.00216466
5 *310:8 0.0015159
6 *310:14 *312:12 0
7 *1105:A *310:22 0
8 *157:11 *310:22 0.000273509
9 *194:11 *310:8 0
10 *195:15 *310:14 0.00337016
11 *208:21 *310:22 0
12 *235:12 *310:14 0
13 *268:14 *310:22 0.000128247
14 *273:12 *310:22 0
15 *280:16 *310:22 0.000661056
*RES
1 *1180:X *310:8 40.5356 
2 *310:8 *310:14 36.4285 
3 *310:14 *310:22 47.3748 
4 *310:22 *1282:A 20 
*END

*D_NET *311 0.00896799
*CONN
*I *1283:A I *D sg13g2_buf_1
*I *1181:X O *D sg13g2_buf_1
*CAP
1 *1283:A 0
2 *1181:X 4.34621e-05
3 *311:16 0.00181727
4 *311:8 0.00186074
5 *1180:A *311:8 8.01116e-05
6 *25:21 *311:16 7.48466e-05
7 *177:9 *311:16 0.00106501
8 *179:11 *311:16 0.000181192
9 *201:11 *311:16 0.000181192
10 *203:15 *311:8 8.01116e-05
11 *208:9 *311:16 0.00134927
12 *289:8 *311:16 0
13 *298:8 *311:16 0
14 *308:26 *311:16 0.000497722
15 *309:20 *311:16 0.00173706
*RES
1 *1181:X *311:8 40.5356 
2 *311:8 *311:16 43.0205 
3 *311:16 *1283:A 20 
*END

*D_NET *312 0.00790976
*CONN
*I *1284:A I *D sg13g2_buf_1
*I *1182:X O *D sg13g2_buf_1
*CAP
1 *1284:A 0
2 *1182:X 0
3 *312:22 0.000643276
4 *312:12 0.00247243
5 *312:6 0.00182916
6 NN4BEG[12] *312:22 0
7 NN4BEG[9] *312:22 0
8 *1177:A *312:12 4.77425e-05
9 *172:15 *312:12 0
10 *195:15 *312:12 0.000556517
11 *206:13 *312:12 0
12 *206:13 *312:22 0.000766752
13 *218:10 *312:22 7.98567e-05
14 *219:14 *312:22 0
15 *235:12 *312:12 0.00151403
16 *268:8 *312:12 0
17 *303:18 *312:22 0
18 *310:14 *312:12 0
*RES
1 *1182:X *312:6 40 
2 *312:6 *312:12 37.3864 
3 *312:12 *312:22 46.2727 
4 *312:22 *1284:A 20 
*END

*D_NET *313 0.00893699
*CONN
*I *1285:A I *D sg13g2_buf_1
*I *1183:X O *D sg13g2_buf_1
*CAP
1 *1285:A 0
2 *1183:X 8.94917e-05
3 *313:14 0.00108402
4 *313:8 0.00117351
5 NN4BEG[12] *313:14 1.51e-05
6 *1155:A *313:8 0
7 *1183:A *313:8 0
8 *206:13 *313:14 0
9 *207:21 *313:14 0.00162605
10 *300:10 *313:14 0
11 *303:18 *313:14 0.00294876
12 *309:20 *313:14 0.00200005
*RES
1 *1183:X *313:8 40.7519 
2 *313:8 *313:14 39.364 
3 *313:14 *1285:A 20 
*END

*D_NET *314 0.00171414
*CONN
*I *1286:A I *D sg13g2_buf_1
*I *1169:X O *D sg13g2_buf_1
*CAP
1 *1286:A 0.00014376
2 *1169:X 0.000129508
3 *314:8 0.000273267
4 N4BEG[10] *1286:A 0.000241195
5 N4BEG[11] *1286:A 0.000176511
6 *177:17 *314:8 0.000285719
7 *302:28 *314:8 0
8 *306:10 *314:8 2.14736e-05
9 *306:18 *314:8 0.000442702
*RES
1 *1169:X *314:8 42.0806 
2 *314:8 *1286:A 41.6171 
*END

*D_NET *315 0.00124422
*CONN
*I *1287:A I *D sg13g2_buf_1
*I *1170:X O *D sg13g2_buf_1
*CAP
1 *1287:A 0.000430364
2 *1170:X 0.000430364
3 NN4BEG[0] *1287:A 0.000143307
4 *1169:A *1287:A 0
5 *1278:A *1287:A 0.000240187
*RES
1 *1170:X *1287:A 44.3569 
*END

*D_NET *316 0.00191285
*CONN
*I *1288:A I *D sg13g2_buf_1
*I *1171:X O *D sg13g2_buf_1
*CAP
1 *1288:A 0.000117299
2 *1171:X 0.000426579
3 *316:10 0.000543879
4 N4BEG[11] *1288:A 1.51771e-05
5 N4BEG[13] *1288:A 4.74714e-05
6 NN4BEG[2] *316:10 0.000143317
7 *1190:A *316:10 7.86681e-05
8 *148:10 *316:10 0
9 *154:8 *316:10 0.000127867
10 *215:16 *316:10 0.000180461
11 *217:10 *316:10 0
12 *302:28 *316:10 0
13 *303:18 *316:10 0.000232128
*RES
1 *1171:X *316:10 44.2848 
2 *316:10 *1288:A 41.1021 
*END

*D_NET *317 0.000724265
*CONN
*I *1289:A I *D sg13g2_buf_1
*I *1172:X O *D sg13g2_buf_1
*CAP
1 *1289:A 0.000231041
2 *1172:X 0.000231041
3 NN4BEG[2] *1289:A 0
4 NN4BEG[4] *1289:A 0.000262183
*RES
1 *1172:X *1289:A 42.4617 
*END
