*SPEF "ieee 1481-1999"
*DESIGN "S_term_single"
*DATE "23:19:08 Wednesday February 04, 2026"
*VENDOR "The OpenROAD Project"
*PROGRAM "OpenROAD"
*VERSION "dfc4f595dfb2e1c346492ff1f0274abb28725acf"
*DESIGN_FLOW "NAME_SCOPE LOCAL" "PIN_CAP NONE"
*DIVIDER /
*DELIMITER :
*BUS_DELIMITER []
*T_UNIT 1 NS
*C_UNIT 1 PF
*R_UNIT 1 OHM
*L_UNIT 1 HENRY

*NAME_MAP
*1 net
*2 FrameData[0]
*3 FrameData[10]
*4 FrameData[11]
*5 FrameData[12]
*6 FrameData[13]
*7 FrameData[14]
*8 FrameData[15]
*9 FrameData[16]
*10 FrameData[17]
*11 FrameData[18]
*12 FrameData[19]
*13 FrameData[1]
*14 FrameData[20]
*15 FrameData[21]
*16 FrameData[22]
*17 FrameData[23]
*18 FrameData[24]
*19 FrameData[25]
*20 FrameData[26]
*21 FrameData[27]
*22 FrameData[28]
*23 FrameData[29]
*24 FrameData[2]
*25 FrameData[30]
*26 FrameData[31]
*27 FrameData[3]
*28 FrameData[4]
*29 FrameData[5]
*30 FrameData[6]
*31 FrameData[7]
*32 FrameData[8]
*33 FrameData[9]
*34 FrameData_O[0]
*35 FrameData_O[10]
*36 FrameData_O[11]
*37 FrameData_O[12]
*38 FrameData_O[13]
*39 FrameData_O[14]
*40 FrameData_O[15]
*41 FrameData_O[16]
*42 FrameData_O[17]
*43 FrameData_O[18]
*44 FrameData_O[19]
*45 FrameData_O[1]
*46 FrameData_O[20]
*47 FrameData_O[21]
*48 FrameData_O[22]
*49 FrameData_O[23]
*50 FrameData_O[24]
*51 FrameData_O[25]
*52 FrameData_O[26]
*53 FrameData_O[27]
*54 FrameData_O[28]
*55 FrameData_O[29]
*56 FrameData_O[2]
*57 FrameData_O[30]
*58 FrameData_O[31]
*59 FrameData_O[3]
*60 FrameData_O[4]
*61 FrameData_O[5]
*62 FrameData_O[6]
*63 FrameData_O[7]
*64 FrameData_O[8]
*65 FrameData_O[9]
*66 FrameStrobe[0]
*67 FrameStrobe[10]
*68 FrameStrobe[11]
*69 FrameStrobe[12]
*70 FrameStrobe[13]
*71 FrameStrobe[14]
*72 FrameStrobe[15]
*73 FrameStrobe[16]
*74 FrameStrobe[17]
*75 FrameStrobe[18]
*76 FrameStrobe[19]
*77 FrameStrobe[1]
*78 FrameStrobe[2]
*79 FrameStrobe[3]
*80 FrameStrobe[4]
*81 FrameStrobe[5]
*82 FrameStrobe[6]
*83 FrameStrobe[7]
*84 FrameStrobe[8]
*85 FrameStrobe[9]
*86 FrameStrobe_O[0]
*87 FrameStrobe_O[10]
*88 FrameStrobe_O[11]
*89 FrameStrobe_O[12]
*90 FrameStrobe_O[13]
*91 FrameStrobe_O[14]
*92 FrameStrobe_O[15]
*93 FrameStrobe_O[16]
*94 FrameStrobe_O[17]
*95 FrameStrobe_O[18]
*96 FrameStrobe_O[19]
*97 FrameStrobe_O[1]
*98 FrameStrobe_O[2]
*99 FrameStrobe_O[3]
*100 FrameStrobe_O[4]
*101 FrameStrobe_O[5]
*102 FrameStrobe_O[6]
*103 FrameStrobe_O[7]
*104 FrameStrobe_O[8]
*105 FrameStrobe_O[9]
*106 N1BEG[0]
*107 N1BEG[1]
*108 N1BEG[2]
*109 N1BEG[3]
*110 N2BEG[0]
*111 N2BEG[1]
*112 N2BEG[2]
*113 N2BEG[3]
*114 N2BEG[4]
*115 N2BEG[5]
*116 N2BEG[6]
*117 N2BEG[7]
*118 N2BEGb[0]
*119 N2BEGb[1]
*120 N2BEGb[2]
*121 N2BEGb[3]
*122 N2BEGb[4]
*123 N2BEGb[5]
*124 N2BEGb[6]
*125 N2BEGb[7]
*126 N4BEG[0]
*127 N4BEG[10]
*128 N4BEG[11]
*129 N4BEG[12]
*130 N4BEG[13]
*131 N4BEG[14]
*132 N4BEG[15]
*133 N4BEG[1]
*134 N4BEG[2]
*135 N4BEG[3]
*136 N4BEG[4]
*137 N4BEG[5]
*138 N4BEG[6]
*139 N4BEG[7]
*140 N4BEG[8]
*141 N4BEG[9]
*142 NN4BEG[0]
*143 NN4BEG[10]
*144 NN4BEG[11]
*145 NN4BEG[12]
*146 NN4BEG[13]
*147 NN4BEG[14]
*148 NN4BEG[15]
*149 NN4BEG[1]
*150 NN4BEG[2]
*151 NN4BEG[3]
*152 NN4BEG[4]
*153 NN4BEG[5]
*154 NN4BEG[6]
*155 NN4BEG[7]
*156 NN4BEG[8]
*157 NN4BEG[9]
*158 S1END[0]
*159 S1END[1]
*160 S1END[2]
*161 S1END[3]
*162 S2END[0]
*163 S2END[1]
*164 S2END[2]
*165 S2END[3]
*166 S2END[4]
*167 S2END[5]
*168 S2END[6]
*169 S2END[7]
*170 S2MID[0]
*171 S2MID[1]
*172 S2MID[2]
*173 S2MID[3]
*174 S2MID[4]
*175 S2MID[5]
*176 S2MID[6]
*177 S2MID[7]
*178 S4END[0]
*179 S4END[10]
*180 S4END[11]
*181 S4END[12]
*182 S4END[13]
*183 S4END[14]
*184 S4END[15]
*185 S4END[1]
*186 S4END[2]
*187 S4END[3]
*188 S4END[4]
*189 S4END[5]
*190 S4END[6]
*191 S4END[7]
*192 S4END[8]
*193 S4END[9]
*194 SS4END[0]
*195 SS4END[10]
*196 SS4END[11]
*197 SS4END[12]
*198 SS4END[13]
*199 SS4END[14]
*200 SS4END[15]
*201 SS4END[1]
*202 SS4END[2]
*203 SS4END[3]
*204 SS4END[4]
*205 SS4END[5]
*206 SS4END[6]
*207 SS4END[7]
*208 SS4END[8]
*209 SS4END[9]
*210 UserCLK
*211 UserCLKo
*214 net1
*215 net10
*216 net100
*217 net101
*218 net102
*219 net103
*220 net104
*221 net105
*222 net11
*223 net12
*224 net13
*225 net14
*226 net15
*227 net16
*228 net17
*229 net18
*230 net19
*231 net2
*232 net20
*233 net21
*234 net22
*235 net23
*236 net24
*237 net25
*238 net26
*239 net27
*240 net28
*241 net29
*242 net3
*243 net30
*244 net31
*245 net32
*246 net33
*247 net34
*248 net35
*249 net36
*250 net37
*251 net38
*252 net39
*253 net4
*254 net40
*255 net41
*256 net42
*257 net43
*258 net44
*259 net45
*260 net46
*261 net47
*262 net48
*263 net49
*264 net5
*265 net50
*266 net51
*267 net52
*268 net53
*269 net54
*270 net55
*271 net56
*272 net57
*273 net58
*274 net59
*275 net6
*276 net60
*277 net61
*278 net62
*279 net63
*280 net64
*281 net65
*282 net66
*283 net67
*284 net68
*285 net69
*286 net7
*287 net70
*288 net71
*289 net72
*290 net73
*291 net74
*292 net75
*293 net76
*294 net77
*295 net78
*296 net79
*297 net8
*298 net80
*299 net81
*300 net82
*301 net83
*302 net84
*303 net85
*304 net86
*305 net87
*306 net88
*307 net89
*308 net9
*309 net90
*310 net91
*311 net92
*312 net93
*313 net94
*314 net95
*315 net96
*316 net97
*317 net98
*318 net99
*319 FILLER_0_0
*320 FILLER_0_105
*321 FILLER_0_112
*322 FILLER_0_119
*323 FILLER_0_126
*324 FILLER_0_133
*325 FILLER_0_137
*326 FILLER_0_14
*327 FILLER_0_143
*328 FILLER_0_150
*329 FILLER_0_157
*330 FILLER_0_163
*331 FILLER_0_170
*332 FILLER_0_177
*333 FILLER_0_184
*334 FILLER_0_191
*335 FILLER_0_198
*336 FILLER_0_205
*337 FILLER_0_21
*338 FILLER_0_210
*339 FILLER_0_214
*340 FILLER_0_220
*341 FILLER_0_232
*342 FILLER_0_236
*343 FILLER_0_241
*344 FILLER_0_248
*345 FILLER_0_255
*346 FILLER_0_262
*347 FILLER_0_269
*348 FILLER_0_276
*349 FILLER_0_278
*350 FILLER_0_28
*351 FILLER_0_283
*352 FILLER_0_290
*353 FILLER_0_294
*354 FILLER_0_332
*355 FILLER_0_347
*356 FILLER_0_35
*357 FILLER_0_351
*358 FILLER_0_357
*359 FILLER_0_364
*360 FILLER_0_371
*361 FILLER_0_378
*362 FILLER_0_385
*363 FILLER_0_392
*364 FILLER_0_399
*365 FILLER_0_406
*366 FILLER_0_417
*367 FILLER_0_419
*368 FILLER_0_42
*369 FILLER_0_49
*370 FILLER_0_56
*371 FILLER_0_63
*372 FILLER_0_7
*373 FILLER_0_70
*374 FILLER_0_77
*375 FILLER_0_84
*376 FILLER_0_91
*377 FILLER_0_98
*378 FILLER_10_0
*379 FILLER_10_111
*380 FILLER_10_124
*381 FILLER_10_129
*382 FILLER_10_131
*383 FILLER_10_136
*384 FILLER_10_14
*385 FILLER_10_174
*386 FILLER_10_199
*387 FILLER_10_205
*388 FILLER_10_209
*389 FILLER_10_21
*390 FILLER_10_214
*391 FILLER_10_221
*392 FILLER_10_228
*393 FILLER_10_235
*394 FILLER_10_242
*395 FILLER_10_250
*396 FILLER_10_257
*397 FILLER_10_259
*398 FILLER_10_264
*399 FILLER_10_270
*400 FILLER_10_278
*401 FILLER_10_28
*402 FILLER_10_285
*403 FILLER_10_292
*404 FILLER_10_299
*405 FILLER_10_306
*406 FILLER_10_347
*407 FILLER_10_35
*408 FILLER_10_354
*409 FILLER_10_361
*410 FILLER_10_368
*411 FILLER_10_375
*412 FILLER_10_382
*413 FILLER_10_389
*414 FILLER_10_396
*415 FILLER_10_403
*416 FILLER_10_410
*417 FILLER_10_417
*418 FILLER_10_419
*419 FILLER_10_42
*420 FILLER_10_49
*421 FILLER_10_56
*422 FILLER_10_63
*423 FILLER_10_7
*424 FILLER_10_70
*425 FILLER_10_77
*426 FILLER_10_85
*427 FILLER_11_0
*428 FILLER_11_14
*429 FILLER_11_166
*430 FILLER_11_168
*431 FILLER_11_201
*432 FILLER_11_21
*433 FILLER_11_218
*434 FILLER_11_232
*435 FILLER_11_241
*436 FILLER_11_253
*437 FILLER_11_278
*438 FILLER_11_28
*439 FILLER_11_282
*440 FILLER_11_295
*441 FILLER_11_331
*442 FILLER_11_333
*443 FILLER_11_35
*444 FILLER_11_358
*445 FILLER_11_365
*446 FILLER_11_372
*447 FILLER_11_379
*448 FILLER_11_386
*449 FILLER_11_393
*450 FILLER_11_400
*451 FILLER_11_407
*452 FILLER_11_414
*453 FILLER_11_42
*454 FILLER_11_49
*455 FILLER_11_56
*456 FILLER_11_63
*457 FILLER_11_7
*458 FILLER_11_70
*459 FILLER_11_77
*460 FILLER_1_0
*461 FILLER_1_105
*462 FILLER_1_112
*463 FILLER_1_119
*464 FILLER_1_126
*465 FILLER_1_133
*466 FILLER_1_14
*467 FILLER_1_140
*468 FILLER_1_147
*469 FILLER_1_154
*470 FILLER_1_161
*471 FILLER_1_168
*472 FILLER_1_175
*473 FILLER_1_182
*474 FILLER_1_189
*475 FILLER_1_196
*476 FILLER_1_203
*477 FILLER_1_21
*478 FILLER_1_210
*479 FILLER_1_217
*480 FILLER_1_221
*481 FILLER_1_231
*482 FILLER_1_238
*483 FILLER_1_245
*484 FILLER_1_252
*485 FILLER_1_259
*486 FILLER_1_266
*487 FILLER_1_273
*488 FILLER_1_28
*489 FILLER_1_280
*490 FILLER_1_287
*491 FILLER_1_294
*492 FILLER_1_301
*493 FILLER_1_308
*494 FILLER_1_315
*495 FILLER_1_322
*496 FILLER_1_329
*497 FILLER_1_336
*498 FILLER_1_343
*499 FILLER_1_35
*500 FILLER_1_350
*501 FILLER_1_357
*502 FILLER_1_364
*503 FILLER_1_371
*504 FILLER_1_378
*505 FILLER_1_385
*506 FILLER_1_392
*507 FILLER_1_399
*508 FILLER_1_406
*509 FILLER_1_413
*510 FILLER_1_42
*511 FILLER_1_420
*512 FILLER_1_49
*513 FILLER_1_56
*514 FILLER_1_63
*515 FILLER_1_7
*516 FILLER_1_70
*517 FILLER_1_77
*518 FILLER_1_84
*519 FILLER_1_91
*520 FILLER_1_98
*521 FILLER_2_0
*522 FILLER_2_105
*523 FILLER_2_112
*524 FILLER_2_119
*525 FILLER_2_126
*526 FILLER_2_133
*527 FILLER_2_14
*528 FILLER_2_140
*529 FILLER_2_147
*530 FILLER_2_154
*531 FILLER_2_161
*532 FILLER_2_168
*533 FILLER_2_175
*534 FILLER_2_182
*535 FILLER_2_189
*536 FILLER_2_196
*537 FILLER_2_198
*538 FILLER_2_203
*539 FILLER_2_205
*540 FILLER_2_21
*541 FILLER_2_210
*542 FILLER_2_217
*543 FILLER_2_224
*544 FILLER_2_231
*545 FILLER_2_238
*546 FILLER_2_242
*547 FILLER_2_248
*548 FILLER_2_255
*549 FILLER_2_262
*550 FILLER_2_269
*551 FILLER_2_276
*552 FILLER_2_28
*553 FILLER_2_283
*554 FILLER_2_290
*555 FILLER_2_297
*556 FILLER_2_304
*557 FILLER_2_311
*558 FILLER_2_318
*559 FILLER_2_325
*560 FILLER_2_332
*561 FILLER_2_339
*562 FILLER_2_346
*563 FILLER_2_35
*564 FILLER_2_353
*565 FILLER_2_360
*566 FILLER_2_367
*567 FILLER_2_374
*568 FILLER_2_381
*569 FILLER_2_388
*570 FILLER_2_395
*571 FILLER_2_402
*572 FILLER_2_409
*573 FILLER_2_416
*574 FILLER_2_42
*575 FILLER_2_423
*576 FILLER_2_427
*577 FILLER_2_49
*578 FILLER_2_56
*579 FILLER_2_63
*580 FILLER_2_7
*581 FILLER_2_70
*582 FILLER_2_77
*583 FILLER_2_84
*584 FILLER_2_91
*585 FILLER_2_98
*586 FILLER_3_0
*587 FILLER_3_105
*588 FILLER_3_112
*589 FILLER_3_119
*590 FILLER_3_126
*591 FILLER_3_133
*592 FILLER_3_14
*593 FILLER_3_140
*594 FILLER_3_147
*595 FILLER_3_154
*596 FILLER_3_161
*597 FILLER_3_168
*598 FILLER_3_175
*599 FILLER_3_183
*600 FILLER_3_190
*601 FILLER_3_197
*602 FILLER_3_204
*603 FILLER_3_21
*604 FILLER_3_211
*605 FILLER_3_213
*606 FILLER_3_218
*607 FILLER_3_229
*608 FILLER_3_236
*609 FILLER_3_243
*610 FILLER_3_250
*611 FILLER_3_257
*612 FILLER_3_264
*613 FILLER_3_271
*614 FILLER_3_278
*615 FILLER_3_28
*616 FILLER_3_285
*617 FILLER_3_292
*618 FILLER_3_299
*619 FILLER_3_306
*620 FILLER_3_313
*621 FILLER_3_320
*622 FILLER_3_327
*623 FILLER_3_334
*624 FILLER_3_341
*625 FILLER_3_348
*626 FILLER_3_35
*627 FILLER_3_355
*628 FILLER_3_362
*629 FILLER_3_369
*630 FILLER_3_376
*631 FILLER_3_383
*632 FILLER_3_390
*633 FILLER_3_397
*634 FILLER_3_404
*635 FILLER_3_411
*636 FILLER_3_418
*637 FILLER_3_42
*638 FILLER_3_425
*639 FILLER_3_427
*640 FILLER_3_49
*641 FILLER_3_56
*642 FILLER_3_63
*643 FILLER_3_7
*644 FILLER_3_70
*645 FILLER_3_77
*646 FILLER_3_84
*647 FILLER_3_91
*648 FILLER_3_98
*649 FILLER_4_0
*650 FILLER_4_105
*651 FILLER_4_112
*652 FILLER_4_119
*653 FILLER_4_126
*654 FILLER_4_133
*655 FILLER_4_14
*656 FILLER_4_140
*657 FILLER_4_147
*658 FILLER_4_154
*659 FILLER_4_161
*660 FILLER_4_168
*661 FILLER_4_175
*662 FILLER_4_182
*663 FILLER_4_189
*664 FILLER_4_196
*665 FILLER_4_203
*666 FILLER_4_21
*667 FILLER_4_210
*668 FILLER_4_214
*669 FILLER_4_219
*670 FILLER_4_226
*671 FILLER_4_233
*672 FILLER_4_241
*673 FILLER_4_248
*674 FILLER_4_255
*675 FILLER_4_262
*676 FILLER_4_269
*677 FILLER_4_276
*678 FILLER_4_28
*679 FILLER_4_283
*680 FILLER_4_290
*681 FILLER_4_297
*682 FILLER_4_304
*683 FILLER_4_311
*684 FILLER_4_318
*685 FILLER_4_325
*686 FILLER_4_332
*687 FILLER_4_339
*688 FILLER_4_346
*689 FILLER_4_35
*690 FILLER_4_353
*691 FILLER_4_360
*692 FILLER_4_367
*693 FILLER_4_374
*694 FILLER_4_381
*695 FILLER_4_388
*696 FILLER_4_395
*697 FILLER_4_402
*698 FILLER_4_409
*699 FILLER_4_416
*700 FILLER_4_42
*701 FILLER_4_423
*702 FILLER_4_427
*703 FILLER_4_49
*704 FILLER_4_56
*705 FILLER_4_63
*706 FILLER_4_7
*707 FILLER_4_70
*708 FILLER_4_77
*709 FILLER_4_84
*710 FILLER_4_91
*711 FILLER_4_98
*712 FILLER_5_0
*713 FILLER_5_105
*714 FILLER_5_112
*715 FILLER_5_119
*716 FILLER_5_126
*717 FILLER_5_133
*718 FILLER_5_14
*719 FILLER_5_140
*720 FILLER_5_147
*721 FILLER_5_154
*722 FILLER_5_161
*723 FILLER_5_168
*724 FILLER_5_175
*725 FILLER_5_182
*726 FILLER_5_189
*727 FILLER_5_196
*728 FILLER_5_200
*729 FILLER_5_206
*730 FILLER_5_208
*731 FILLER_5_21
*732 FILLER_5_213
*733 FILLER_5_215
*734 FILLER_5_220
*735 FILLER_5_227
*736 FILLER_5_234
*737 FILLER_5_241
*738 FILLER_5_248
*739 FILLER_5_255
*740 FILLER_5_262
*741 FILLER_5_269
*742 FILLER_5_276
*743 FILLER_5_28
*744 FILLER_5_283
*745 FILLER_5_290
*746 FILLER_5_297
*747 FILLER_5_304
*748 FILLER_5_311
*749 FILLER_5_318
*750 FILLER_5_325
*751 FILLER_5_332
*752 FILLER_5_339
*753 FILLER_5_346
*754 FILLER_5_35
*755 FILLER_5_353
*756 FILLER_5_360
*757 FILLER_5_367
*758 FILLER_5_374
*759 FILLER_5_381
*760 FILLER_5_388
*761 FILLER_5_395
*762 FILLER_5_402
*763 FILLER_5_409
*764 FILLER_5_416
*765 FILLER_5_42
*766 FILLER_5_423
*767 FILLER_5_427
*768 FILLER_5_49
*769 FILLER_5_56
*770 FILLER_5_63
*771 FILLER_5_7
*772 FILLER_5_70
*773 FILLER_5_77
*774 FILLER_5_84
*775 FILLER_5_91
*776 FILLER_5_98
*777 FILLER_6_0
*778 FILLER_6_105
*779 FILLER_6_112
*780 FILLER_6_119
*781 FILLER_6_126
*782 FILLER_6_133
*783 FILLER_6_14
*784 FILLER_6_140
*785 FILLER_6_147
*786 FILLER_6_154
*787 FILLER_6_161
*788 FILLER_6_168
*789 FILLER_6_175
*790 FILLER_6_182
*791 FILLER_6_189
*792 FILLER_6_196
*793 FILLER_6_203
*794 FILLER_6_21
*795 FILLER_6_211
*796 FILLER_6_218
*797 FILLER_6_223
*798 FILLER_6_225
*799 FILLER_6_230
*800 FILLER_6_237
*801 FILLER_6_244
*802 FILLER_6_251
*803 FILLER_6_258
*804 FILLER_6_265
*805 FILLER_6_272
*806 FILLER_6_279
*807 FILLER_6_28
*808 FILLER_6_286
*809 FILLER_6_293
*810 FILLER_6_300
*811 FILLER_6_307
*812 FILLER_6_314
*813 FILLER_6_321
*814 FILLER_6_328
*815 FILLER_6_335
*816 FILLER_6_342
*817 FILLER_6_349
*818 FILLER_6_35
*819 FILLER_6_356
*820 FILLER_6_363
*821 FILLER_6_370
*822 FILLER_6_377
*823 FILLER_6_384
*824 FILLER_6_391
*825 FILLER_6_398
*826 FILLER_6_405
*827 FILLER_6_412
*828 FILLER_6_419
*829 FILLER_6_42
*830 FILLER_6_426
*831 FILLER_6_49
*832 FILLER_6_56
*833 FILLER_6_63
*834 FILLER_6_7
*835 FILLER_6_70
*836 FILLER_6_77
*837 FILLER_6_84
*838 FILLER_6_91
*839 FILLER_6_98
*840 FILLER_7_0
*841 FILLER_7_105
*842 FILLER_7_112
*843 FILLER_7_119
*844 FILLER_7_126
*845 FILLER_7_133
*846 FILLER_7_14
*847 FILLER_7_140
*848 FILLER_7_147
*849 FILLER_7_154
*850 FILLER_7_161
*851 FILLER_7_168
*852 FILLER_7_175
*853 FILLER_7_182
*854 FILLER_7_189
*855 FILLER_7_196
*856 FILLER_7_203
*857 FILLER_7_207
*858 FILLER_7_21
*859 FILLER_7_213
*860 FILLER_7_215
*861 FILLER_7_220
*862 FILLER_7_227
*863 FILLER_7_234
*864 FILLER_7_241
*865 FILLER_7_248
*866 FILLER_7_255
*867 FILLER_7_262
*868 FILLER_7_269
*869 FILLER_7_276
*870 FILLER_7_28
*871 FILLER_7_283
*872 FILLER_7_290
*873 FILLER_7_297
*874 FILLER_7_304
*875 FILLER_7_311
*876 FILLER_7_318
*877 FILLER_7_325
*878 FILLER_7_332
*879 FILLER_7_339
*880 FILLER_7_346
*881 FILLER_7_35
*882 FILLER_7_353
*883 FILLER_7_360
*884 FILLER_7_367
*885 FILLER_7_374
*886 FILLER_7_381
*887 FILLER_7_388
*888 FILLER_7_395
*889 FILLER_7_402
*890 FILLER_7_409
*891 FILLER_7_416
*892 FILLER_7_42
*893 FILLER_7_423
*894 FILLER_7_427
*895 FILLER_7_49
*896 FILLER_7_56
*897 FILLER_7_63
*898 FILLER_7_7
*899 FILLER_7_70
*900 FILLER_7_77
*901 FILLER_7_84
*902 FILLER_7_91
*903 FILLER_7_98
*904 FILLER_8_0
*905 FILLER_8_105
*906 FILLER_8_112
*907 FILLER_8_123
*908 FILLER_8_130
*909 FILLER_8_134
*910 FILLER_8_14
*911 FILLER_8_143
*912 FILLER_8_150
*913 FILLER_8_157
*914 FILLER_8_164
*915 FILLER_8_171
*916 FILLER_8_178
*917 FILLER_8_185
*918 FILLER_8_192
*919 FILLER_8_199
*920 FILLER_8_206
*921 FILLER_8_21
*922 FILLER_8_213
*923 FILLER_8_222
*924 FILLER_8_229
*925 FILLER_8_236
*926 FILLER_8_243
*927 FILLER_8_250
*928 FILLER_8_257
*929 FILLER_8_264
*930 FILLER_8_271
*931 FILLER_8_278
*932 FILLER_8_28
*933 FILLER_8_285
*934 FILLER_8_292
*935 FILLER_8_299
*936 FILLER_8_306
*937 FILLER_8_313
*938 FILLER_8_320
*939 FILLER_8_327
*940 FILLER_8_334
*941 FILLER_8_341
*942 FILLER_8_348
*943 FILLER_8_35
*944 FILLER_8_355
*945 FILLER_8_362
*946 FILLER_8_369
*947 FILLER_8_376
*948 FILLER_8_383
*949 FILLER_8_390
*950 FILLER_8_397
*951 FILLER_8_404
*952 FILLER_8_411
*953 FILLER_8_418
*954 FILLER_8_42
*955 FILLER_8_425
*956 FILLER_8_427
*957 FILLER_8_49
*958 FILLER_8_56
*959 FILLER_8_63
*960 FILLER_8_7
*961 FILLER_8_70
*962 FILLER_8_77
*963 FILLER_8_84
*964 FILLER_8_91
*965 FILLER_8_98
*966 FILLER_9_0
*967 FILLER_9_14
*968 FILLER_9_183
*969 FILLER_9_191
*970 FILLER_9_198
*971 FILLER_9_205
*972 FILLER_9_209
*973 FILLER_9_21
*974 FILLER_9_215
*975 FILLER_9_222
*976 FILLER_9_228
*977 FILLER_9_235
*978 FILLER_9_242
*979 FILLER_9_252
*980 FILLER_9_259
*981 FILLER_9_266
*982 FILLER_9_273
*983 FILLER_9_28
*984 FILLER_9_280
*985 FILLER_9_287
*986 FILLER_9_294
*987 FILLER_9_301
*988 FILLER_9_308
*989 FILLER_9_315
*990 FILLER_9_322
*991 FILLER_9_329
*992 FILLER_9_336
*993 FILLER_9_343
*994 FILLER_9_35
*995 FILLER_9_350
*996 FILLER_9_357
*997 FILLER_9_364
*998 FILLER_9_371
*999 FILLER_9_378
*1000 FILLER_9_385
*1001 FILLER_9_392
*1002 FILLER_9_399
*1003 FILLER_9_406
*1004 FILLER_9_413
*1005 FILLER_9_42
*1006 FILLER_9_420
*1007 FILLER_9_427
*1008 FILLER_9_49
*1009 FILLER_9_56
*1010 FILLER_9_63
*1011 FILLER_9_7
*1012 FILLER_9_70
*1013 FILLER_9_77
*1014 FILLER_9_84
*1015 S_term_single
*1016 _001_
*1017 _002_
*1018 _003_
*1019 _004_
*1020 _005_
*1021 _006_
*1022 _007_
*1023 _008_
*1024 _009_
*1025 _010_
*1026 _011_
*1027 _012_
*1028 _013_
*1029 _014_
*1030 _015_
*1031 _016_
*1032 _017_
*1033 _018_
*1034 _019_
*1035 _020_
*1036 _021_
*1037 _022_
*1038 _023_
*1039 _024_
*1040 _025_
*1041 _026_
*1042 _027_
*1043 _028_
*1044 _029_
*1045 _030_
*1046 _031_
*1047 _032_
*1048 _033_
*1049 _034_
*1050 _035_
*1051 _036_
*1052 _037_
*1053 _038_
*1054 _039_
*1055 _040_
*1056 _041_
*1057 _042_
*1058 _043_
*1059 _044_
*1060 _045_
*1061 _046_
*1062 _047_
*1063 _048_
*1064 _049_
*1065 _050_
*1066 _051_
*1067 _052_
*1068 _053_
*1069 _054_
*1070 _055_
*1071 _056_
*1072 _057_
*1073 _058_
*1074 _059_
*1075 _060_
*1076 _061_
*1077 _062_
*1078 _063_
*1079 _064_
*1080 _065_
*1081 _066_
*1082 _067_
*1083 _068_
*1084 _069_
*1085 _070_
*1086 _071_
*1087 _072_
*1088 _073_
*1089 _074_
*1090 _075_
*1091 _076_
*1092 _077_
*1093 _078_
*1094 _079_
*1095 _080_
*1096 _081_
*1097 _082_
*1098 _083_
*1099 _084_
*1100 _085_
*1101 _086_
*1102 _087_
*1103 _088_
*1104 _089_
*1105 _090_
*1106 _091_
*1107 _092_
*1108 _093_
*1109 _094_
*1110 _095_
*1111 _096_
*1112 _097_
*1113 _098_
*1114 _099_
*1115 _100_
*1116 _101_
*1117 _102_
*1118 _103_
*1119 _104_
*1120 _105_
*1121 output1
*1122 output10
*1123 output100
*1124 output101
*1125 output102
*1126 output103
*1127 output104
*1128 output105
*1129 output11
*1130 output12
*1131 output13
*1132 output14
*1133 output15
*1134 output16
*1135 output17
*1136 output18
*1137 output19
*1138 output2
*1139 output20
*1140 output21
*1141 output22
*1142 output23
*1143 output24
*1144 output25
*1145 output26
*1146 output27
*1147 output28
*1148 output29
*1149 output3
*1150 output30
*1151 output31
*1152 output32
*1153 output33
*1154 output34
*1155 output35
*1156 output36
*1157 output37
*1158 output38
*1159 output39
*1160 output4
*1161 output40
*1162 output41
*1163 output42
*1164 output43
*1165 output44
*1166 output45
*1167 output46
*1168 output47
*1169 output48
*1170 output49
*1171 output5
*1172 output50
*1173 output51
*1174 output52
*1175 output53
*1176 output54
*1177 output55
*1178 output56
*1179 output57
*1180 output58
*1181 output59
*1182 output6
*1183 output60
*1184 output61
*1185 output62
*1186 output63
*1187 output64
*1188 output65
*1189 output66
*1190 output67
*1191 output68
*1192 output69
*1193 output7
*1194 output70
*1195 output71
*1196 output72
*1197 output73
*1198 output74
*1199 output75
*1200 output76
*1201 output77
*1202 output78
*1203 output79
*1204 output8
*1205 output80
*1206 output81
*1207 output82
*1208 output83
*1209 output84
*1210 output85
*1211 output86
*1212 output87
*1213 output88
*1214 output89
*1215 output9
*1216 output90
*1217 output91
*1218 output92
*1219 output93
*1220 output94
*1221 output95
*1222 output96
*1223 output97
*1224 output98
*1225 output99

*PORTS
Co O
FrameData[0] I
FrameData[10] I
FrameData[11] I
FrameData[12] I
FrameData[13] I
FrameData[14] I
FrameData[15] I
FrameData[16] I
FrameData[17] I
FrameData[18] I
FrameData[19] I
FrameData[1] I
FrameData[20] I
FrameData[21] I
FrameData[22] I
FrameData[23] I
FrameData[24] I
FrameData[25] I
FrameData[26] I
FrameData[27] I
FrameData[28] I
FrameData[29] I
FrameData[2] I
FrameData[30] I
FrameData[31] I
FrameData[3] I
FrameData[4] I
FrameData[5] I
FrameData[6] I
FrameData[7] I
FrameData[8] I
FrameData[9] I
FrameData_O[0] O
FrameData_O[10] O
FrameData_O[11] O
FrameData_O[12] O
FrameData_O[13] O
FrameData_O[14] O
FrameData_O[15] O
FrameData_O[16] O
FrameData_O[17] O
FrameData_O[18] O
FrameData_O[19] O
FrameData_O[1] O
FrameData_O[20] O
FrameData_O[21] O
FrameData_O[22] O
FrameData_O[23] O
FrameData_O[24] O
FrameData_O[25] O
FrameData_O[26] O
FrameData_O[27] O
FrameData_O[28] O
FrameData_O[29] O
FrameData_O[2] O
FrameData_O[30] O
FrameData_O[31] O
FrameData_O[3] O
FrameData_O[4] O
FrameData_O[5] O
FrameData_O[6] O
FrameData_O[7] O
FrameData_O[8] O
FrameData_O[9] O
FrameStrobe[0] I
FrameStrobe[10] I
FrameStrobe[11] I
FrameStrobe[12] I
FrameStrobe[13] I
FrameStrobe[14] I
FrameStrobe[15] I
FrameStrobe[16] I
FrameStrobe[17] I
FrameStrobe[18] I
FrameStrobe[19] I
FrameStrobe[1] I
FrameStrobe[2] I
FrameStrobe[3] I
FrameStrobe[4] I
FrameStrobe[5] I
FrameStrobe[6] I
FrameStrobe[7] I
FrameStrobe[8] I
FrameStrobe[9] I
FrameStrobe_O[0] O
FrameStrobe_O[10] O
FrameStrobe_O[11] O
FrameStrobe_O[12] O
FrameStrobe_O[13] O
FrameStrobe_O[14] O
FrameStrobe_O[15] O
FrameStrobe_O[16] O
FrameStrobe_O[17] O
FrameStrobe_O[18] O
FrameStrobe_O[19] O
FrameStrobe_O[1] O
FrameStrobe_O[2] O
FrameStrobe_O[3] O
FrameStrobe_O[4] O
FrameStrobe_O[5] O
FrameStrobe_O[6] O
FrameStrobe_O[7] O
FrameStrobe_O[8] O
FrameStrobe_O[9] O
N1BEG[0] O
N1BEG[1] O
N1BEG[2] O
N1BEG[3] O
N2BEG[0] O
N2BEG[1] O
N2BEG[2] O
N2BEG[3] O
N2BEG[4] O
N2BEG[5] O
N2BEG[6] O
N2BEG[7] O
N2BEGb[0] O
N2BEGb[1] O
N2BEGb[2] O
N2BEGb[3] O
N2BEGb[4] O
N2BEGb[5] O
N2BEGb[6] O
N2BEGb[7] O
N4BEG[0] O
N4BEG[10] O
N4BEG[11] O
N4BEG[12] O
N4BEG[13] O
N4BEG[14] O
N4BEG[15] O
N4BEG[1] O
N4BEG[2] O
N4BEG[3] O
N4BEG[4] O
N4BEG[5] O
N4BEG[6] O
N4BEG[7] O
N4BEG[8] O
N4BEG[9] O
NN4BEG[0] O
NN4BEG[10] O
NN4BEG[11] O
NN4BEG[12] O
NN4BEG[13] O
NN4BEG[14] O
NN4BEG[15] O
NN4BEG[1] O
NN4BEG[2] O
NN4BEG[3] O
NN4BEG[4] O
NN4BEG[5] O
NN4BEG[6] O
NN4BEG[7] O
NN4BEG[8] O
NN4BEG[9] O
S1END[0] I
S1END[1] I
S1END[2] I
S1END[3] I
S2END[0] I
S2END[1] I
S2END[2] I
S2END[3] I
S2END[4] I
S2END[5] I
S2END[6] I
S2END[7] I
S2MID[0] I
S2MID[1] I
S2MID[2] I
S2MID[3] I
S2MID[4] I
S2MID[5] I
S2MID[6] I
S2MID[7] I
S4END[0] I
S4END[10] I
S4END[11] I
S4END[12] I
S4END[13] I
S4END[14] I
S4END[15] I
S4END[1] I
S4END[2] I
S4END[3] I
S4END[4] I
S4END[5] I
S4END[6] I
S4END[7] I
S4END[8] I
S4END[9] I
SS4END[0] I
SS4END[10] I
SS4END[11] I
SS4END[12] I
SS4END[13] I
SS4END[14] I
SS4END[15] I
SS4END[1] I
SS4END[2] I
SS4END[3] I
SS4END[4] I
SS4END[5] I
SS4END[6] I
SS4END[7] I
SS4END[8] I
SS4END[9] I
UserCLK I
UserCLKo O

*D_NET *1 0.000979786
*CONN
*P Co O
*I *1015:L_LO O *D sg13g2_tielo
*CAP
1 Co 0.000385875
2 *1015:L_LO 0.000385875
3 Co NN4BEG[15] 0.000208035
*RES
1 *1015:L_LO Co 23.811 
*END

*D_NET *2 0.0133754
*CONN
*P FrameData[0] I
*I *1016:A I *D sg13g2_buf_1
*CAP
1 FrameData[0] 0.000644557
2 *1016:A 9.93186e-05
3 *2:13 0.00557255
4 *2:11 0.00611779
5 *1016:A *1017:A 0
6 *2:11 *13:5 0
7 *2:13 *24:7 0.000941135
8 *2:13 *24:9 0
9 *2:13 *27:7 0
10 *2:13 *27:9 0
11 *2:13 *238:12 0
*RES
1 FrameData[0] *2:11 47.1894 
2 *2:11 *2:13 50.0374 
3 *2:13 *1016:A 40.9682 
*END

*D_NET *3 0.0115555
*CONN
*P FrameData[10] I
*I *1026:A I *D sg13g2_buf_1
*CAP
1 FrameData[10] 0.000687724
2 *1026:A 0
3 *3:9 0.00509002
4 *3:7 0.00577774
5 *3:7 *4:7 0
6 *3:7 *33:5 0
7 *3:9 *4:9 0
8 *3:9 *32:9 0
9 *3:9 *33:5 0
10 *3:9 *66:9 0
11 *3:9 *245:8 0
*RES
1 FrameData[10] *3:7 7.6838 
2 *3:7 *3:9 50.0374 
3 *3:9 *1026:A 40 
*END

*D_NET *4 0.0128352
*CONN
*P FrameData[11] I
*I *1027:A I *D sg13g2_buf_1
*CAP
1 FrameData[11] 0.000689367
2 *1027:A 9.57333e-05
3 *4:9 0.00517794
4 *4:7 0.00577157
5 *4:7 *5:7 0
6 *4:9 *5:9 0
7 *4:9 *66:9 0
8 *4:9 *253:8 0.00110057
9 *4:9 *266:10 0
10 *3:7 *4:7 0
11 *3:9 *4:9 0
*RES
1 FrameData[11] *4:7 7.6838 
2 *4:7 *4:9 53.0038 
3 *4:9 *1027:A 40.9682 
*END

*D_NET *5 0.0105103
*CONN
*P FrameData[12] I
*I *1028:A I *D sg13g2_buf_1
*CAP
1 FrameData[12] 0.000688554
2 *1028:A 0
3 *5:9 0.00456659
4 *5:7 0.00525514
5 *5:7 *6:5 0
6 *5:9 *6:5 0
7 *5:9 *7:9 0
8 *5:9 *264:8 0
9 *5:9 *286:12 0
10 *4:7 *5:7 0
11 *4:9 *5:9 0
*RES
1 FrameData[12] *5:7 7.6838 
2 *5:7 *5:9 47.5654 
3 *5:9 *1028:A 40 
*END

*D_NET *6 0.00965457
*CONN
*P FrameData[13] I
*I *1029:A I *D sg13g2_buf_1
*CAP
1 FrameData[13] 0.0046989
2 *1029:A 0.00012839
3 *6:5 0.00482729
4 *6:5 *7:7 0
5 *6:5 *7:9 0
6 *5:7 *6:5 0
7 *5:9 *6:5 0
*RES
1 FrameData[13] *6:5 51.6133 
2 *6:5 *1029:A 41.1845 
*END

*D_NET *7 0.0104754
*CONN
*P FrameData[14] I
*I *1030:A I *D sg13g2_buf_1
*CAP
1 FrameData[14] 0.000674483
2 *1030:A 0
3 *7:9 0.0045632
4 *7:7 0.00523768
5 *7:7 *8:5 0
6 *7:9 *8:5 0
7 *7:9 *264:8 0
8 *7:9 *265:10 0
9 *5:9 *7:9 0
10 *6:5 *7:7 0
11 *6:5 *7:9 0
*RES
1 FrameData[14] *7:7 7.6838 
2 *7:7 *7:9 47.8126 
3 *7:9 *1030:A 40 
*END

*D_NET *8 0.0112217
*CONN
*P FrameData[15] I
*I *1031:A I *D sg13g2_buf_1
*CAP
1 FrameData[15] 0.00476815
2 *1031:A 8.14798e-05
3 *8:5 0.00484963
4 *8:5 *9:5 0
5 *8:5 *265:10 0.00152249
6 *7:7 *8:5 0
7 *7:9 *8:5 0
*RES
1 FrameData[15] *8:5 53.3437 
2 *8:5 *1031:A 40.7519 
*END

*D_NET *9 0.0121041
*CONN
*P FrameData[16] I
*I *1032:A I *D sg13g2_buf_1
*CAP
1 FrameData[16] 0.00597206
2 *1032:A 7.99614e-05
3 *9:5 0.00605203
4 *9:5 *10:7 0
5 *9:5 *11:13 0
6 *9:5 *265:10 0
7 *8:5 *9:5 0
*RES
1 FrameData[16] *9:5 55.8157 
2 *9:5 *1032:A 40.7519 
*END

*D_NET *10 0.01265
*CONN
*P FrameData[17] I
*I *1033:A I *D sg13g2_buf_1
*CAP
1 FrameData[17] 0.00427098
2 *1033:A 0
3 *10:11 0.000730291
4 *10:7 0.00500127
5 *10:7 *11:11 0
6 *10:7 *11:13 0
7 *10:7 *14:13 0
8 *10:7 *166:15 0
9 *10:11 *11:13 0.00264743
10 *10:11 *166:15 0
11 *9:5 *10:7 0
*RES
1 FrameData[17] *10:7 41.0558 
2 *10:7 *10:11 32.2158 
3 *10:11 *1033:A 20 
*END

*D_NET *11 0.0161652
*CONN
*P FrameData[18] I
*I *1034:A I *D sg13g2_buf_1
*CAP
1 FrameData[18] 0.000478486
2 *1034:A 2.41961e-05
3 *11:13 0.00624273
4 *11:11 0.00669702
5 *11:11 *12:7 0
6 *11:11 *14:13 7.53209e-05
7 *11:13 *166:15 0
8 *11:13 *265:10 0
9 *11:13 *297:8 0
10 *9:5 *11:13 0
11 *10:7 *11:11 0
12 *10:7 *11:13 0
13 *10:11 *11:13 0.00264743
*RES
1 FrameData[18] *11:11 45.0573 
2 *11:11 *11:13 53.9926 
3 *11:13 *1034:A 40.3193 
*END

*D_NET *12 0.0130916
*CONN
*P FrameData[19] I
*I *1035:A I *D sg13g2_buf_1
*CAP
1 FrameData[19] 0.000679035
2 *1035:A 0
3 *12:9 0.00506868
4 *12:7 0.00574772
5 *12:7 *14:11 0
6 *12:7 *14:13 0
7 *12:7 *15:9 0
8 *12:9 *14:13 0
9 *12:9 *162:23 0
10 *12:9 *167:19 0
11 *12:9 *174:15 0
12 *12:9 *200:33 0.00125376
13 *12:9 *308:14 0.00034245
14 *11:11 *12:7 0
*RES
1 FrameData[19] *12:7 7.6838 
2 *12:7 *12:9 47.8126 
3 *12:9 *1035:A 40 
*END

*D_NET *13 0.0139099
*CONN
*P FrameData[1] I
*I *1017:A I *D sg13g2_buf_1
*CAP
1 FrameData[1] 0.00650782
2 *1017:A 0.000222473
3 *13:5 0.00673029
4 *1017:A *1018:A 0
5 *13:5 *24:7 0
6 *13:5 *24:9 0
7 *13:5 *77:9 0
8 *13:5 *79:9 0
9 *13:5 *85:9 0.000449344
10 *13:5 *210:11 0
11 *13:5 *210:13 0
12 *1016:A *1017:A 0
13 *2:11 *13:5 0
*RES
1 FrameData[1] *13:5 57.0517 
2 *13:5 *1017:A 42.0497 
*END

*D_NET *14 0.0153411
*CONN
*P FrameData[20] I
*I *1036:A I *D sg13g2_buf_1
*CAP
1 FrameData[20] 0.000478441
2 *1036:A 5.37682e-05
3 *14:13 0.00477094
4 *14:11 0.00519561
5 *1036:A *308:14 4.77425e-05
6 *14:11 *15:9 0
7 *14:13 *166:15 0.00471923
8 *10:7 *14:13 0
9 *11:11 *14:13 7.53209e-05
10 *12:7 *14:11 0
11 *12:7 *14:13 0
12 *12:9 *14:13 0
*RES
1 FrameData[20] *14:11 45.0264 
2 *14:11 *14:13 50.0374 
3 *14:13 *1036:A 40.5356 
*END

*D_NET *15 0.0196201
*CONN
*P FrameData[21] I
*I *1037:A I *D sg13g2_buf_1
*CAP
1 FrameData[21] 0.000330226
2 *1037:A 0
3 *15:19 5.77206e-05
4 *15:11 0.00289757
5 *15:9 0.00317007
6 *15:9 *16:7 0
7 *15:11 *16:13 0.00543631
8 *15:11 *17:11 0
9 *15:11 *26:13 0.00772821
10 *15:19 *26:19 0
11 *12:7 *15:9 0
12 *14:11 *15:9 0
*RES
1 FrameData[21] *15:9 43.6565 
2 *15:9 *15:11 51.7678 
3 *15:11 *15:19 40.6695 
4 *15:19 *1037:A 40 
*END

*D_NET *16 0.0134725
*CONN
*P FrameData[22] I
*I *1038:A I *D sg13g2_buf_1
*CAP
1 FrameData[22] 0.0023109
2 *1038:A 0
3 *16:17 0
4 *16:13 0.00155239
5 *16:7 0.00386328
6 *16:7 *17:9 0
7 *16:7 *18:7 0
8 *16:7 *177:15 0.000181325
9 *16:7 *279:10 0
10 *16:7 *281:18 0.000128293
11 *16:13 *17:11 0
12 *16:13 *174:27 0
13 *15:9 *16:7 0
14 *15:11 *16:13 0.00543631
*RES
1 FrameData[22] *16:7 49.6125 
2 *16:7 *16:13 45.8221 
3 *16:13 *16:17 40 
4 *16:17 *1038:A 40 
*END

*D_NET *17 0.0144618
*CONN
*P FrameData[23] I
*I *1039:A I *D sg13g2_buf_1
*CAP
1 FrameData[23] 0.000324082
2 *1039:A 0
3 *17:19 0.000221377
4 *17:11 0.00422915
5 *17:9 0.00433185
6 *17:9 *18:7 0
7 *17:11 *18:13 0.00527892
8 *17:11 *19:11 0
9 *17:11 *26:13 0
10 *17:11 *301:22 0
11 *17:19 *19:11 0
12 *17:19 *301:22 7.63864e-05
13 *15:11 *17:11 0
14 *16:7 *17:9 0
15 *16:13 *17:11 0
*RES
1 FrameData[23] *17:9 43.6565 
2 *17:9 *17:11 55.723 
3 *17:11 *17:19 43.1415 
4 *17:19 *1039:A 40 
*END

*D_NET *18 0.0157452
*CONN
*P FrameData[24] I
*I *1040:A I *D sg13g2_buf_1
*CAP
1 FrameData[24] 0.00231231
2 *1040:A 5.96852e-05
3 *18:19 0.000129904
4 *18:13 0.00136136
5 *18:7 0.00360345
6 *1040:A *171:13 0
7 *1040:A *234:14 0
8 *18:7 *19:9 0
9 *18:7 *20:5 0
10 *18:7 *158:17 0.000924411
11 *18:7 *160:37 0
12 *18:7 *279:10 0
13 *18:13 *19:11 0
14 *18:13 *174:27 0
15 *18:13 *301:22 0.00207516
16 *16:7 *18:7 0
17 *17:9 *18:7 0
18 *17:11 *18:13 0.00527892
*RES
1 FrameData[24] *18:7 49.6125 
2 *18:7 *18:13 45.0805 
3 *18:13 *18:19 40.5356 
4 *18:19 *1040:A 40.5356 
*END

*D_NET *19 0.01513
*CONN
*P FrameData[25] I
*I *1041:A I *D sg13g2_buf_1
*CAP
1 FrameData[25] 0.000324082
2 *1041:A 0
3 *19:17 0.000158974
4 *19:11 0.00481281
5 *19:9 0.00497792
6 *19:9 *20:5 0
7 *19:11 *20:15 0
8 *19:11 *21:13 0
9 *19:11 *290:18 0.00485616
10 *19:11 *303:20 0
11 *17:11 *19:11 0
12 *17:19 *19:11 0
13 *18:7 *19:9 0
14 *18:13 *19:11 0
*RES
1 FrameData[25] *19:9 43.6565 
2 *19:9 *19:11 59.431 
3 *19:11 *19:17 41.6171 
4 *19:17 *1041:A 40 
*END

*D_NET *20 0.0160146
*CONN
*P FrameData[26] I
*I *1042:A I *D sg13g2_buf_1
*CAP
1 FrameData[26] 0.0029246
2 *1042:A 0
3 *20:19 0
4 *20:15 0.0013709
5 *20:11 0.00141865
6 *20:5 0.00297235
7 *20:5 *1198:A 7.33225e-05
8 *20:5 *21:11 0
9 *20:5 *22:5 0
10 *20:5 *108:12 0
11 *20:5 *172:25 0.000280964
12 *20:5 *269:8 0
13 *20:5 *272:8 0
14 *20:5 *273:10 0.000601071
15 *20:5 *274:8 0
16 *20:5 *276:10 0
17 *20:5 *278:8 0.001707
18 *20:5 *280:16 0
19 *20:5 *285:12 0.000758571
20 *20:5 *304:10 0
21 *20:5 *305:10 0.000282152
22 *20:11 *172:25 0
23 *20:15 *21:13 0.00362502
24 *20:15 *290:18 0
25 *18:7 *20:5 0
26 *19:9 *20:5 0
27 *19:11 *20:15 0
*RES
1 FrameData[26] *20:5 37.0285 
2 *20:5 *20:11 40.3193 
3 *20:11 *20:15 36.6654 
4 *20:15 *20:19 40 
5 *20:19 *1042:A 20 
*END

*D_NET *21 0.0183377
*CONN
*P FrameData[27] I
*I *1043:A I *D sg13g2_buf_1
*CAP
1 FrameData[27] 0.000430609
2 *1043:A 0
3 *21:21 0.000446912
4 *21:13 0.00433728
5 *21:11 0.00432098
6 *21:11 *22:5 0
7 *21:13 *25:17 0
8 *21:13 *290:18 0
9 *21:13 *298:14 0.00517689
10 *21:13 *299:12 0
11 *21:21 *290:18 0
12 *21:21 *298:14 0
13 *19:11 *21:13 0
14 *20:5 *21:11 0
15 *20:15 *21:13 0.00362502
*RES
1 FrameData[27] *21:11 44.6247 
2 *21:11 *21:13 55.723 
3 *21:13 *21:21 43.6359 
4 *21:21 *1043:A 40 
*END

*D_NET *22 0.0166598
*CONN
*P FrameData[28] I
*I *1044:A I *D sg13g2_buf_1
*CAP
1 FrameData[28] 0.00339919
2 *1044:A 0
3 *22:19 0
4 *22:15 0.000614604
5 *22:11 0.000661816
6 *22:5 0.0034464
7 *22:5 *23:9 0
8 *22:5 *107:8 0
9 *22:5 *110:10 0
10 *22:5 *115:20 0.00044165
11 *22:5 *125:20 0
12 *22:5 *134:10 0.000178621
13 *22:5 *136:10 0
14 *22:5 *137:12 0
15 *22:5 *140:14 0.000126354
16 *22:5 *163:33 0
17 *22:5 *177:25 0
18 *22:5 *269:8 0
19 *22:5 *272:8 0
20 *22:5 *288:8 0
21 *22:5 *289:12 0.000969199
22 *22:15 *25:17 0.00341144
23 *22:15 *299:12 0.00341055
24 *20:5 *22:5 0
25 *21:11 *22:5 0
*RES
1 FrameData[28] *22:5 37.0285 
2 *22:5 *22:11 40.3193 
3 *22:11 *22:15 35.6766 
4 *22:15 *22:19 40 
5 *22:19 *1044:A 20 
*END

*D_NET *23 0.0139327
*CONN
*P FrameData[29] I
*I *1045:A I *D sg13g2_buf_1
*CAP
1 FrameData[29] 0.00347049
2 *1045:A 0
3 *23:23 0
4 *23:19 0.00178257
5 *23:13 0.00178257
6 *23:9 0.00347049
7 *23:9 *25:7 0
8 *23:9 *107:8 0
9 *23:9 *110:10 0
10 *23:9 *114:16 0
11 *23:9 *117:12 0
12 *23:9 *117:20 0.000179444
13 *23:9 *118:10 0.000180317
14 *23:9 *124:22 0.000499471
15 *23:9 *125:20 0
16 *23:9 *173:21 0
17 *23:9 *175:27 0.000497775
18 *23:19 *25:17 0
19 *23:19 *191:15 0.00206961
20 *23:19 *302:22 0
21 *22:5 *23:9 0
*RES
1 FrameData[29] *23:9 33.9591 
2 *23:9 *23:13 40 
3 *23:13 *23:19 41.9905 
4 *23:19 *23:23 40 
5 *23:23 *1045:A 20 
*END

*D_NET *24 0.0203771
*CONN
*P FrameData[2] I
*I *1018:A I *D sg13g2_buf_1
*CAP
1 FrameData[2] 0.000756018
2 *1018:A 0.000158514
3 *24:9 0.00435508
4 *24:7 0.00495258
5 *1018:A *1020:A 0
6 *24:7 *27:7 0
7 *24:9 *77:9 0.00921378
8 *24:9 *223:10 0
9 *24:9 *238:12 0
10 *1017:A *1018:A 0
11 *2:13 *24:7 0.000941135
12 *2:13 *24:9 0
13 *13:5 *24:7 0
14 *13:5 *24:9 0
*RES
1 FrameData[2] *24:7 9.6614 
2 *24:7 *24:9 48.8014 
3 *24:9 *1018:A 41.4008 
*END

*D_NET *25 0.0163126
*CONN
*P FrameData[30] I
*I *1046:A I *D sg13g2_buf_1
*CAP
1 FrameData[30] 0.00312502
2 *1046:A 0
3 *25:21 0
4 *25:17 0.00182199
5 *25:7 0.00494701
6 *25:7 *26:9 0
7 *25:7 *111:18 0.000287758
8 *25:7 *117:20 0.000126354
9 *25:7 *161:9 0
10 *25:7 *173:21 0.000338482
11 *25:17 *174:27 0
12 *25:17 *190:17 0.00202748
13 *25:17 *299:12 0.000227045
14 *25:17 *302:22 0
15 *21:13 *25:17 0
16 *22:15 *25:17 0.00341144
17 *23:9 *25:7 0
18 *23:19 *25:17 0
*RES
1 FrameData[30] *25:7 49.6125 
2 *25:7 *25:17 47.3259 
3 *25:17 *25:21 40 
4 *25:21 *1046:A 40 
*END

*D_NET *26 0.0186567
*CONN
*P FrameData[31] I
*I *1047:A I *D sg13g2_buf_1
*CAP
1 FrameData[31] 0.00242021
2 *1047:A 0.000179735
3 *26:19 0.000702612
4 *26:13 0.0027277
5 *26:11 0.00220482
6 *26:9 0.00242021
7 *1047:A *163:11 0.000273203
8 *1047:A *165:15 0
9 *15:11 *26:13 0.00772821
10 *15:19 *26:19 0
11 *17:11 *26:13 0
12 *25:7 *26:9 0
*RES
1 FrameData[31] *26:9 48.6958 
2 *26:9 *26:11 20 
3 *26:11 *26:13 37.4302 
4 *26:13 *26:19 44.429 
5 *26:19 *1047:A 41.8334 
*END

*D_NET *27 0.010183
*CONN
*P FrameData[3] I
*I *1019:A I *D sg13g2_buf_1
*CAP
1 FrameData[3] 0.00178113
2 *1019:A 0
3 *27:9 0.00331035
4 *27:7 0.00509148
5 *27:7 *28:5 0
6 *27:9 *28:5 0
7 *2:13 *27:7 0
8 *2:13 *27:9 0
9 *24:7 *27:7 0
*RES
1 FrameData[3] *27:7 18.8078 
2 *27:7 *27:9 34.2166 
3 *27:9 *1019:A 40 
*END

*D_NET *28 0.0111162
*CONN
*P FrameData[4] I
*I *1020:A I *D sg13g2_buf_1
*CAP
1 FrameData[4] 0.0054885
2 *1020:A 6.9603e-05
3 *28:5 0.00555811
4 *28:5 *29:7 0
5 *28:5 *29:9 0
6 *28:5 *214:12 0
7 *28:5 *235:12 0
8 *28:5 *238:12 0
9 *28:5 *240:12 0
10 *28:5 *241:8 0
11 *1018:A *1020:A 0
12 *27:7 *28:5 0
13 *27:9 *28:5 0
*RES
1 FrameData[4] *28:5 60.2653 
2 *28:5 *1020:A 40.7519 
*END

*D_NET *29 0.0109605
*CONN
*P FrameData[5] I
*I *1021:A I *D sg13g2_buf_1
*CAP
1 FrameData[5] 0.00167206
2 *1021:A 0
3 *29:9 0.0035568
4 *29:7 0.00522886
5 *29:7 *30:5 0
6 *29:9 *30:5 0
7 *29:9 *214:12 0.000502791
8 *29:9 *262:10 0
9 *28:5 *29:7 0
10 *28:5 *29:9 0
*RES
1 FrameData[5] *29:7 18.8078 
2 *29:7 *29:9 39.4078 
3 *29:9 *1021:A 40 
*END

*D_NET *30 0.0140561
*CONN
*P FrameData[6] I
*I *1022:A I *D sg13g2_buf_1
*CAP
1 FrameData[6] 0.00474993
2 *1022:A 7.51505e-05
3 *30:5 0.00482508
4 *30:5 *31:5 0
5 *30:5 *262:10 0.00440599
6 *29:7 *30:5 0
7 *29:9 *30:5 0
*RES
1 FrameData[6] *30:5 56.8045 
2 *30:5 *1022:A 40.7519 
*END

*D_NET *31 0.0100861
*CONN
*P FrameData[7] I
*I *1023:A I *D sg13g2_buf_1
*CAP
1 FrameData[7] 0.00496791
2 *1023:A 7.51505e-05
3 *31:5 0.00504306
4 *31:5 *32:7 0
5 *31:5 *32:9 0
6 *31:5 *262:10 0
7 *30:5 *31:5 0
*RES
1 FrameData[7] *31:5 52.6021 
2 *31:5 *1023:A 40.7519 
*END

*D_NET *32 0.0112945
*CONN
*P FrameData[8] I
*I *1024:A I *D sg13g2_buf_1
*CAP
1 FrameData[8] 0.00167013
2 *1024:A 0
3 *32:9 0.00397714
4 *32:7 0.00564727
5 *32:7 *33:5 0
6 *32:9 *33:5 0
7 *32:9 *231:14 0
8 *32:9 *243:8 0
9 *32:9 *245:8 0
10 *32:9 *262:10 0
11 *3:9 *32:9 0
12 *31:5 *32:7 0
13 *31:5 *32:9 0
*RES
1 FrameData[8] *32:7 18.8078 
2 *32:7 *32:9 43.6102 
3 *32:9 *1024:A 40 
*END

*D_NET *33 0.0104332
*CONN
*P FrameData[9] I
*I *1025:A I *D sg13g2_buf_1
*CAP
1 FrameData[9] 0.00513923
2 *1025:A 7.73826e-05
3 *33:5 0.00521662
4 *3:7 *33:5 0
5 *3:9 *33:5 0
6 *32:7 *33:5 0
7 *32:9 *33:5 0
*RES
1 FrameData[9] *33:5 54.5797 
2 *33:5 *1025:A 40.7519 
*END

*D_NET *34 0.00170282
*CONN
*P FrameData_O[0] O
*I *1121:X O *D sg13g2_buf_1
*CAP
1 FrameData_O[0] 0.000731769
2 *1121:X 0.000731769
3 FrameData_O[0] FrameData_O[1] 0
4 FrameData_O[0] FrameData_O[2] 7.92265e-05
5 FrameData_O[0] FrameData_O[4] 0
6 FrameData_O[0] *1145:A 0.000112541
7 FrameData_O[0] *1147:A 4.75166e-05
*RES
1 *1121:X FrameData_O[0] 47.9722 
*END

*D_NET *35 0.000414745
*CONN
*P FrameData_O[10] O
*I *1138:X O *D sg13g2_buf_1
*CAP
1 FrameData_O[10] 0.000207372
2 *1138:X 0.000207372
3 FrameData_O[10] FrameData_O[11] 0
4 FrameData_O[10] FrameData_O[9] 0
5 FrameData_O[10] *231:20 0
*RES
1 *1138:X FrameData_O[10] 42.2145 
*END

*D_NET *36 0.000647617
*CONN
*P FrameData_O[11] O
*I *1149:X O *D sg13g2_buf_1
*CAP
1 FrameData_O[11] 0.000323808
2 *1149:X 0.000323808
3 FrameData_O[11] FrameData_O[12] 0
4 FrameData_O[11] FrameData_O[9] 0
5 FrameData_O[11] *253:8 0
6 FrameData_O[10] FrameData_O[11] 0
*RES
1 *1149:X FrameData_O[11] 43.2033 
*END

*D_NET *37 0.000419476
*CONN
*P FrameData_O[12] O
*I *1160:X O *D sg13g2_buf_1
*CAP
1 FrameData_O[12] 0.000209738
2 *1160:X 0.000209738
3 FrameData_O[12] FrameData_O[13] 0
4 FrameData_O[12] *1160:A 0
5 FrameData_O[11] FrameData_O[12] 0
*RES
1 *1160:X FrameData_O[12] 42.2145 
*END

*D_NET *38 0.000654434
*CONN
*P FrameData_O[13] O
*I *1171:X O *D sg13g2_buf_1
*CAP
1 FrameData_O[13] 0.000327217
2 *1171:X 0.000327217
3 FrameData_O[13] FrameData_O[14] 0
4 FrameData_O[13] FrameData_O[15] 0
5 FrameData_O[13] *275:12 0
6 FrameData_O[12] FrameData_O[13] 0
*RES
1 *1171:X FrameData_O[13] 43.4196 
*END

*D_NET *39 0.000297607
*CONN
*P FrameData_O[14] O
*I *1182:X O *D sg13g2_buf_1
*CAP
1 FrameData_O[14] 0.000148804
2 *1182:X 0.000148804
3 FrameData_O[14] FrameData_O[15] 0
4 FrameData_O[13] FrameData_O[14] 0
*RES
1 *1182:X FrameData_O[14] 41.6789 
*END

*D_NET *40 0.000687215
*CONN
*P FrameData_O[15] O
*I *1193:X O *D sg13g2_buf_1
*CAP
1 FrameData_O[15] 0.000343608
2 *1193:X 0.000343608
3 FrameData_O[15] FrameData_O[16] 0
4 FrameData_O[15] FrameData_O[17] 0
5 FrameData_O[15] *1193:A 0
6 FrameData_O[15] *275:12 0
7 FrameData_O[15] *297:8 0
8 FrameData_O[13] FrameData_O[15] 0
9 FrameData_O[14] FrameData_O[15] 0
*RES
1 *1193:X FrameData_O[15] 43.6359 
*END

*D_NET *41 0.000297607
*CONN
*P FrameData_O[16] O
*I *1204:X O *D sg13g2_buf_1
*CAP
1 FrameData_O[16] 0.000148804
2 *1204:X 0.000148804
3 FrameData_O[16] FrameData_O[17] 0
4 FrameData_O[15] FrameData_O[16] 0
*RES
1 *1204:X FrameData_O[16] 41.6789 
*END

*D_NET *42 0.000876057
*CONN
*P FrameData_O[17] O
*I *1215:X O *D sg13g2_buf_1
*CAP
1 FrameData_O[17] 0.000349393
2 *1215:X 0.000349393
3 FrameData_O[17] FrameData_O[18] 0
4 FrameData_O[17] *1122:A 0.000177272
5 FrameData_O[17] *215:10 0
6 FrameData_O[17] *222:12 0
7 FrameData_O[15] FrameData_O[17] 0
8 FrameData_O[16] FrameData_O[17] 0
*RES
1 *1215:X FrameData_O[17] 43.8522 
*END

*D_NET *43 0.000348098
*CONN
*P FrameData_O[18] O
*I *1122:X O *D sg13g2_buf_1
*CAP
1 FrameData_O[18] 0.000174049
2 *1122:X 0.000174049
3 FrameData_O[18] FrameData_O[19] 0
4 FrameData_O[17] FrameData_O[18] 0
*RES
1 *1122:X FrameData_O[18] 41.9982 
*END

*D_NET *44 0.000778821
*CONN
*P FrameData_O[19] O
*I *1129:X O *D sg13g2_buf_1
*CAP
1 FrameData_O[19] 0.000285059
2 *1129:X 0.000285059
3 FrameData_O[19] FrameData_O[20] 0
4 FrameData_O[19] *1129:A 0.000208704
5 FrameData_O[18] FrameData_O[19] 0
*RES
1 *1129:X FrameData_O[19] 43.0797 
*END

*D_NET *45 0.00110997
*CONN
*P FrameData_O[1] O
*I *1130:X O *D sg13g2_buf_1
*CAP
1 FrameData_O[1] 0.000554985
2 *1130:X 0.000554985
3 FrameData_O[1] FrameData_O[2] 0
4 FrameData_O[1] *1067:A 0
5 FrameData_O[1] *238:14 0
6 FrameData_O[0] FrameData_O[1] 0
*RES
1 *1130:X FrameData_O[1] 46.0461 
*END

*D_NET *46 0.000655583
*CONN
*P FrameData_O[20] O
*I *1131:X O *D sg13g2_buf_1
*CAP
1 FrameData_O[20] 0.000320091
2 *1131:X 0.000320091
3 FrameData_O[20] FrameData_O[21] 0
4 FrameData_O[20] FrameData_O[22] 0
5 FrameData_O[20] *1132:A 1.54008e-05
6 FrameData_O[20] *222:12 0
7 FrameData_O[20] *225:8 0
8 FrameData_O[19] FrameData_O[20] 0
*RES
1 *1131:X FrameData_O[20] 43.2033 
*END

*D_NET *47 0.000682101
*CONN
*P FrameData_O[21] O
*I *1132:X O *D sg13g2_buf_1
*CAP
1 FrameData_O[21] 0.000321731
2 *1132:X 0.000321731
3 FrameData_O[21] FrameData_O[22] 0
4 FrameData_O[21] *1129:A 3.8639e-05
5 FrameData_O[21] *1132:A 0
6 FrameData_O[20] FrameData_O[21] 0
*RES
1 *1132:X FrameData_O[21] 43.296 
*END

*D_NET *48 0.000754933
*CONN
*P FrameData_O[22] O
*I *1133:X O *D sg13g2_buf_1
*CAP
1 FrameData_O[22] 0.000321566
2 *1133:X 0.000321566
3 FrameData_O[22] FrameData_O[23] 0
4 FrameData_O[22] *1132:A 0.0001118
5 FrameData_O[22] *1141:A 0
6 FrameData_O[22] *227:8 0
7 FrameData_O[20] FrameData_O[22] 0
8 FrameData_O[21] FrameData_O[22] 0
*RES
1 *1133:X FrameData_O[22] 43.4196 
*END

*D_NET *49 0.000893995
*CONN
*P FrameData_O[23] O
*I *1134:X O *D sg13g2_buf_1
*CAP
1 FrameData_O[23] 0.000318221
2 *1134:X 0.000318221
3 FrameData_O[23] FrameData_O[24] 0
4 FrameData_O[23] FrameData_O[25] 1.54556e-05
5 FrameData_O[23] *1134:A 0.000242098
6 FrameData_O[22] FrameData_O[23] 0
*RES
1 *1134:X FrameData_O[23] 43.6153 
*END

*D_NET *50 0.000863788
*CONN
*P FrameData_O[24] O
*I *1135:X O *D sg13g2_buf_1
*CAP
1 FrameData_O[24] 0.000321865
2 *1135:X 0.000321865
3 FrameData_O[24] FrameData_O[25] 0
4 FrameData_O[24] *1136:A 0.000144843
5 FrameData_O[24] *1141:A 0
6 FrameData_O[24] *229:14 7.52149e-05
7 FrameData_O[23] FrameData_O[24] 0
*RES
1 *1135:X FrameData_O[24] 43.6359 
*END

*D_NET *51 0.000767625
*CONN
*P FrameData_O[25] O
*I *1136:X O *D sg13g2_buf_1
*CAP
1 FrameData_O[25] 0.000376085
2 *1136:X 0.000376085
3 FrameData_O[25] FrameData_O[26] 0
4 FrameData_O[25] *1134:A 0
5 FrameData_O[25] *1136:A 0
6 FrameData_O[23] FrameData_O[25] 1.54556e-05
7 FrameData_O[24] FrameData_O[25] 0
*RES
1 *1136:X FrameData_O[25] 43.8316 
*END

*D_NET *52 0.000903253
*CONN
*P FrameData_O[26] O
*I *1137:X O *D sg13g2_buf_1
*CAP
1 FrameData_O[26] 0.000363371
2 *1137:X 0.000363371
3 FrameData_O[26] FrameData_O[27] 0
4 FrameData_O[26] FrameData_O[29] 0
5 FrameData_O[26] *1136:A 0.000176511
6 FrameData_O[26] *1144:A 0
7 FrameData_O[25] FrameData_O[26] 0
*RES
1 *1137:X FrameData_O[26] 43.8522 
*END

*D_NET *53 0.000734727
*CONN
*P FrameData_O[27] O
*I *1139:X O *D sg13g2_buf_1
*CAP
1 FrameData_O[27] 0.000367363
2 *1139:X 0.000367363
3 FrameData_O[27] FrameData_O[28] 0
4 FrameData_O[27] *228:16 0
5 FrameData_O[26] FrameData_O[27] 0
*RES
1 *1139:X FrameData_O[27] 43.9758 
*END

*D_NET *54 0.00103599
*CONN
*P FrameData_O[28] O
*I *1140:X O *D sg13g2_buf_1
*CAP
1 FrameData_O[28] 0.000477882
2 *1140:X 0.000477882
3 FrameData_O[28] FrameData_O[29] 0
4 FrameData_O[28] FrameData_O[30] 0
5 FrameData_O[28] FrameData_O[31] 8.02267e-05
6 FrameData_O[28] *1140:A 0
7 FrameData_O[28] *1143:A 0
8 FrameData_O[28] *228:16 0
9 FrameData_O[28] *232:10 0
10 FrameData_O[27] FrameData_O[28] 0
*RES
1 *1140:X FrameData_O[28] 45.1809 
*END

*D_NET *55 0.0013544
*CONN
*P FrameData_O[29] O
*I *1141:X O *D sg13g2_buf_1
*CAP
1 FrameData_O[29] 0.000588907
2 *1141:X 0.000588907
3 FrameData_O[29] FrameData_O[30] 0
4 FrameData_O[29] FrameData_O[31] 0
5 FrameData_O[29] *1136:A 0
6 FrameData_O[29] *1137:A 0.000176585
7 FrameData_O[29] *1139:A 0
8 FrameData_O[26] FrameData_O[29] 0
9 FrameData_O[28] FrameData_O[29] 0
*RES
1 *1141:X FrameData_O[29] 46.2418 
*END

*D_NET *56 0.000872387
*CONN
*P FrameData_O[2] O
*I *1142:X O *D sg13g2_buf_1
*CAP
1 FrameData_O[2] 0.00039658
2 *1142:X 0.00039658
3 FrameData_O[2] FrameData_O[3] 0
4 FrameData_O[2] *238:14 0
5 FrameData_O[0] FrameData_O[2] 7.92265e-05
6 FrameData_O[1] FrameData_O[2] 0
*RES
1 *1142:X FrameData_O[2] 44.1921 
*END

*D_NET *57 0.00152907
*CONN
*P FrameData_O[30] O
*I *1143:X O *D sg13g2_buf_1
*CAP
1 FrameData_O[30] 0.000700454
2 *1143:X 0.000700454
3 FrameData_O[30] FrameData_O[31] 0
4 FrameData_O[30] *1140:A 0
5 FrameData_O[30] *230:12 0
6 FrameData_O[30] *233:14 0.00012816
7 FrameData_O[28] FrameData_O[30] 0
8 FrameData_O[29] FrameData_O[30] 0
*RES
1 *1143:X FrameData_O[30] 47.0349 
*END

*D_NET *58 0.00194528
*CONN
*P FrameData_O[31] O
*I *1144:X O *D sg13g2_buf_1
*CAP
1 FrameData_O[31] 0.00084417
2 *1144:X 0.00084417
3 FrameData_O[31] *1137:A 0
4 FrameData_O[31] *1139:A 0.000176714
5 FrameData_O[31] *1140:A 0
6 FrameData_O[31] *1143:A 0
7 FrameData_O[31] *1144:A 0
8 FrameData_O[31] *230:12 0
9 FrameData_O[28] FrameData_O[31] 8.02267e-05
10 FrameData_O[29] FrameData_O[31] 0
11 FrameData_O[30] FrameData_O[31] 0
*RES
1 *1144:X FrameData_O[31] 48.961 
*END

*D_NET *59 0.000689932
*CONN
*P FrameData_O[3] O
*I *1145:X O *D sg13g2_buf_1
*CAP
1 FrameData_O[3] 0.000280634
2 *1145:X 0.000280634
3 FrameData_O[3] FrameData_O[4] 0
4 FrameData_O[3] FrameData_O[5] 0
5 FrameData_O[3] *1145:A 0
6 FrameData_O[3] *239:14 0.000128663
7 FrameData_O[2] FrameData_O[3] 0
*RES
1 *1145:X FrameData_O[3] 43.2033 
*END

*D_NET *60 0.000364197
*CONN
*P FrameData_O[4] O
*I *1146:X O *D sg13g2_buf_1
*CAP
1 FrameData_O[4] 0.000182099
2 *1146:X 0.000182099
3 FrameData_O[4] FrameData_O[5] 0
4 FrameData_O[0] FrameData_O[4] 0
5 FrameData_O[3] FrameData_O[4] 0
*RES
1 *1146:X FrameData_O[4] 41.9982 
*END

*D_NET *61 0.000568033
*CONN
*P FrameData_O[5] O
*I *1147:X O *D sg13g2_buf_1
*CAP
1 FrameData_O[5] 0.000219686
2 *1147:X 0.000219686
3 FrameData_O[5] FrameData_O[6] 0
4 FrameData_O[5] FrameData_O[7] 0
5 FrameData_O[5] *241:8 0.000128662
6 FrameData_O[5] *244:12 0
7 FrameData_O[3] FrameData_O[5] 0
8 FrameData_O[4] FrameData_O[5] 0
*RES
1 *1147:X FrameData_O[5] 42.6677 
*END

*D_NET *62 0.000297607
*CONN
*P FrameData_O[6] O
*I *1148:X O *D sg13g2_buf_1
*CAP
1 FrameData_O[6] 0.000148804
2 *1148:X 0.000148804
3 FrameData_O[6] FrameData_O[7] 0
4 FrameData_O[5] FrameData_O[6] 0
*RES
1 *1148:X FrameData_O[6] 41.6789 
*END

*D_NET *63 0.000568159
*CONN
*P FrameData_O[7] O
*I *1150:X O *D sg13g2_buf_1
*CAP
1 FrameData_O[7] 0.000219439
2 *1150:X 0.000219439
3 FrameData_O[7] FrameData_O[8] 0
4 FrameData_O[7] FrameData_O[9] 0
5 FrameData_O[7] *231:20 0
6 FrameData_O[7] *244:12 0.000129281
7 FrameData_O[5] FrameData_O[7] 0
8 FrameData_O[6] FrameData_O[7] 0
*RES
1 *1150:X FrameData_O[7] 42.6677 
*END

*D_NET *64 0.000297607
*CONN
*P FrameData_O[8] O
*I *1151:X O *D sg13g2_buf_1
*CAP
1 FrameData_O[8] 0.000148804
2 *1151:X 0.000148804
3 FrameData_O[8] FrameData_O[9] 0
4 FrameData_O[7] FrameData_O[8] 0
*RES
1 *1151:X FrameData_O[8] 41.6789 
*END

*D_NET *65 0.000620665
*CONN
*P FrameData_O[9] O
*I *1152:X O *D sg13g2_buf_1
*CAP
1 FrameData_O[9] 0.000245692
2 *1152:X 0.000245692
3 FrameData_O[9] *231:20 0.000129281
4 FrameData_O[10] FrameData_O[9] 0
5 FrameData_O[11] FrameData_O[9] 0
6 FrameData_O[7] FrameData_O[9] 0
7 FrameData_O[8] FrameData_O[9] 0
*RES
1 *1152:X FrameData_O[9] 42.987 
*END

*D_NET *66 0.0238579
*CONN
*P FrameStrobe[0] I
*I *1048:A I *D sg13g2_buf_1
*CAP
1 FrameStrobe[0] 0.000969372
2 *1048:A 0
3 *66:17 0.00147542
4 *66:9 0.00703144
5 *66:7 0.00652539
6 *66:9 *245:8 0
7 *66:9 *266:10 0.00515113
8 *66:17 *199:9 0.000402348
9 *66:17 *200:17 0
10 *66:17 *221:12 0.00230281
11 *3:9 *66:9 0
12 *4:9 *66:9 0
*RES
1 FrameStrobe[0] *66:7 29.2494 
2 *66:7 *66:9 64.6222 
3 *66:9 *66:17 35.7281 
4 *66:17 *1048:A 20 
*END

*D_NET *67 0.00831036
*CONN
*P FrameStrobe[10] I
*I *1058:A I *D sg13g2_buf_1
*CAP
1 FrameStrobe[10] 0.00181178
2 *1058:A 0.000223714
3 *67:9 0.00203549
4 *1058:A *1057:A 0
5 *1058:A *1059:A 0
6 *1058:A *71:13 0
7 *67:9 *68:9 0
8 *67:9 *71:13 0
9 *67:9 *77:9 0
10 *67:9 *85:9 0.00423937
11 *67:9 *223:10 0
*RES
1 FrameStrobe[10] *67:9 41.8978 
2 *67:9 *1058:A 40.5801 
*END

*D_NET *68 0.00534452
*CONN
*P FrameStrobe[11] I
*I *1059:A I *D sg13g2_buf_1
*CAP
1 FrameStrobe[11] 0.0012657
2 *1059:A 0.000301049
3 *68:9 0.00156675
4 *1059:A *71:13 0
5 *68:9 *71:13 0
6 *68:9 *79:9 0
7 *68:9 *85:9 0
8 *68:9 *210:13 0.00221102
9 *1058:A *1059:A 0
10 *67:9 *68:9 0
*RES
1 FrameStrobe[11] *68:9 37.0774 
2 *68:9 *1059:A 42.9149 
*END

*D_NET *69 0.000808741
*CONN
*P FrameStrobe[12] I
*I *1060:A I *D sg13g2_buf_1
*CAP
1 FrameStrobe[12] 0.000404371
2 *1060:A 0.000404371
*RES
1 FrameStrobe[12] *1060:A 23.9243 
*END

*D_NET *70 0.00124459
*CONN
*P FrameStrobe[13] I
*I *1061:A I *D sg13g2_buf_1
*CAP
1 FrameStrobe[13] 0.000478207
2 *1061:A 0
3 *70:15 0.000478207
4 *70:15 *1120:A 0
5 *70:15 *239:14 0.000288173
6 *70:15 *240:12 0
*RES
1 FrameStrobe[13] *70:15 44.7689 
2 *70:15 *1061:A 20 
*END

*D_NET *71 0.00147769
*CONN
*P FrameStrobe[14] I
*I *1062:A I *D sg13g2_buf_1
*CAP
1 FrameStrobe[14] 0.000666348
2 *1062:A 0
3 *71:13 0.000666348
4 *71:13 *1057:A 0.00014499
5 *71:13 *1063:A 0
6 *71:13 *223:10 0
7 *1058:A *71:13 0
8 *1059:A *71:13 0
9 *67:9 *71:13 0
10 *68:9 *71:13 0
*RES
1 FrameStrobe[14] *71:13 46.1491 
2 *71:13 *1062:A 20 
*END

*D_NET *72 0.00720018
*CONN
*P FrameStrobe[15] I
*I *1063:A I *D sg13g2_buf_1
*CAP
1 FrameStrobe[15] 0.00236131
2 *1063:A 0.00236131
3 *1063:A FrameStrobe_O[12] 0
4 *1063:A FrameStrobe_O[14] 0.000208062
5 *1063:A *1065:A 0
6 *1063:A *248:10 0
7 *1063:A *251:12 0.00226951
8 *1063:A *266:16 0
9 *71:13 *1063:A 0
*RES
1 FrameStrobe[15] *1063:A 44.8745 
*END

*D_NET *73 0.00081407
*CONN
*P FrameStrobe[16] I
*I *1064:A I *D sg13g2_buf_1
*CAP
1 FrameStrobe[16] 0.000407035
2 *1064:A 0.000407035
*RES
1 FrameStrobe[16] *1064:A 24.5217 
*END

*D_NET *74 0.00254536
*CONN
*P FrameStrobe[17] I
*I *1065:A I *D sg13g2_buf_1
*CAP
1 FrameStrobe[17] 0.00110741
2 *1065:A 0.000165265
3 *74:9 0.00127268
4 *74:9 *223:10 0
5 *1063:A *1065:A 0
*RES
1 FrameStrobe[17] *74:9 30.9283 
2 *74:9 *1065:A 41.4008 
*END

*D_NET *75 0.00493697
*CONN
*P FrameStrobe[18] I
*I *1066:A I *D sg13g2_buf_1
*CAP
1 FrameStrobe[18] 0.00109332
2 *1066:A 0
3 *75:9 0.00109332
4 *75:9 *239:14 0.00275034
5 *75:9 *240:12 0
*RES
1 FrameStrobe[18] *75:9 35.6869 
2 *75:9 *1066:A 40 
*END

*D_NET *76 0.000622819
*CONN
*P FrameStrobe[19] I
*I *1067:A I *D sg13g2_buf_1
*CAP
1 FrameStrobe[19] 0.000311409
2 *1067:A 0.000311409
3 FrameData_O[1] *1067:A 0
*RES
1 FrameStrobe[19] *1067:A 23.3269 
*END

*D_NET *77 0.0211496
*CONN
*P FrameStrobe[1] I
*I *1049:A I *D sg13g2_buf_1
*CAP
1 FrameStrobe[1] 0.000145851
2 *1049:A 0.000185317
3 *77:9 0.00582207
4 *77:7 0.0057826
5 *1049:A *1051:A 0
6 *1049:A *1120:A 0
7 *77:9 *85:9 0
8 *77:9 *223:10 0
9 *13:5 *77:9 0
10 *24:9 *77:9 0.00921378
11 *67:9 *77:9 0
*RES
1 FrameStrobe[1] *77:7 21.4626 
2 *77:7 *77:9 61.4086 
3 *77:9 *1049:A 41.6171 
*END

*D_NET *78 0.00913656
*CONN
*P FrameStrobe[2] I
*I *1050:A I *D sg13g2_buf_1
*CAP
1 FrameStrobe[2] 1.5007e-05
2 *1050:A 0
3 *78:19 0.000269247
4 *78:13 0.00455328
5 *78:11 0.00428403
6 *78:9 1.5007e-05
*RES
1 FrameStrobe[2] *78:9 40.1648 
2 *78:9 *78:11 20 
3 *78:11 *78:13 57.4534 
4 *78:13 *78:19 42.9149 
5 *78:19 *1050:A 40 
*END

*D_NET *79 0.0240401
*CONN
*P FrameStrobe[3] I
*I *1051:A I *D sg13g2_buf_1
*CAP
1 FrameStrobe[3] 6.18858e-05
2 *1051:A 0.000263293
3 *79:9 0.00384604
4 *79:7 0.00364463
5 *1051:A *1057:A 0.00020894
6 *79:9 *85:9 0.00525445
7 *79:9 *210:13 0.0107608
8 *1049:A *1051:A 0
9 *13:5 *79:9 0
10 *68:9 *79:9 0
*RES
1 FrameStrobe[3] *79:7 20.5974 
2 *79:7 *79:9 53.9926 
3 *79:9 *1051:A 42.4823 
*END

*D_NET *80 0.0179156
*CONN
*P FrameStrobe[4] I
*I *1052:A I *D sg13g2_buf_1
*CAP
1 FrameStrobe[4] 0.000366903
2 *1052:A 0
3 *80:23 0
4 *80:19 0.00098022
5 *80:15 0.00386193
6 *80:13 0.00369468
7 *80:9 0.00117988
8 *80:15 *263:14 0.00783199
*RES
1 FrameStrobe[4] *80:9 43.4093 
2 *80:9 *80:13 29.6202 
3 *80:13 *80:15 47.3182 
4 *80:15 *80:19 31.3506 
5 *80:19 *80:23 40 
6 *80:23 *1052:A 20 
*END

*D_NET *81 0.000786447
*CONN
*P FrameStrobe[5] I
*I *1053:A I *D sg13g2_buf_1
*CAP
1 FrameStrobe[5] 0.000393223
2 *1053:A 0.000393223
*RES
1 FrameStrobe[5] *1053:A 23.8213 
*END

*D_NET *82 0.000786447
*CONN
*P FrameStrobe[6] I
*I *1054:A I *D sg13g2_buf_1
*CAP
1 FrameStrobe[6] 0.000393223
2 *1054:A 0.000393223
*RES
1 FrameStrobe[6] *1054:A 23.8213 
*END

*D_NET *83 0.00198393
*CONN
*P FrameStrobe[7] I
*I *1055:A I *D sg13g2_buf_1
*CAP
1 FrameStrobe[7] 0.000991963
2 *1055:A 0.000991963
*RES
1 FrameStrobe[7] *1055:A 29.5481 
*END

*D_NET *84 0.00173625
*CONN
*P FrameStrobe[8] I
*I *1056:A I *D sg13g2_buf_1
*CAP
1 FrameStrobe[8] 0.000868125
2 *1056:A 0.000868125
*RES
1 FrameStrobe[8] *1056:A 28.4151 
*END

*D_NET *85 0.0130649
*CONN
*P FrameStrobe[9] I
*I *1057:A I *D sg13g2_buf_1
*CAP
1 FrameStrobe[9] 0.0011157
2 *1057:A 0.000268193
3 *85:9 0.0013839
4 *1051:A *1057:A 0.00020894
5 *1058:A *1057:A 0
6 *13:5 *85:9 0.000449344
7 *67:9 *85:9 0.00423937
8 *68:9 *85:9 0
9 *71:13 *1057:A 0.00014499
10 *77:9 *85:9 0
11 *79:9 *85:9 0.00525445
*RES
1 FrameStrobe[9] *85:9 45.3895 
2 *85:9 *1057:A 42.7192 
*END

*D_NET *86 0.00104416
*CONN
*P FrameStrobe_O[0] O
*I *1153:X O *D sg13g2_buf_1
*CAP
1 FrameStrobe_O[0] 0.00034098
2 *1153:X 0.000181101
3 *86:8 0.000522081
4 FrameStrobe_O[0] FrameStrobe_O[1] 0
5 FrameStrobe_O[0] UserCLKo 0
6 *86:8 *98:10 0
7 *86:8 *233:14 0
8 *86:8 *246:8 0
9 *86:8 *261:8 0
*RES
1 *1153:X *86:8 41.8334 
2 *86:8 FrameStrobe_O[0] 22.7604 
*END

*D_NET *87 0.00132705
*CONN
*P FrameStrobe_O[10] O
*I *1154:X O *D sg13g2_buf_1
*CAP
1 FrameStrobe_O[10] 0.000663525
2 *1154:X 0.000663525
3 FrameStrobe_O[10] FrameStrobe_O[11] 0
4 FrameStrobe_O[10] FrameStrobe_O[9] 0
5 FrameStrobe_O[10] *248:10 0
*RES
1 *1154:X FrameStrobe_O[10] 25.5517 
*END

*D_NET *88 0.00227019
*CONN
*P FrameStrobe_O[11] O
*I *1155:X O *D sg13g2_buf_1
*CAP
1 FrameStrobe_O[11] 0.000451929
2 *1155:X 0.000231646
3 *88:8 0.000683575
4 FrameStrobe_O[11] FrameStrobe_O[12] 0
5 FrameStrobe_O[11] *104:10 0.000111827
6 FrameStrobe_O[11] *248:10 0
7 *88:8 *104:10 0
8 *88:8 *237:12 0.000662218
9 *88:8 *248:16 0
10 *88:8 *252:8 0.000128991
11 FrameStrobe_O[10] FrameStrobe_O[11] 0
*RES
1 *1155:X *88:8 43.0694 
2 *88:8 FrameStrobe_O[11] 23.8419 
*END

*D_NET *89 0.00149898
*CONN
*P FrameStrobe_O[12] O
*I *1156:X O *D sg13g2_buf_1
*CAP
1 FrameStrobe_O[12] 0.000589543
2 *1156:X 0.000589543
3 FrameStrobe_O[12] FrameStrobe_O[13] 0
4 FrameStrobe_O[12] FrameStrobe_O[14] 0
5 FrameStrobe_O[12] *104:10 0.000111827
6 FrameStrobe_O[12] *266:16 0.000208062
7 FrameStrobe_O[11] FrameStrobe_O[12] 0
8 *1063:A FrameStrobe_O[12] 0
*RES
1 *1156:X FrameStrobe_O[12] 25.6547 
*END

*D_NET *90 0.00226157
*CONN
*P FrameStrobe_O[13] O
*I *1157:X O *D sg13g2_buf_1
*CAP
1 FrameStrobe_O[13] 0.000232295
2 *1157:X 0.000436372
3 *90:12 0.000668667
4 FrameStrobe_O[13] FrameStrobe_O[14] 0
5 *90:12 FrameStrobe_O[16] 0
6 *90:12 FrameStrobe_O[18] 0.000175693
7 *90:12 FrameStrobe_O[19] 0.000143351
8 *90:12 *92:10 0
9 *90:12 *95:12 0
10 *90:12 *233:14 0.000605197
11 *90:12 *248:16 0
12 FrameStrobe_O[12] FrameStrobe_O[13] 0
*RES
1 *1157:X *90:12 45.0058 
2 *90:12 FrameStrobe_O[13] 21.8952 
*END

*D_NET *91 0.00142674
*CONN
*P FrameStrobe_O[14] O
*I *1158:X O *D sg13g2_buf_1
*CAP
1 FrameStrobe_O[14] 0.000585382
2 *1158:X 0.000585382
3 FrameStrobe_O[14] FrameStrobe_O[15] 0
4 FrameStrobe_O[14] FrameStrobe_O[16] 4.79124e-05
5 FrameStrobe_O[12] FrameStrobe_O[14] 0
6 FrameStrobe_O[13] FrameStrobe_O[14] 0
7 *1063:A FrameStrobe_O[14] 0.000208062
*RES
1 *1158:X FrameStrobe_O[14] 25.3731 
*END

*D_NET *92 0.00173169
*CONN
*P FrameStrobe_O[15] O
*I *1159:X O *D sg13g2_buf_1
*CAP
1 FrameStrobe_O[15] 0.000292237
2 *1159:X 0.00035018
3 *92:10 0.000642417
4 FrameStrobe_O[15] FrameStrobe_O[16] 0
5 *92:10 *94:10 0.000446851
6 *92:10 *248:16 0
7 FrameStrobe_O[14] FrameStrobe_O[15] 0
8 *90:12 *92:10 0
*RES
1 *1159:X *92:10 43.605 
2 *92:10 FrameStrobe_O[15] 22.3278 
*END

*D_NET *93 0.00133418
*CONN
*P FrameStrobe_O[16] O
*I *1161:X O *D sg13g2_buf_1
*CAP
1 FrameStrobe_O[16] 0.000635407
2 *1161:X 0.000635407
3 FrameStrobe_O[16] FrameStrobe_O[17] 0
4 FrameStrobe_O[16] FrameStrobe_O[18] 1.54556e-05
5 FrameStrobe_O[16] *95:12 0
6 FrameStrobe_O[14] FrameStrobe_O[16] 4.79124e-05
7 FrameStrobe_O[15] FrameStrobe_O[16] 0
8 *90:12 FrameStrobe_O[16] 0
*RES
1 *1161:X FrameStrobe_O[16] 25.5579 
*END

*D_NET *94 0.00201257
*CONN
*P FrameStrobe_O[17] O
*I *1162:X O *D sg13g2_buf_1
*CAP
1 FrameStrobe_O[17] 0.000328101
2 *1162:X 0.000230694
3 *94:10 0.000558795
4 FrameStrobe_O[17] FrameStrobe_O[18] 0
5 *94:10 *96:8 0.000448125
6 *94:10 *248:16 0
7 FrameStrobe_O[16] FrameStrobe_O[17] 0
8 *92:10 *94:10 0.000446851
*RES
1 *1162:X *94:10 43.3887 
2 *94:10 FrameStrobe_O[17] 22.5441 
*END

*D_NET *95 0.0020066
*CONN
*P FrameStrobe_O[18] O
*I *1163:X O *D sg13g2_buf_1
*CAP
1 FrameStrobe_O[18] 0.000344648
2 *1163:X 0.000367971
3 *95:12 0.000712619
4 FrameStrobe_O[18] FrameStrobe_O[19] 0
5 *95:12 *96:8 0.000182216
6 *95:12 *250:18 0.000208001
7 FrameStrobe_O[16] FrameStrobe_O[18] 1.54556e-05
8 FrameStrobe_O[16] *95:12 0
9 FrameStrobe_O[17] FrameStrobe_O[18] 0
10 *90:12 FrameStrobe_O[18] 0.000175693
11 *90:12 *95:12 0
*RES
1 *1163:X *95:12 43.7698 
2 *95:12 FrameStrobe_O[18] 22.9767 
*END

*D_NET *96 0.00178636
*CONN
*P FrameStrobe_O[19] O
*I *1164:X O *D sg13g2_buf_1
*CAP
1 FrameStrobe_O[19] 0.000295815
2 *1164:X 0.000210517
3 *96:8 0.000506332
4 FrameStrobe_O[18] FrameStrobe_O[19] 0
5 *90:12 FrameStrobe_O[19] 0.000143351
6 *94:10 *96:8 0.000448125
7 *95:12 *96:8 0.000182216
*RES
1 *1164:X *96:8 43.0694 
2 *96:8 FrameStrobe_O[19] 22.7604 
*END

*D_NET *97 0.0011426
*CONN
*P FrameStrobe_O[1] O
*I *1165:X O *D sg13g2_buf_1
*CAP
1 FrameStrobe_O[1] 0.000571299
2 *1165:X 0.000571299
3 FrameStrobe_O[1] FrameStrobe_O[2] 0
4 FrameStrobe_O[1] FrameStrobe_O[3] 0
5 FrameStrobe_O[1] *199:9 0
6 FrameStrobe_O[1] *221:12 0
7 FrameStrobe_O[0] FrameStrobe_O[1] 0
*RES
1 *1165:X FrameStrobe_O[1] 25.0573 
*END

*D_NET *98 0.00159739
*CONN
*P FrameStrobe_O[2] O
*I *1166:X O *D sg13g2_buf_1
*CAP
1 FrameStrobe_O[2] 0.000232295
2 *1166:X 0.000226169
3 *98:10 0.000458464
4 FrameStrobe_O[2] FrameStrobe_O[3] 0
5 *98:10 FrameStrobe_O[5] 0.000143571
6 *98:10 FrameStrobe_O[6] 0.000143571
7 *98:10 *233:14 0.00039332
8 *98:10 *261:8 0
9 FrameStrobe_O[1] FrameStrobe_O[2] 0
10 *86:8 *98:10 0
*RES
1 *1166:X *98:10 42.8016 
2 *98:10 FrameStrobe_O[2] 21.8952 
*END

*D_NET *99 0.00113537
*CONN
*P FrameStrobe_O[3] O
*I *1167:X O *D sg13g2_buf_1
*CAP
1 FrameStrobe_O[3] 0.000567686
2 *1167:X 0.000567686
3 FrameStrobe_O[3] FrameStrobe_O[4] 0
4 FrameStrobe_O[3] FrameStrobe_O[5] 0
5 FrameStrobe_O[3] *1153:A 0
6 FrameStrobe_O[1] FrameStrobe_O[3] 0
7 FrameStrobe_O[2] FrameStrobe_O[3] 0
*RES
1 *1167:X FrameStrobe_O[3] 25.0573 
*END

*D_NET *100 0.00121137
*CONN
*P FrameStrobe_O[4] O
*I *1168:X O *D sg13g2_buf_1
*CAP
1 FrameStrobe_O[4] 0.000292237
2 *1168:X 0.000273837
3 *100:10 0.000566074
4 FrameStrobe_O[4] FrameStrobe_O[5] 0
5 *100:10 FrameStrobe_O[7] 7.9225e-05
6 *100:10 *261:8 0
7 FrameStrobe_O[3] FrameStrobe_O[4] 0
*RES
1 *1168:X *100:10 42.369 
2 *100:10 FrameStrobe_O[4] 22.3278 
*END

*D_NET *101 0.00136273
*CONN
*P FrameStrobe_O[5] O
*I *1169:X O *D sg13g2_buf_1
*CAP
1 FrameStrobe_O[5] 0.000569526
2 *1169:X 0.000569526
3 FrameStrobe_O[5] FrameStrobe_O[6] 0
4 FrameStrobe_O[5] FrameStrobe_O[7] 0
5 FrameStrobe_O[5] *1153:A 8.01118e-05
6 FrameStrobe_O[5] *259:14 0
7 FrameStrobe_O[3] FrameStrobe_O[5] 0
8 FrameStrobe_O[4] FrameStrobe_O[5] 0
9 *98:10 FrameStrobe_O[5] 0.000143571
*RES
1 *1169:X FrameStrobe_O[5] 25.0573 
*END

*D_NET *102 0.00120082
*CONN
*P FrameStrobe_O[6] O
*I *1170:X O *D sg13g2_buf_1
*CAP
1 FrameStrobe_O[6] 0.00032861
2 *1170:X 0.000200017
3 *102:8 0.000528626
4 FrameStrobe_O[6] FrameStrobe_O[7] 0
5 *102:8 *104:10 0
6 *102:8 *261:8 0
7 FrameStrobe_O[5] FrameStrobe_O[6] 0
8 *98:10 FrameStrobe_O[6] 0.000143571
*RES
1 *1170:X *102:8 41.8334 
2 *102:8 FrameStrobe_O[6] 22.7604 
*END

*D_NET *103 0.00126347
*CONN
*P FrameStrobe_O[7] O
*I *1172:X O *D sg13g2_buf_1
*CAP
1 FrameStrobe_O[7] 0.000592121
2 *1172:X 0.000592121
3 FrameStrobe_O[7] FrameStrobe_O[8] 0
4 FrameStrobe_O[7] FrameStrobe_O[9] 0
5 FrameStrobe_O[7] *1168:A 0
6 FrameStrobe_O[7] *259:14 0
7 FrameStrobe_O[5] FrameStrobe_O[7] 0
8 FrameStrobe_O[6] FrameStrobe_O[7] 0
9 *100:10 FrameStrobe_O[7] 7.9225e-05
*RES
1 *1172:X FrameStrobe_O[7] 25.0573 
*END

*D_NET *104 0.00132389
*CONN
*P FrameStrobe_O[8] O
*I *1173:X O *D sg13g2_buf_1
*CAP
1 FrameStrobe_O[8] 0.00026062
2 *1173:X 0.000289499
3 *104:10 0.000550119
4 FrameStrobe_O[8] FrameStrobe_O[9] 0
5 *104:10 *237:12 0
6 FrameStrobe_O[11] *104:10 0.000111827
7 FrameStrobe_O[12] *104:10 0.000111827
8 FrameStrobe_O[7] FrameStrobe_O[8] 0
9 *88:8 *104:10 0
10 *102:8 *104:10 0
*RES
1 *1173:X *104:10 42.5853 
2 *104:10 FrameStrobe_O[8] 22.1115 
*END

*D_NET *105 0.00125778
*CONN
*P FrameStrobe_O[9] O
*I *1174:X O *D sg13g2_buf_1
*CAP
1 FrameStrobe_O[9] 0.000605004
2 *1174:X 0.000605004
3 FrameStrobe_O[9] *1168:A 4.77702e-05
4 FrameStrobe_O[10] FrameStrobe_O[9] 0
5 FrameStrobe_O[7] FrameStrobe_O[9] 0
6 FrameStrobe_O[8] FrameStrobe_O[9] 0
*RES
1 *1174:X FrameStrobe_O[9] 25.0573 
*END

*D_NET *106 0.00207401
*CONN
*P N1BEG[0] O
*I *1175:X O *D sg13g2_buf_1
*CAP
1 N1BEG[0] 0.00080425
2 *1175:X 0.00080425
3 N1BEG[0] N1BEG[1] 0
4 N1BEG[0] N1BEG[2] 0
5 N1BEG[0] *1175:A 1.54008e-05
6 N1BEG[0] *1178:A 0.000241167
7 N1BEG[0] *159:41 0.000208941
*RES
1 *1175:X N1BEG[0] 27.9104 
*END

*D_NET *107 0.00192441
*CONN
*P N1BEG[1] O
*I *1176:X O *D sg13g2_buf_1
*CAP
1 N1BEG[1] 0.00035136
2 *1176:X 0.000333807
3 *107:8 0.000685167
4 N1BEG[1] N1BEG[2] 0
5 *107:8 *110:10 0.000554077
6 N1BEG[0] N1BEG[1] 0
7 *22:5 *107:8 0
8 *23:9 *107:8 0
*RES
1 *1176:X *107:8 43.5638 
2 *107:8 N1BEG[1] 22.7604 
*END

*D_NET *108 0.00212693
*CONN
*P N1BEG[2] O
*I *1177:X O *D sg13g2_buf_1
*CAP
1 N1BEG[2] 0.000494511
2 *1177:X 0.00018972
3 *108:12 0.000684231
4 N1BEG[2] N1BEG[3] 0
5 N1BEG[2] *1178:A 4.75166e-05
6 N1BEG[2] *111:18 0.000273537
7 *108:12 *159:41 1.54285e-05
8 *108:12 *160:37 8.01575e-05
9 *108:12 *272:8 0.000341834
10 *108:12 *276:10 0
11 N1BEG[0] N1BEG[2] 0
12 N1BEG[1] N1BEG[2] 0
13 *20:5 *108:12 0
*RES
1 *1177:X *108:12 42.4411 
2 *108:12 N1BEG[2] 24.5114 
*END

*D_NET *109 0.00234619
*CONN
*P N1BEG[3] O
*I *1178:X O *D sg13g2_buf_1
*CAP
1 N1BEG[3] 0.000812106
2 *1178:X 0.000812106
3 N1BEG[3] N2BEG[0] 0
4 N1BEG[3] N2BEG[2] 0
5 N1BEG[3] *1181:A 0.000143306
6 N1BEG[3] *1185:A 1.54008e-05
7 N1BEG[3] *111:18 0.000450646
8 N1BEG[3] *113:12 0
9 N1BEG[3] *177:25 0.000112622
10 N1BEG[2] N1BEG[3] 0
*RES
1 *1178:X N1BEG[3] 27.9104 
*END

*D_NET *110 0.00205966
*CONN
*P N2BEG[0] O
*I *1179:X O *D sg13g2_buf_1
*CAP
1 N2BEG[0] 0.000297537
2 *1179:X 0.000383241
3 *110:10 0.000680778
4 N2BEG[0] N2BEG[1] 0
5 N2BEG[0] N2BEG[2] 0.000144027
6 *110:10 *1068:A 0
7 N1BEG[3] N2BEG[0] 0
8 *22:5 *110:10 0
9 *23:9 *110:10 0
10 *107:8 *110:10 0.000554077
*RES
1 *1179:X *110:10 44.3775 
2 *110:10 N2BEG[0] 22.5441 
*END

*D_NET *111 0.0030053
*CONN
*P N2BEG[1] O
*I *1180:X O *D sg13g2_buf_1
*CAP
1 N2BEG[1] 0.000152876
2 *1180:X 0.000137529
3 *111:18 0.000655407
4 *111:10 0.000640061
5 N2BEG[1] N2BEG[2] 0
6 *111:10 *115:12 0
7 *111:10 *159:41 0
8 *111:10 *273:10 0.000231238
9 *111:18 *113:12 0.00017625
10 N1BEG[2] *111:18 0.000273537
11 N1BEG[3] *111:18 0.000450646
12 N2BEG[0] N2BEG[1] 0
13 *25:7 *111:18 0.000287758
*RES
1 *1180:X *111:10 41.6274 
2 *111:10 *111:18 45.5517 
3 *111:18 N2BEG[1] 21.2463 
*END

*D_NET *112 0.0025669
*CONN
*P N2BEG[2] O
*I *1181:X O *D sg13g2_buf_1
*CAP
1 N2BEG[2] 0.000804671
2 *1181:X 0.000804671
3 N2BEG[2] N2BEG[3] 0
4 N2BEG[2] *1073:A 0.000177482
5 N2BEG[2] *1181:A 0.000143351
6 N2BEG[2] *1184:A 0
7 N2BEG[2] *1185:A 0.00010226
8 N2BEG[2] *115:12 6.99456e-05
9 N2BEG[2] *117:12 0
10 N2BEG[2] *177:25 0.00011243
11 N2BEG[2] *273:10 0.000208063
12 N2BEG[2] *280:16 0
13 N1BEG[3] N2BEG[2] 0
14 N2BEG[0] N2BEG[2] 0.000144027
15 N2BEG[1] N2BEG[2] 0
*RES
1 *1181:X N2BEG[2] 28.4048 
*END

*D_NET *113 0.0034944
*CONN
*P N2BEG[3] O
*I *1183:X O *D sg13g2_buf_1
*CAP
1 N2BEG[3] 0.000453193
2 *1183:X 0.000349814
3 *113:12 0.000803006
4 N2BEG[3] N2BEG[4] 0
5 N2BEG[3] *1073:A 0.000439191
6 N2BEG[3] *1076:A 0.000305088
7 N2BEG[3] *1184:A 7.92542e-05
8 N2BEG[3] *117:12 0
9 N2BEG[3] *125:20 0
10 *113:12 *1178:A 0
11 *113:12 *1183:A 0.000112198
12 *113:12 *177:25 0.000282464
13 *113:12 *272:8 0
14 *113:12 *276:10 0.00049394
15 N1BEG[3] *113:12 0
16 N2BEG[2] N2BEG[3] 0
17 *111:18 *113:12 0.00017625
*RES
1 *1183:X *113:12 44.2951 
2 *113:12 N2BEG[3] 24.7277 
*END

*D_NET *114 0.00217013
*CONN
*P N2BEG[4] O
*I *1184:X O *D sg13g2_buf_1
*CAP
1 N2BEG[4] 0.000273162
2 *1184:X 0.000122944
3 *114:16 0.00069641
4 *114:8 0.000546192
5 N2BEG[4] N2BEG[5] 0
6 N2BEG[4] *1076:A 0.000176252
7 *114:8 *1184:A 0.000175693
8 *114:8 *115:12 0
9 *114:16 *115:20 0
10 *114:16 *117:12 0.000179477
11 *114:16 *158:23 0
12 N2BEG[3] N2BEG[4] 0
13 *23:9 *114:16 0
*RES
1 *1184:X *114:8 41.1845 
2 *114:8 *114:16 44.1921 
3 *114:16 N2BEG[4] 22.3278 
*END

*D_NET *115 0.00255436
*CONN
*P N2BEG[5] O
*I *1185:X O *D sg13g2_buf_1
*CAP
1 N2BEG[5] 0.000354211
2 *1185:X 8.75349e-05
3 *115:20 0.0008004
4 *115:12 0.000533725
5 N2BEG[5] N2BEG[6] 0
6 N2BEG[5] *117:20 0.000144027
7 N2BEG[5] *125:20 4.77425e-05
8 *115:20 *117:12 0
9 *115:20 *125:20 7.51285e-05
10 *115:20 *158:23 0
11 N2BEG[2] *115:12 6.99456e-05
12 N2BEG[4] N2BEG[5] 0
13 *22:5 *115:20 0.00044165
14 *111:10 *115:12 0
15 *114:8 *115:12 0
16 *114:16 *115:20 0
*RES
1 *1185:X *115:12 40.9888 
2 *115:12 *115:20 44.5629 
3 *115:20 N2BEG[5] 22.9767 
*END

*D_NET *116 0.00255964
*CONN
*P N2BEG[6] O
*I *1186:X O *D sg13g2_buf_1
*CAP
1 N2BEG[6] 0.000674397
2 *1186:X 0.000156507
3 *116:10 0.000830904
4 N2BEG[6] N2BEG[7] 0
5 N2BEG[6] *117:20 0.000144027
6 N2BEG[6] *118:10 0.000209384
7 N2BEG[6] *125:20 0
8 N2BEG[6] *177:25 0.000272718
9 *116:10 *159:41 0.000128355
10 *116:10 *177:25 0.000143351
11 N2BEG[5] N2BEG[6] 0
*RES
1 *1186:X *116:10 41.5656 
2 *116:10 N2BEG[6] 26.2418 
*END

*D_NET *117 0.00284531
*CONN
*P N2BEG[7] O
*I *1187:X O *D sg13g2_buf_1
*CAP
1 N2BEG[7] 0.000212528
2 *1187:X 0.000527004
3 *117:20 0.000349329
4 *117:12 0.000663806
5 N2BEG[7] N2BEGb[0] 0
6 *117:12 *1073:A 4.77699e-05
7 *117:12 *125:20 0.00012816
8 *117:12 *273:10 0.000143379
9 *117:12 *280:16 0
10 *117:20 *173:21 0
11 N2BEG[2] *117:12 0
12 N2BEG[3] *117:12 0
13 N2BEG[5] *117:20 0.000144027
14 N2BEG[6] N2BEG[7] 0
15 N2BEG[6] *117:20 0.000144027
16 *23:9 *117:12 0
17 *23:9 *117:20 0.000179444
18 *25:7 *117:20 0.000126354
19 *114:16 *117:12 0.000179477
20 *115:20 *117:12 0
*RES
1 *1187:X *117:12 44.944 
2 *117:12 *117:20 41.8128 
3 *117:20 N2BEG[7] 21.6789 
*END

*D_NET *118 0.00236404
*CONN
*P N2BEGb[0] O
*I *1188:X O *D sg13g2_buf_1
*CAP
1 N2BEGb[0] 0.000260241
2 *1188:X 0.000615123
3 *118:10 0.000875365
4 N2BEGb[0] N2BEGb[1] 0
5 *118:10 *120:16 0
6 *118:10 *122:10 0.000112381
7 *118:10 *125:20 0
8 *118:10 *174:27 0
9 *118:10 *276:10 0.00011123
10 N2BEG[6] *118:10 0.000209384
11 N2BEG[7] N2BEGb[0] 0
12 *23:9 *118:10 0.000180317
*RES
1 *1188:X *118:10 45.4899 
2 *118:10 N2BEGb[0] 22.1115 
*END

*D_NET *119 0.00300286
*CONN
*P N2BEGb[1] O
*I *1189:X O *D sg13g2_buf_1
*CAP
1 N2BEGb[1] 0.00109868
2 *1189:X 0.00109868
3 N2BEGb[1] N2BEGb[2] 0
4 N2BEGb[1] *1191:A 1.54008e-05
5 N2BEGb[1] *1195:A 0.000208035
6 N2BEGb[1] *120:16 8.02269e-05
7 N2BEGb[1] *124:10 4.75151e-05
8 N2BEGb[1] *124:22 0.000273421
9 N2BEGb[1] *174:27 0.000180901
10 N2BEGb[0] N2BEGb[1] 0
*RES
1 *1189:X N2BEGb[1] 29.8571 
*END

*D_NET *120 0.00316976
*CONN
*P N2BEGb[2] O
*I *1190:X O *D sg13g2_buf_1
*CAP
1 N2BEGb[2] 0.00030943
2 *1190:X 0.000783152
3 *120:16 0.00109258
4 N2BEGb[2] N2BEGb[3] 0
5 N2BEGb[2] *124:22 0.000143351
6 *120:16 *1188:A 0
7 *120:16 *1195:A 0.000208255
8 *120:16 *122:10 0.000112426
9 *120:16 *125:20 0.000281366
10 *120:16 *174:27 4.77425e-05
11 *120:16 *175:27 0
12 *120:16 *177:25 0
13 *120:16 *276:10 0.00011123
14 N2BEGb[1] N2BEGb[2] 0
15 N2BEGb[1] *120:16 8.02269e-05
16 *118:10 *120:16 0
*RES
1 *1190:X *120:16 47.4366 
2 *120:16 N2BEGb[2] 22.5441 
*END

*D_NET *121 0.00237047
*CONN
*P N2BEGb[3] O
*I *1191:X O *D sg13g2_buf_1
*CAP
1 N2BEGb[3] 0.000764045
2 *1191:X 0.000764045
3 N2BEGb[3] N2BEGb[4] 0.000111682
4 N2BEGb[3] *1189:A 0.000143379
5 N2BEGb[3] *124:22 0.000144027
6 N2BEGb[3] *166:25 0.000143379
7 N2BEGb[3] *166:31 7.50789e-05
8 N2BEGb[3] *168:33 0.000112418
9 N2BEGb[3] *302:38 0.000112418
10 N2BEGb[2] N2BEGb[3] 0
*RES
1 *1191:X N2BEGb[3] 27.107 
*END

*D_NET *122 0.00316145
*CONN
*P N2BEGb[4] O
*I *1192:X O *D sg13g2_buf_1
*CAP
1 N2BEGb[4] 0.000707711
2 *1192:X 0.000258812
3 *122:10 0.000966523
4 N2BEGb[4] N2BEGb[5] 4.77425e-05
5 N2BEGb[4] *168:33 0.000112198
6 N2BEGb[4] *302:38 0.0001122
7 *122:10 *159:41 0
8 *122:10 *166:25 0.000126358
9 *122:10 *280:16 0.000493412
10 N2BEGb[3] N2BEGb[4] 0.000111682
11 *118:10 *122:10 0.000112381
12 *120:16 *122:10 0.000112426
*RES
1 *1192:X *122:10 43.0797 
2 *122:10 N2BEGb[4] 26.0255 
*END

*D_NET *123 0.00220827
*CONN
*P N2BEGb[5] O
*I *1194:X O *D sg13g2_buf_1
*CAP
1 N2BEGb[5] 0.00086425
2 *1194:X 0.00086425
3 N2BEGb[5] N2BEGb[6] 0
4 N2BEGb[5] *1194:A 0
5 N2BEGb[5] *1211:A 0.00014391
6 N2BEGb[5] *166:25 0
7 N2BEGb[5] *168:25 0.000240377
8 N2BEGb[5] *285:12 4.77425e-05
9 N2BEGb[5] *290:26 0
10 N2BEGb[4] N2BEGb[5] 4.77425e-05
*RES
1 *1194:X N2BEGb[5] 27.9104 
*END

*D_NET *124 0.00342075
*CONN
*P N2BEGb[6] O
*I *1195:X O *D sg13g2_buf_1
*CAP
1 N2BEGb[6] 0.000217027
2 *1195:X 6.91303e-05
3 *124:22 0.000723026
4 *124:10 0.00057513
5 N2BEGb[6] N2BEGb[7] 0.000144883
6 N2BEGb[6] N4BEG[0] 0
7 *124:10 *1191:A 4.75151e-05
8 *124:10 *175:35 7.45103e-05
9 *124:10 *278:8 0.000126047
10 *124:22 *1191:A 0.000132457
11 *124:22 *166:31 7.50789e-05
12 *124:22 *168:25 0.00012816
13 *124:22 *175:27 0
14 N2BEGb[1] *124:10 4.75151e-05
15 N2BEGb[1] *124:22 0.000273421
16 N2BEGb[2] *124:22 0.000143351
17 N2BEGb[3] *124:22 0.000144027
18 N2BEGb[5] N2BEGb[6] 0
19 *23:9 *124:22 0.000499471
*RES
1 *1195:X *124:10 40.9167 
2 *124:10 *124:22 45.9431 
3 *124:22 N2BEGb[6] 22.1321 
*END

*D_NET *125 0.00343208
*CONN
*P N2BEGb[7] O
*I *1196:X O *D sg13g2_buf_1
*CAP
1 N2BEGb[7] 0.000308774
2 *1196:X 9.48412e-05
3 *125:20 0.000986329
4 *125:8 0.000772396
5 N2BEGb[7] N4BEG[0] 0
6 *125:8 *177:25 7.53209e-05
7 *125:20 *1076:A 4.77699e-05
8 *125:20 *1184:A 0
9 *125:20 *137:12 0.000341206
10 *125:20 *139:10 0.00012816
11 *125:20 *175:27 0
12 N2BEG[3] *125:20 0
13 N2BEG[5] *125:20 4.77425e-05
14 N2BEG[6] *125:20 0
15 N2BEGb[6] N2BEGb[7] 0.000144883
16 *22:5 *125:20 0
17 *23:9 *125:20 0
18 *115:20 *125:20 7.51285e-05
19 *117:12 *125:20 0.00012816
20 *118:10 *125:20 0
21 *120:16 *125:20 0.000281366
*RES
1 *1196:X *125:8 40.8446 
2 *125:8 *125:20 46.901 
3 *125:20 N2BEGb[7] 22.5441 
*END

*D_NET *126 0.00223616
*CONN
*P N4BEG[0] O
*I *1197:X O *D sg13g2_buf_1
*CAP
1 N4BEG[0] 0.000853919
2 *1197:X 0.000853919
3 N4BEG[0] N4BEG[1] 0
4 N4BEG[0] *134:10 1.54008e-05
5 N4BEG[0] *162:23 0
6 N4BEG[0] *165:29 0.000175721
7 N4BEG[0] *283:18 0.000337202
8 N2BEGb[6] N4BEG[0] 0
9 N2BEGb[7] N4BEG[0] 0
*RES
1 *1197:X N4BEG[0] 27.6014 
*END

*D_NET *127 0.00250051
*CONN
*P N4BEG[10] O
*I *1198:X O *D sg13g2_buf_1
*CAP
1 N4BEG[10] 0.00029061
2 *1198:X 0.000405304
3 *127:12 0.000695914
4 N4BEG[10] *1095:A 0.000369743
5 N4BEG[10] *131:12 7.9225e-05
6 *127:12 N4BEG[6] 4.77702e-05
7 *127:12 N4BEG[9] 0
8 *127:12 *140:14 0.000181192
9 *127:12 *164:17 0.000287256
10 *127:12 *293:14 0
11 *127:12 *305:10 0.000143498
*RES
1 *1198:X *127:12 44.2333 
2 *127:12 N4BEG[10] 22.7604 
*END

*D_NET *128 0.00221214
*CONN
*P N4BEG[11] O
*I *1199:X O *D sg13g2_buf_1
*CAP
1 N4BEG[11] 0.000773745
2 *1199:X 0.000773745
3 N4BEG[11] N4BEG[12] 8.01118e-05
4 N4BEG[11] *1095:A 0.000472118
5 N4BEG[11] *1214:A 0.000112418
6 N4BEG[11] *131:12 0
7 N4BEG[11] *142:12 0
*RES
1 *1199:X N4BEG[11] 27.107 
*END

*D_NET *129 0.00235264
*CONN
*P N4BEG[12] O
*I *1200:X O *D sg13g2_buf_1
*CAP
1 N4BEG[12] 0.000543773
2 *1200:X 0.000185359
3 *129:10 0.000729133
4 N4BEG[12] *142:12 4.78578e-05
5 *129:10 N4BEG[9] 0.000110851
6 *129:10 *1213:A 0.000110851
7 *129:10 *304:10 0.00012816
8 *129:10 *306:8 0.000340288
9 *129:10 *307:12 7.62515e-05
10 N4BEG[11] N4BEG[12] 8.01118e-05
*RES
1 *1200:X *129:10 42.5853 
2 *129:10 N4BEG[12] 24.5114 
*END

*D_NET *130 0.0024133
*CONN
*P N4BEG[13] O
*I *1201:X O *D sg13g2_buf_1
*CAP
1 N4BEG[13] 0.000823302
2 *1201:X 0.000823302
3 N4BEG[13] N4BEG[15] 0
4 N4BEG[13] *1102:A 1.54008e-05
5 N4BEG[13] *1203:A 0.000175693
6 N4BEG[13] *142:12 0.000112426
7 N4BEG[13] *150:10 0.000143385
8 N4BEG[13] *295:10 0.000143544
9 N4BEG[13] *316:16 0.000176252
*RES
1 *1201:X N4BEG[13] 27.7044 
*END

*D_NET *131 0.00295398
*CONN
*P N4BEG[14] O
*I *1202:X O *D sg13g2_buf_1
*CAP
1 N4BEG[14] 0.000266145
2 *1202:X 0.000391862
3 *131:12 0.000658007
4 N4BEG[14] *1102:A 0.000240935
5 *131:12 N4BEG[9] 0.00017625
6 *131:12 *1095:A 4.77425e-05
7 *131:12 *1202:A 1.54008e-05
8 *131:12 *164:17 0.000499799
9 *131:12 *175:27 0.000499383
10 *131:12 *304:10 7.92265e-05
11 N4BEG[10] *131:12 7.9225e-05
12 N4BEG[11] *131:12 0
*RES
1 *1202:X *131:12 45.1603 
2 *131:12 N4BEG[14] 22.3278 
*END

*D_NET *132 0.00269068
*CONN
*P N4BEG[15] O
*I *1203:X O *D sg13g2_buf_1
*CAP
1 N4BEG[15] 0.000702399
2 *1203:X 0.000702399
3 N4BEG[15] *1101:A 0.00017625
4 N4BEG[15] *1102:A 0.000407319
5 N4BEG[15] *1203:A 0.000175693
6 N4BEG[15] *150:10 0.000143193
7 N4BEG[15] *292:14 0.000240073
8 N4BEG[15] *294:10 0.000143351
9 N4BEG[13] N4BEG[15] 0
*RES
1 *1203:X N4BEG[15] 27.107 
*END

*D_NET *133 0.00279043
*CONN
*P N4BEG[1] O
*I *1205:X O *D sg13g2_buf_1
*CAP
1 N4BEG[1] 0.00111602
2 *1205:X 0.00111602
3 N4BEG[1] N4BEG[2] 0
4 N4BEG[1] *134:10 8.00394e-05
5 N4BEG[1] *136:10 4.75425e-05
6 N4BEG[1] *163:17 0
7 N4BEG[1] *163:25 0.000272911
8 N4BEG[1] *283:10 0.00011101
9 N4BEG[1] *287:22 4.68833e-05
10 N4BEG[0] N4BEG[1] 0
*RES
1 *1205:X N4BEG[1] 29.8571 
*END

*D_NET *134 0.00254756
*CONN
*P N4BEG[2] O
*I *1206:X O *D sg13g2_buf_1
*CAP
1 N4BEG[2] 0.000383894
2 *1206:X 0.000472888
3 *134:10 0.000856783
4 N4BEG[2] N4BEG[3] 0
5 N4BEG[2] *136:10 4.77425e-05
6 *134:10 *1087:A 0.00014372
7 *134:10 *137:12 0.000178206
8 *134:10 *162:23 0
9 *134:10 *283:10 0.00011101
10 *134:10 *287:22 7.92524e-05
11 N4BEG[0] *134:10 1.54008e-05
12 N4BEG[1] N4BEG[2] 0
13 N4BEG[1] *134:10 8.00394e-05
14 *22:5 *134:10 0.000178621
*RES
1 *1206:X *134:10 44.6247 
2 *134:10 N4BEG[2] 22.9767 
*END

*D_NET *135 0.00299822
*CONN
*P N4BEG[3] O
*I *1207:X O *D sg13g2_buf_1
*CAP
1 N4BEG[3] 0.00106731
2 *1207:X 0.00106731
3 N4BEG[3] N4BEG[4] 0
4 N4BEG[3] *1078:A 0
5 N4BEG[3] *1212:A 8.00842e-05
6 N4BEG[3] *136:10 0.000112381
7 N4BEG[3] *140:14 4.75151e-05
8 N4BEG[3] *163:17 7.92265e-05
9 N4BEG[3] *163:33 0.000111819
10 N4BEG[3] *172:17 0.000305088
11 N4BEG[3] *287:14 1.51e-05
12 N4BEG[3] *303:28 0.000112381
13 N4BEG[2] N4BEG[3] 0
*RES
1 *1207:X N4BEG[3] 29.8571 
*END

*D_NET *136 0.00277821
*CONN
*P N4BEG[4] O
*I *1208:X O *D sg13g2_buf_1
*CAP
1 N4BEG[4] 0.000316652
2 *1208:X 0.000493502
3 *136:10 0.000810154
4 N4BEG[4] *172:17 0.000272718
5 *136:10 *1212:A 8.0039e-05
6 *136:10 *137:12 0.000181192
7 *136:10 *163:17 0.000143379
8 *136:10 *163:25 0.000272911
9 N4BEG[1] *136:10 4.75425e-05
10 N4BEG[2] *136:10 4.77425e-05
11 N4BEG[3] N4BEG[4] 0
12 N4BEG[3] *136:10 0.000112381
13 *22:5 *136:10 0
*RES
1 *1208:X *136:10 44.841 
2 *136:10 N4BEG[4] 22.7604 
*END

*D_NET *137 0.00255838
*CONN
*P N4BEG[5] O
*I *1209:X O *D sg13g2_buf_1
*CAP
1 N4BEG[5] 0.000338132
2 *1209:X 0.000420614
3 *137:12 0.000758746
4 *137:12 *139:10 0.000340288
5 *22:5 *137:12 0
6 *125:20 *137:12 0.000341206
7 *134:10 *137:12 0.000178206
8 *136:10 *137:12 0.000181192
*RES
1 *1209:X *137:12 44.9749 
2 *137:12 N4BEG[5] 22.5441 
*END

*D_NET *138 0.00199136
*CONN
*P N4BEG[6] O
*I *1210:X O *D sg13g2_buf_1
*CAP
1 N4BEG[6] 0.000900045
2 *1210:X 0.000900045
3 N4BEG[6] *140:14 0
4 N4BEG[6] *164:27 0
5 N4BEG[6] *287:14 0.000143498
6 *127:12 N4BEG[6] 4.77702e-05
*RES
1 *1210:X N4BEG[6] 27.7044 
*END

*D_NET *139 0.00286233
*CONN
*P N4BEG[7] O
*I *1211:X O *D sg13g2_buf_1
*CAP
1 N4BEG[7] 0.000305608
2 *1211:X 0.000364876
3 *139:10 0.000670484
4 *139:10 *168:25 7.9225e-05
5 *139:10 *175:27 0.000973684
6 *125:20 *139:10 0.00012816
7 *137:12 *139:10 0.000340288
*RES
1 *1211:X *139:10 45.0882 
2 *139:10 N4BEG[7] 22.3278 
*END

*D_NET *140 0.00233445
*CONN
*P N4BEG[8] O
*I *1212:X O *D sg13g2_buf_1
*CAP
1 N4BEG[8] 0.000379968
2 *1212:X 0.000376298
3 *140:14 0.000756266
4 N4BEG[8] *164:27 7.98567e-05
5 *140:14 *163:33 0.000111819
6 *140:14 *164:27 0
7 *140:14 *287:14 0.000148733
8 *140:14 *293:14 0.000126445
9 N4BEG[3] *140:14 4.75151e-05
10 N4BEG[6] *140:14 0
11 *22:5 *140:14 0.000126354
12 *127:12 *140:14 0.000181192
*RES
1 *1212:X *140:14 44.12 
2 *140:14 N4BEG[8] 22.9767 
*END

*D_NET *141 0.00208283
*CONN
*P N4BEG[9] O
*I *1213:X O *D sg13g2_buf_1
*CAP
1 N4BEG[9] 0.000818329
2 *1213:X 0.000818329
3 N4BEG[9] *1202:A 7.9848e-05
4 N4BEG[9] *1213:A 0
5 N4BEG[9] *164:27 0
6 N4BEG[9] *304:10 7.92265e-05
7 *127:12 N4BEG[9] 0
8 *129:10 N4BEG[9] 0.000110851
9 *131:12 N4BEG[9] 0.00017625
*RES
1 *1213:X N4BEG[9] 27.107 
*END

*D_NET *142 0.00240526
*CONN
*P NN4BEG[0] O
*I *1214:X O *D sg13g2_buf_1
*CAP
1 NN4BEG[0] 0.000320638
2 *1214:X 0.000405751
3 *142:12 0.000726389
4 NN4BEG[0] *1099:A 0.000175693
5 NN4BEG[0] *1101:A 7.9225e-05
6 *142:12 *164:17 0.000393736
7 *142:12 *295:10 0.000143544
8 N4BEG[11] *142:12 0
9 N4BEG[12] *142:12 4.78578e-05
10 N4BEG[13] *142:12 0.000112426
*RES
1 *1214:X *142:12 44.2333 
2 *142:12 NN4BEG[0] 22.7604 
*END

*D_NET *143 0.00142141
*CONN
*P NN4BEG[10] O
*I *1216:X O *D sg13g2_buf_1
*CAP
1 NN4BEG[10] 0.000671093
2 *1216:X 0.000671093
3 NN4BEG[10] NN4BEG[11] 0
4 NN4BEG[10] NN4BEG[8] 0
5 NN4BEG[10] *307:12 7.92265e-05
*RES
1 *1216:X NN4BEG[10] 25.7577 
*END

*D_NET *144 0.00206385
*CONN
*P NN4BEG[11] O
*I *1217:X O *D sg13g2_buf_1
*CAP
1 NN4BEG[11] 0.000856287
2 *1217:X 0.000856287
3 NN4BEG[11] NN4BEG[7] 0
4 NN4BEG[11] *1098:A 0.000240264
5 NN4BEG[11] *310:16 0.00011101
6 NN4BEG[10] NN4BEG[11] 0
*RES
1 *1217:X NN4BEG[11] 27.7044 
*END

*D_NET *145 0.00207859
*CONN
*P NN4BEG[12] O
*I *1218:X O *D sg13g2_buf_1
*CAP
1 NN4BEG[12] 0.000332301
2 *1218:X 2.29094e-05
3 *145:16 0.000525756
4 *145:8 0.000216365
5 NN4BEG[12] *1098:A 0.000240377
6 NN4BEG[12] *1119:A 0.000466768
7 *145:8 *170:19 0.000129493
8 *145:8 *311:18 0.000129657
9 *145:16 *158:17 0
10 *145:16 *200:33 0
11 *145:16 *312:18 1.4965e-05
*RES
1 *1218:X *145:8 40.5974 
2 *145:8 *145:16 41.751 
3 *145:16 NN4BEG[12] 23.4093 
*END

*D_NET *146 0.00162284
*CONN
*P NN4BEG[13] O
*I *1219:X O *D sg13g2_buf_1
*CAP
1 NN4BEG[13] 0.000578037
2 *1219:X 0.000578037
3 NN4BEG[13] *1119:A 0.000466768
*RES
1 *1219:X NN4BEG[13] 25.0573 
*END

*D_NET *147 0.00136667
*CONN
*P NN4BEG[14] O
*I *1220:X O *D sg13g2_buf_1
*CAP
1 NN4BEG[14] 0.00064329
2 *1220:X 0.00064329
3 NN4BEG[14] *293:8 8.00842e-05
*RES
1 *1220:X NN4BEG[14] 25.0573 
*END

*D_NET *148 0.00146626
*CONN
*P NN4BEG[15] O
*I *1221:X O *D sg13g2_buf_1
*CAP
1 NN4BEG[15] 0.00058907
2 *1221:X 0.00058907
3 NN4BEG[15] *159:31 0
4 NN4BEG[15] *293:8 8.00842e-05
5 Co NN4BEG[15] 0.000208035
*RES
1 *1221:X NN4BEG[15] 25.0573 
*END

*D_NET *149 0.00221833
*CONN
*P NN4BEG[1] O
*I *1222:X O *D sg13g2_buf_1
*CAP
1 NN4BEG[1] 0.000796525
2 *1222:X 0.000796525
3 NN4BEG[1] NN4BEG[2] 0
4 NN4BEG[1] *1099:A 0.000272834
5 NN4BEG[1] *1101:A 0.000207654
6 NN4BEG[1] *1123:A 0.000144795
*RES
1 *1222:X NN4BEG[1] 27.107 
*END

*D_NET *150 0.0024871
*CONN
*P NN4BEG[2] O
*I *1223:X O *D sg13g2_buf_1
*CAP
1 NN4BEG[2] 0.000455698
2 *1223:X 0.000269032
3 *150:10 0.00072473
4 NN4BEG[2] NN4BEG[3] 1.54008e-05
5 NN4BEG[2] *1123:A 0.000144768
6 NN4BEG[2] *220:14 0.00014454
7 *150:10 *191:25 0.000446352
8 N4BEG[13] *150:10 0.000143385
9 N4BEG[15] *150:10 0.000143193
10 NN4BEG[1] NN4BEG[2] 0
*RES
1 *1223:X *150:10 43.0488 
2 *150:10 NN4BEG[2] 23.8419 
*END

*D_NET *151 0.00203367
*CONN
*P NN4BEG[3] O
*I *1224:X O *D sg13g2_buf_1
*CAP
1 NN4BEG[3] 0.000841413
2 *1224:X 0.000841413
3 NN4BEG[3] NN4BEG[4] 0
4 NN4BEG[3] *1123:A 0
5 NN4BEG[3] *157:10 0.00011101
6 NN4BEG[3] *220:14 0.00014454
7 NN4BEG[3] *280:8 7.98942e-05
8 NN4BEG[2] NN4BEG[3] 1.54008e-05
*RES
1 *1224:X NN4BEG[3] 27.107 
*END

*D_NET *152 0.00203111
*CONN
*P NN4BEG[4] O
*I *1225:X O *D sg13g2_buf_1
*CAP
1 NN4BEG[4] 0.000880394
2 *1225:X 0.000880394
3 NN4BEG[4] *1224:A 7.94189e-05
4 NN4BEG[4] *157:10 0.00011101
5 NN4BEG[4] *280:8 7.98942e-05
6 NN4BEG[3] NN4BEG[4] 0
*RES
1 *1225:X NN4BEG[4] 27.107 
*END

*D_NET *153 0.00207572
*CONN
*P NN4BEG[5] O
*I *1123:X O *D sg13g2_buf_1
*CAP
1 NN4BEG[5] 0.000577005
2 *1123:X 9.96354e-05
3 *153:8 0.00067664
4 NN4BEG[5] NN4BEG[6] 0
5 NN4BEG[5] *1126:A 0.000111114
6 NN4BEG[5] *1224:A 0.000143498
7 *153:8 *170:19 0.00012785
8 *153:8 *280:16 0
9 *153:8 *291:18 0.000339977
*RES
1 *1123:X *153:8 41.5862 
2 *153:8 NN4BEG[5] 24.7071 
*END

*D_NET *154 0.0019119
*CONN
*P NN4BEG[6] O
*I *1124:X O *D sg13g2_buf_1
*CAP
1 NN4BEG[6] 0.000868125
2 *1124:X 0.000868125
3 NN4BEG[6] NN4BEG[7] 0
4 NN4BEG[6] *1126:A 0.000175648
5 NN4BEG[6] *1224:A 0
6 NN4BEG[5] NN4BEG[6] 0
*RES
1 *1124:X NN4BEG[6] 27.004 
*END

*D_NET *155 0.00202763
*CONN
*P NN4BEG[7] O
*I *1125:X O *D sg13g2_buf_1
*CAP
1 NN4BEG[7] 0.000821994
2 *1125:X 0.000821994
3 NN4BEG[7] *1103:A 0.000272673
4 NN4BEG[7] *218:14 0
5 NN4BEG[7] *291:18 0.000110965
6 NN4BEG[11] NN4BEG[7] 0
7 NN4BEG[6] NN4BEG[7] 0
*RES
1 *1125:X NN4BEG[7] 27.004 
*END

*D_NET *156 0.00195996
*CONN
*P NN4BEG[8] O
*I *1126:X O *D sg13g2_buf_1
*CAP
1 NN4BEG[8] 0.000537454
2 *1126:X 5.99427e-05
3 *156:8 0.000597397
4 NN4BEG[8] *1103:A 0.000272673
5 NN4BEG[8] *291:18 0.00011101
6 NN4BEG[8] *307:12 7.92265e-05
7 *156:8 *170:19 0.000177705
8 *156:8 *291:18 0.000124547
9 *156:8 *307:12 0
10 NN4BEG[10] NN4BEG[8] 0
*RES
1 *1126:X *156:8 40.8446 
2 *156:8 NN4BEG[8] 24.7071 
*END

*D_NET *157 0.0020608
*CONN
*P NN4BEG[9] O
*I *1127:X O *D sg13g2_buf_1
*CAP
1 NN4BEG[9] 0.000271479
2 *1127:X 0.000337019
3 *157:10 0.000608497
4 *157:10 *178:9 0
5 *157:10 *186:13 0.000600314
6 *157:10 *188:13 0
7 *157:10 *302:28 2.14736e-05
8 NN4BEG[3] *157:10 0.00011101
9 NN4BEG[4] *157:10 0.00011101
*RES
1 *1127:X *157:10 43.5741 
2 *157:10 NN4BEG[9] 22.1115 
*END

*D_NET *158 0.0137593
*CONN
*P S1END[0] I
*I *1071:A I *D sg13g2_buf_1
*CAP
1 S1END[0] 0.000375004
2 *1071:A 0
3 *158:23 0.0003227
4 *158:17 0.00237684
5 *158:11 0.00242914
6 *158:11 *172:11 0.00102558
7 *158:11 *188:13 0.00102658
8 *158:17 *1222:A 0
9 *158:17 *160:37 0.00192717
10 *158:17 *191:25 0
11 *158:17 *197:21 0
12 *158:17 *279:10 0
13 *158:17 *283:18 0
14 *158:17 *287:14 0.000388926
15 *158:17 *287:22 0
16 *158:17 *290:26 0
17 *158:17 *296:14 0
18 *158:17 *301:30 0
19 *158:17 *303:28 0.00182975
20 *158:17 *315:12 0
21 *158:17 *316:16 0.0011332
22 *18:7 *158:17 0.000924411
23 *114:16 *158:23 0
24 *115:20 *158:23 0
25 *145:16 *158:17 0
*RES
1 S1END[0] *158:11 46.0461 
2 *158:11 *158:17 45.5452 
3 *158:17 *158:23 43.1312 
4 *158:23 *1071:A 40 
*END

*D_NET *159 0.0136797
*CONN
*P S1END[1] I
*I *1070:A I *D sg13g2_buf_1
*CAP
1 S1END[1] 0.00259121
2 *1070:A 0
3 *159:41 0.000890006
4 *159:31 0.00348122
5 *159:31 *160:21 0.000143351
6 *159:31 *160:37 0
7 *159:31 *163:25 0.000124862
8 *159:31 *170:19 0
9 *159:31 *218:14 0
10 *159:31 *280:16 0.00107535
11 *159:31 *290:26 0.000769236
12 *159:31 *296:14 0.000181192
13 *159:31 *309:14 0.000662662
14 *159:31 *310:16 0
15 *159:31 *316:16 0.000922781
16 *159:41 *1175:A 0
17 *159:41 *1177:A 0
18 *159:41 *160:37 0.00190759
19 *159:41 *166:25 0.00012816
20 *159:41 *274:8 0.000449332
21 *159:41 *280:16 0
22 N1BEG[0] *159:41 0.000208941
23 NN4BEG[15] *159:31 0
24 *108:12 *159:41 1.54285e-05
25 *111:10 *159:41 0
26 *116:10 *159:41 0.000128355
27 *122:10 *159:41 0
*RES
1 S1END[1] *159:31 47.3877 
2 *159:31 *159:41 31.9068 
3 *159:41 *1070:A 20 
*END

*D_NET *160 0.0178661
*CONN
*P S1END[2] I
*I *1069:A I *D sg13g2_buf_1
*CAP
1 S1END[2] 0.00198964
2 *1069:A 0
3 *160:37 0.000868185
4 *160:27 0.00108425
5 *160:21 0.00220571
6 *160:21 *1118:A 4.77425e-05
7 *160:21 *171:13 0
8 *160:21 *177:15 0.0038127
9 *160:21 *199:21 0.000144542
10 *160:21 *281:18 0.00257779
11 *160:21 *313:10 0.000143351
12 *160:27 *167:25 0
13 *160:27 *299:18 0.000273617
14 *160:37 *1175:A 0.000101981
15 *160:37 *1177:A 0.000274325
16 *160:37 *290:26 0.000283955
17 *18:7 *160:37 0
18 *108:12 *160:37 8.01575e-05
19 *158:17 *160:37 0.00192717
20 *159:31 *160:21 0.000143351
21 *159:31 *160:37 0
22 *159:41 *160:37 0.00190759
*RES
1 S1END[2] *160:21 47.398 
2 *160:21 *160:27 42.266 
3 *160:27 *160:37 34.1007 
4 *160:37 *1069:A 20 
*END

*D_NET *161 0.00897975
*CONN
*P S1END[3] I
*I *1068:A I *D sg13g2_buf_1
*CAP
1 S1END[3] 2.10747e-05
2 *1068:A 0.000509462
3 *161:9 0.00347931
4 *161:7 0.00299093
5 *1068:A *1177:A 0
6 *1068:A *1179:A 8.01116e-05
7 *161:9 *176:21 0
8 *161:9 *192:23 0.00108273
9 *161:9 *194:17 0.000816133
10 *25:7 *161:9 0
11 *110:10 *1068:A 0
*RES
1 S1END[3] *161:7 20.1648 
2 *161:7 *161:9 30.5086 
3 *161:9 *1068:A 45.0779 
*END

*D_NET *162 0.0163121
*CONN
*P S2END[0] I
*I *1087:A I *D sg13g2_buf_1
*CAP
1 S2END[0] 0.00134476
2 *1087:A 9.39369e-05
3 *162:23 0.00176724
4 *162:11 0.00301807
5 *162:11 *163:11 1.54008e-05
6 *162:11 *177:11 0.000272718
7 *162:11 *312:10 0.000144027
8 *162:23 *1206:A 0.000112155
9 *162:23 *163:17 0.0044615
10 *162:23 *165:29 0
11 *162:23 *166:25 0
12 *162:23 *167:19 0.00456895
13 *162:23 *174:15 0
14 *162:23 *283:18 0.000369658
15 *162:23 *287:22 0
16 N4BEG[0] *162:23 0
17 *12:9 *162:23 0
18 *134:10 *1087:A 0.00014372
19 *134:10 *162:23 0
*RES
1 S2END[0] *162:11 31.0004 
2 *162:11 *162:23 49.2829 
3 *162:23 *1087:A 20.9682 
*END

*D_NET *163 0.0146535
*CONN
*P S2END[1] I
*I *1086:A I *D sg13g2_buf_1
*CAP
1 S2END[1] 0.00129915
2 *1086:A 0
3 *163:33 0.000141236
4 *163:25 0.00033063
5 *163:17 0.00205827
6 *163:11 0.00316803
7 *163:11 *1106:A 0
8 *163:11 *164:17 0
9 *163:17 *167:19 0
10 *163:17 *174:15 0
11 *163:17 *197:15 0.00119634
12 *163:17 *303:28 0.000112496
13 *163:25 *290:26 0.000124862
14 *163:33 *288:8 0.000126047
15 *163:33 *304:10 0.000229435
16 N4BEG[1] *163:17 0
17 N4BEG[1] *163:25 0.000272911
18 N4BEG[3] *163:17 7.92265e-05
19 N4BEG[3] *163:33 0.000111819
20 *1047:A *163:11 0.000273203
21 *22:5 *163:33 0
22 *136:10 *163:17 0.000143379
23 *136:10 *163:25 0.000272911
24 *140:14 *163:33 0.000111819
25 *159:31 *163:25 0.000124862
26 *162:11 *163:11 1.54008e-05
27 *162:23 *163:17 0.0044615
*RES
1 S2END[1] *163:11 30.7841 
2 *163:11 *163:17 45.7603 
3 *163:17 *163:25 42.4308 
4 *163:25 *163:33 41.8437 
5 *163:33 *1086:A 20 
*END

*D_NET *164 0.0107771
*CONN
*P S2END[2] I
*I *1085:A I *D sg13g2_buf_1
*CAP
1 S2END[2] 0.00152854
2 *1085:A 0
3 *164:27 0.000213626
4 *164:17 0.00174216
5 *164:17 *1123:A 0.00139183
6 *164:17 *165:15 7.98567e-05
7 *164:17 *186:13 0.000287256
8 *164:17 *187:11 0.00124332
9 *164:17 *201:13 0.00118946
10 *164:17 *220:14 0.00181888
11 *164:27 *293:14 2.14736e-05
12 *164:27 *304:10 0
13 N4BEG[6] *164:27 0
14 N4BEG[8] *164:27 7.98567e-05
15 N4BEG[9] *164:27 0
16 *127:12 *164:17 0.000287256
17 *131:12 *164:17 0.000499799
18 *140:14 *164:27 0
19 *142:12 *164:17 0.000393736
20 *163:11 *164:17 0
*RES
1 S2END[2] *164:17 43.4531 
2 *164:17 *164:27 41.9158 
3 *164:27 *1085:A 40 
*END

*D_NET *165 0.0151038
*CONN
*P S2END[3] I
*I *1084:A I *D sg13g2_buf_1
*CAP
1 S2END[3] 0.00160842
2 *1084:A 0
3 *165:29 0.00142409
4 *165:15 0.00303251
5 *165:15 *1106:A 0.000272337
6 *165:15 *166:11 1.51734e-05
7 *165:15 *177:15 0.000502462
8 *165:15 *224:12 0
9 *165:15 *234:16 0
10 *165:29 *166:25 0
11 *165:29 *174:15 0.00435077
12 *165:29 *177:15 0
13 *165:29 *283:18 4.77702e-05
14 *165:29 *285:12 8.00842e-05
15 *165:29 *290:26 0.000175924
16 *165:29 *300:18 0.00333865
17 N4BEG[0] *165:29 0.000175721
18 *1047:A *165:15 0
19 *162:23 *165:29 0
20 *164:17 *165:15 7.98567e-05
*RES
1 S2END[3] *165:15 34.111 
2 *165:15 *165:29 45.2453 
3 *165:29 *1084:A 20 
*END

*D_NET *166 0.0156617
*CONN
*P S2END[4] I
*I *1083:A I *D sg13g2_buf_1
*CAP
1 S2END[4] 0.00135617
2 *1083:A 0
3 *166:31 4.0976e-05
4 *166:25 0.0010604
5 *166:15 0.00273844
6 *166:11 0.00307517
7 *166:11 *1109:A 8.00842e-05
8 *166:11 *167:15 0.00115621
9 *166:15 *215:10 0
10 *166:15 *222:10 0.000614926
11 *166:15 *297:8 0
12 *166:15 *308:14 0
13 *166:25 *1189:A 0
14 *166:25 *1194:A 4.77425e-05
15 *166:25 *174:27 0
16 *166:25 *175:27 0.000209155
17 *166:25 *290:26 0
18 N2BEGb[3] *166:25 0.000143379
19 N2BEGb[3] *166:31 7.50789e-05
20 N2BEGb[5] *166:25 0
21 *10:7 *166:15 0
22 *10:11 *166:15 0
23 *11:13 *166:15 0
24 *14:13 *166:15 0.00471923
25 *122:10 *166:25 0.000126358
26 *124:22 *166:31 7.50789e-05
27 *159:41 *166:25 0.00012816
28 *162:23 *166:25 0
29 *165:15 *166:11 1.51734e-05
30 *165:29 *166:25 0
*RES
1 S2END[4] *166:11 32.2982 
2 *166:11 *166:15 46.5534 
3 *166:15 *166:25 49.6717 
4 *166:25 *166:31 40.5021 
5 *166:31 *1083:A 20 
*END

*D_NET *167 0.0160212
*CONN
*P S2END[5] I
*I *1082:A I *D sg13g2_buf_1
*CAP
1 S2END[5] 0.00115318
2 *1082:A 0
3 *167:25 0.000769617
4 *167:19 0.00235944
5 *167:15 0.00274301
6 *167:15 *1109:A 8.00842e-05
7 *167:15 *168:9 0
8 *167:15 *281:12 0.000530647
9 *167:19 *197:15 0
10 *167:19 *200:33 0.00200083
11 *167:25 *172:25 0
12 *167:25 *298:20 0.0006592
13 *167:25 *299:18 0
14 *167:25 *302:38 0
15 *12:9 *167:19 0
16 *160:27 *167:25 0
17 *162:23 *167:19 0.00456895
18 *163:17 *167:19 0
19 *166:11 *167:15 0.00115621
*RES
1 S2END[5] *167:15 31.6699 
2 *167:15 *167:19 43.3398 
3 *167:19 *167:25 47.4572 
4 *167:25 *1082:A 20 
*END

*D_NET *168 0.0121692
*CONN
*P S2END[6] I
*I *1081:A I *D sg13g2_buf_1
*CAP
1 S2END[6] 0.000157722
2 *1081:A 0
3 *168:33 0.000163594
4 *168:25 0.00142118
5 *168:19 0.00130178
6 *168:13 0.00131755
7 *168:9 0.00143107
8 *168:9 *1080:A 0
9 *168:13 *173:15 0
10 *168:13 *175:15 0.0023362
11 *168:13 *191:15 0
12 *168:13 *192:17 0
13 *168:19 *173:21 1.52665e-05
14 *168:25 *1211:A 0.00014391
15 *168:25 *173:21 0.00240523
16 *168:25 *175:27 0
17 *168:25 *188:13 0.00044038
18 *168:25 *302:28 0
19 *168:33 *278:8 0.000287758
20 *168:33 *304:10 7.51285e-05
21 N2BEGb[3] *168:33 0.000112418
22 N2BEGb[4] *168:33 0.000112198
23 N2BEGb[5] *168:25 0.000240377
24 *124:22 *168:25 0.00012816
25 *139:10 *168:25 7.9225e-05
26 *167:15 *168:9 0
*RES
1 S2END[6] *168:9 41.2463 
2 *168:9 *168:13 35.1822 
3 *168:13 *168:19 40.2313 
4 *168:19 *168:25 34.6054 
5 *168:25 *168:33 42.0909 
6 *168:33 *1081:A 20 
*END

*D_NET *169 0.00087785
*CONN
*P S2END[7] I
*I *1080:A I *D sg13g2_buf_1
*CAP
1 S2END[7] 0.000438925
2 *1080:A 0.000438925
3 *1080:A *178:9 0
4 *168:9 *1080:A 0
*RES
1 S2END[7] *1080:A 23.7595 
*END

*D_NET *170 0.00453626
*CONN
*P S2MID[0] I
*I *1079:A I *D sg13g2_buf_1
*CAP
1 S2MID[0] 0.00149809
2 *1079:A 0
3 *170:19 0.00149809
4 *170:19 *1118:A 0.000112426
5 *170:19 *171:13 0.00011101
6 *170:19 *219:22 0
7 *170:19 *296:14 0
8 *170:19 *309:14 0
9 *170:19 *311:18 1.56814e-05
10 *170:19 *312:10 0.000865917
11 *145:8 *170:19 0.000129493
12 *153:8 *170:19 0.00012785
13 *156:8 *170:19 0.000177705
14 *159:31 *170:19 0
*RES
1 S2MID[0] *170:19 34.1625 
2 *170:19 *1079:A 40 
*END

*D_NET *171 0.00793301
*CONN
*P S2MID[1] I
*I *1078:A I *D sg13g2_buf_1
*CAP
1 S2MID[1] 0.00215747
2 *1078:A 5.39321e-05
3 *171:13 0.0022114
4 *1078:A *1213:A 0
5 *171:13 *172:11 0
6 *171:13 *230:10 0
7 *171:13 *233:8 7.9225e-05
8 *171:13 *281:18 0.00147866
9 *171:13 *294:10 0
10 *171:13 *301:30 0
11 *171:13 *318:14 0.00184131
12 N4BEG[3] *1078:A 0
13 *1040:A *171:13 0
14 *160:21 *171:13 0
15 *170:19 *171:13 0.00011101
*RES
1 S2MID[1] *171:13 43.2395 
2 *171:13 *1078:A 40.5356 
*END

*D_NET *172 0.0102907
*CONN
*P S2MID[2] I
*I *1077:A I *D sg13g2_buf_1
*CAP
1 S2MID[2] 0.00135283
2 *1077:A 0
3 *172:25 0.000357918
4 *172:17 0.000535023
5 *172:11 0.00152993
6 *172:11 *173:9 0
7 *172:11 *173:21 0.00177034
8 *172:11 *185:13 0.0025622
9 *172:11 *188:13 0
10 *172:11 *230:10 1.53561e-05
11 *172:25 *280:16 0.000282775
12 *172:25 *293:14 0
13 *172:25 *298:20 0
14 *172:25 *302:38 0
15 N4BEG[3] *172:17 0.000305088
16 N4BEG[4] *172:17 0.000272718
17 *20:5 *172:25 0.000280964
18 *20:11 *172:25 0
19 *158:11 *172:11 0.00102558
20 *167:25 *172:25 0
21 *171:13 *172:11 0
*RES
1 S2MID[2] *172:11 38.7872 
2 *172:11 *172:17 42.0497 
3 *172:17 *172:25 43.605 
4 *172:25 *1077:A 40 
*END

*D_NET *173 0.0116868
*CONN
*P S2MID[3] I
*I *1076:A I *D sg13g2_buf_1
*CAP
1 S2MID[3] 7.54693e-05
2 *1076:A 0.000244002
3 *173:21 0.0014328
4 *173:15 0.00193417
5 *173:9 0.000820843
6 *173:9 *174:11 0
7 *173:15 *175:15 0
8 *173:15 *192:17 0.00212112
9 *173:21 *176:21 0
10 N2BEG[3] *1076:A 0.000305088
11 N2BEG[4] *1076:A 0.000176252
12 *23:9 *173:21 0
13 *25:7 *173:21 0.000338482
14 *117:20 *173:21 0
15 *125:20 *1076:A 4.77699e-05
16 *168:13 *173:15 0
17 *168:19 *173:21 1.52665e-05
18 *168:25 *173:21 0.00240523
19 *172:11 *173:9 0
20 *172:11 *173:21 0.00177034
*RES
1 S2MID[3] *173:9 40.5974 
2 *173:9 *173:15 49.991 
3 *173:15 *173:21 36.9229 
4 *173:21 *1076:A 42.7192 
*END

*D_NET *174 0.0131701
*CONN
*P S2MID[4] I
*I *1075:A I *D sg13g2_buf_1
*CAP
1 S2MID[4] 0.00109442
2 *1075:A 0
3 *174:27 0.000979466
4 *174:15 0.00281076
5 *174:11 0.00292572
6 *174:11 *175:11 0
7 *174:11 *177:11 0
8 *174:11 *234:14 0.000175693
9 *174:11 *236:8 0.000369561
10 *174:15 *177:15 0
11 *174:15 *197:15 0
12 *174:15 *224:12 0.000235055
13 *174:15 *300:14 0
14 *174:27 *175:27 0
15 N2BEGb[1] *174:27 0.000180901
16 *12:9 *174:15 0
17 *16:13 *174:27 0
18 *18:13 *174:27 0
19 *25:17 *174:27 0
20 *118:10 *174:27 0
21 *120:16 *174:27 4.77425e-05
22 *162:23 *174:15 0
23 *163:17 *174:15 0
24 *165:29 *174:15 0.00435077
25 *166:25 *174:27 0
26 *173:9 *174:11 0
*RES
1 S2MID[4] *174:11 29.6461 
2 *174:11 *174:15 44.3286 
3 *174:15 *174:27 48.8786 
4 *174:27 *1075:A 20 
*END

*D_NET *175 0.0141125
*CONN
*P S2MID[5] I
*I *1074:A I *D sg13g2_buf_1
*CAP
1 S2MID[5] 0.00019252
2 *1074:A 0
3 *175:35 0.000358152
4 *175:27 0.00138077
5 *175:21 0.00113419
6 *175:15 0.000631933
7 *175:11 0.000712876
8 *175:11 *176:9 0
9 *175:15 *191:15 0.00239016
10 *175:21 *302:22 0
11 *175:27 *186:13 0.000340288
12 *175:27 *302:28 0.0018746
13 *175:35 *177:25 0.000219037
14 *175:35 *276:10 0.000287256
15 *175:35 *278:8 0
16 *175:35 *288:8 0
17 *23:9 *175:27 0.000497775
18 *120:16 *175:27 0
19 *124:10 *175:35 7.45103e-05
20 *124:22 *175:27 0
21 *125:20 *175:27 0
22 *131:12 *175:27 0.000499383
23 *139:10 *175:27 0.000973684
24 *166:25 *175:27 0.000209155
25 *168:13 *175:15 0.0023362
26 *168:25 *175:27 0
27 *173:15 *175:15 0
28 *174:11 *175:11 0
29 *174:27 *175:27 0
*RES
1 S2MID[5] *175:11 41.5656 
2 *175:11 *175:15 31.7214 
3 *175:15 *175:21 40.7519 
4 *175:21 *175:27 34.729 
5 *175:27 *175:35 43.5432 
6 *175:35 *1074:A 20 
*END

*D_NET *176 0.0108469
*CONN
*P S2MID[6] I
*I *1073:A I *D sg13g2_buf_1
*CAP
1 S2MID[6] 2.01482e-05
2 *1073:A 0.000298751
3 *176:21 0.00245093
4 *176:17 0.00269114
5 *176:9 0.000559104
6 *176:9 *177:11 0
7 *176:17 *192:17 0.00163329
8 *176:21 *185:13 0.00144934
9 *176:21 *192:23 0.00107975
10 N2BEG[2] *1073:A 0.000177482
11 N2BEG[3] *1073:A 0.000439191
12 *117:12 *1073:A 4.77699e-05
13 *161:9 *176:21 0
14 *173:21 *176:21 0
15 *175:11 *176:9 0
*RES
1 S2MID[6] *176:9 40.1648 
2 *176:9 *176:17 48.0546 
3 *176:17 *176:21 40.6206 
4 *176:21 *1073:A 43.3681 
*END

*D_NET *177 0.0147624
*CONN
*P S2MID[7] I
*I *1072:A I *D sg13g2_buf_1
*CAP
1 S2MID[7] 0.00102215
2 *1072:A 0
3 *177:25 0.000757736
4 *177:15 0.00307718
5 *177:11 0.00334159
6 *177:11 *236:8 0
7 *177:11 *312:10 0.000144027
8 *177:15 *234:16 0.000288173
9 *177:15 *281:18 0
10 *177:15 *300:18 0
11 *177:25 *1184:A 0
12 *177:25 *1188:A 0.000144423
13 *177:25 *276:10 0
14 N1BEG[3] *177:25 0.000112622
15 N2BEG[2] *177:25 0.00011243
16 N2BEG[6] *177:25 0.000272718
17 *16:7 *177:15 0.000181325
18 *22:5 *177:25 0
19 *113:12 *177:25 0.000282464
20 *116:10 *177:25 0.000143351
21 *120:16 *177:25 0
22 *125:8 *177:25 7.53209e-05
23 *160:21 *177:15 0.0038127
24 *162:11 *177:11 0.000272718
25 *165:15 *177:15 0.000502462
26 *165:29 *177:15 0
27 *174:11 *177:11 0
28 *174:15 *177:15 0
29 *175:35 *177:25 0.000219037
30 *176:9 *177:11 0
*RES
1 S2MID[7] *177:11 29.0537 
2 *177:11 *177:15 47.0478 
3 *177:15 *177:25 47.9722 
4 *177:25 *1072:A 20 
*END

*D_NET *178 0.00866445
*CONN
*P S4END[0] I
*I *1103:A I *D sg13g2_buf_1
*CAP
1 S4END[0] 0.000889726
2 *1103:A 0.000155697
3 *178:9 0.00104542
4 *178:9 *1108:A 0.000144768
5 *178:9 *188:13 0.00315289
6 *178:9 *189:9 0.0027306
7 NN4BEG[7] *1103:A 0.000272673
8 NN4BEG[8] *1103:A 0.000272673
9 *1080:A *178:9 0
10 *157:10 *178:9 0
*RES
1 S4END[0] *178:9 36.3667 
2 *178:9 *1103:A 41.8334 
*END

*D_NET *179 0.000941933
*CONN
*P S4END[10] I
*I *1093:A I *D sg13g2_buf_1
*CAP
1 S4END[10] 0.000470967
2 *1093:A 0.000470967
3 *1093:A *1094:A 0
4 *1093:A *180:13 0
5 *1093:A *181:11 0
*RES
1 S4END[10] *1093:A 24.0067 
*END

*D_NET *180 0.00167954
*CONN
*P S4END[11] I
*I *1092:A I *D sg13g2_buf_1
*CAP
1 S4END[11] 0.00044969
2 *1092:A 0
3 *180:13 0.00044969
4 *180:13 *181:11 0
5 *180:13 *182:15 0.000272911
6 *180:13 *204:15 0.000273026
7 *180:13 *219:18 0.000234224
8 *180:13 *233:12 0
9 *1093:A *180:13 0
*RES
1 S4END[11] *180:13 44.6041 
2 *180:13 *1092:A 20 
*END

*D_NET *181 0.00223012
*CONN
*P S4END[12] I
*I *1091:A I *D sg13g2_buf_1
*CAP
1 S4END[12] 0.000592702
2 *1091:A 0
3 *181:11 0.000592702
4 *181:11 *182:15 0
5 *181:11 *195:9 0
6 *181:11 *202:17 0.000610099
7 *181:11 *204:15 0.000434619
8 *1093:A *181:11 0
9 *180:13 *181:11 0
*RES
1 S4END[12] *181:11 46.2315 
2 *181:11 *1091:A 20 
*END

*D_NET *182 0.0015842
*CONN
*P S4END[13] I
*I *1090:A I *D sg13g2_buf_1
*CAP
1 S4END[13] 0.000468734
2 *1090:A 0
3 *182:15 0.000468734
4 *182:15 *1088:A 0
5 *182:15 *183:13 0.000112453
6 *182:15 *202:17 0.00018128
7 *182:15 *204:15 8.00842e-05
8 *182:15 *237:12 0
9 *180:13 *182:15 0.000272911
10 *181:11 *182:15 0
*RES
1 S4END[13] *182:15 44.7071 
2 *182:15 *1090:A 20 
*END

*D_NET *183 0.0016679
*CONN
*P S4END[14] I
*I *1089:A I *D sg13g2_buf_1
*CAP
1 S4END[14] 0.000519429
2 *1089:A 0
3 *183:13 0.000519429
4 *183:13 *1088:A 0
5 *183:13 *1116:A 0
6 *183:13 *201:13 0.000175886
7 *183:13 *202:17 0
8 *183:13 *219:18 0.000340704
9 *183:13 *233:12 0
10 *182:15 *183:13 0.000112453
*RES
1 S4END[14] *183:13 45.0985 
2 *183:13 *1089:A 20 
*END

*D_NET *184 0.00132083
*CONN
*P S4END[15] I
*I *1088:A I *D sg13g2_buf_1
*CAP
1 S4END[15] 0.000660416
2 *1088:A 0.000660416
3 *1088:A *194:17 0
4 *1088:A *201:13 0
5 *1088:A *204:15 0
6 *1088:A *298:8 0
7 *1088:A *309:8 0
8 *182:15 *1088:A 0
9 *183:13 *1088:A 0
*RES
1 S4END[15] *1088:A 25.9431 
*END

*D_NET *185 0.00985026
*CONN
*P S4END[1] I
*I *1102:A I *D sg13g2_buf_1
*CAP
1 S4END[1] 0.00154606
2 *1102:A 0.000276268
3 *185:13 0.00182233
4 *185:13 *188:13 0
5 *185:13 *194:17 0
6 *185:13 *196:9 7.52158e-05
7 *185:13 *230:12 0.0014552
8 N4BEG[13] *1102:A 1.54008e-05
9 N4BEG[14] *1102:A 0.000240935
10 N4BEG[15] *1102:A 0.000407319
11 *172:11 *185:13 0.0025622
12 *176:21 *185:13 0.00144934
*RES
1 S4END[1] *185:13 40.6515 
2 *185:13 *1102:A 43.1518 
*END

*D_NET *186 0.0110108
*CONN
*P S4END[2] I
*I *1101:A I *D sg13g2_buf_1
*CAP
1 S4END[2] 0.00143391
2 *1101:A 0.000340737
3 *186:13 0.00177464
4 *1101:A *1099:A 0
5 *1101:A *292:14 1.54008e-05
6 *186:13 *187:11 0
7 *186:13 *189:9 0.00252773
8 *186:13 *220:14 0.00139327
9 *186:13 *233:12 0.00183411
10 *186:13 *302:28 0
11 N4BEG[15] *1101:A 0.00017625
12 NN4BEG[0] *1101:A 7.9225e-05
13 NN4BEG[1] *1101:A 0.000207654
14 *157:10 *186:13 0.000600314
15 *164:17 *186:13 0.000287256
16 *175:27 *186:13 0.000340288
*RES
1 S4END[2] *186:13 42.1656 
2 *186:13 *1101:A 43.3681 
*END

*D_NET *187 0.00562132
*CONN
*P S4END[3] I
*I *1100:A I *D sg13g2_buf_1
*CAP
1 S4END[3] 0.00147799
2 *1100:A 0
3 *187:11 0.00147799
4 *187:11 *188:13 0
5 *187:11 *195:9 0.000767035
6 *187:11 *202:17 0.000606365
7 *187:11 *216:10 4.86123e-05
8 *164:17 *187:11 0.00124332
9 *186:13 *187:11 0
*RES
1 S4END[3] *187:11 35.7281 
2 *187:11 *1100:A 40 
*END

*D_NET *188 0.00976693
*CONN
*P S4END[4] I
*I *1099:A I *D sg13g2_buf_1
*CAP
1 S4END[4] 0.00178412
2 *1099:A 0.000203187
3 *188:13 0.00198731
4 *188:13 *1110:A 4.77425e-05
5 *188:13 *189:9 0
6 *188:13 *219:18 0.000340704
7 *188:13 *230:12 0
8 *188:13 *302:28 0.000335491
9 NN4BEG[0] *1099:A 0.000175693
10 NN4BEG[1] *1099:A 0.000272834
11 *1101:A *1099:A 0
12 *157:10 *188:13 0
13 *158:11 *188:13 0.00102658
14 *168:25 *188:13 0.00044038
15 *172:11 *188:13 0
16 *178:9 *188:13 0.00315289
17 *185:13 *188:13 0
18 *187:11 *188:13 0
*RES
1 S4END[4] *188:13 42.0111 
2 *188:13 *1099:A 42.1836 
*END

*D_NET *189 0.0086745
*CONN
*P S4END[5] I
*I *1098:A I *D sg13g2_buf_1
*CAP
1 S4END[5] 0.00102892
2 *1098:A 0.000137957
3 *189:9 0.00116687
4 *189:9 *1110:A 0.000112426
5 *189:9 *190:13 7.35191e-05
6 *189:9 *191:11 2.20966e-05
7 *189:9 *219:18 0.000393736
8 *189:9 *233:12 0
9 NN4BEG[11] *1098:A 0.000240264
10 NN4BEG[12] *1098:A 0.000240377
11 *178:9 *189:9 0.0027306
12 *186:13 *189:9 0.00252773
13 *188:13 *189:9 0
*RES
1 S4END[5] *189:9 37.0774 
2 *189:9 *1098:A 41.6171 
*END

*D_NET *190 0.0116138
*CONN
*P S4END[6] I
*I *1097:A I *D sg13g2_buf_1
*CAP
1 S4END[6] 0.000433222
2 *1097:A 0
3 *190:25 0.000262062
4 *190:17 0.00127755
5 *190:13 0.00144871
6 *190:13 *191:11 0
7 *190:13 *233:12 0.00018144
8 *190:13 *302:16 4.63914e-05
9 *190:17 *299:12 0
10 *190:17 *302:22 0.00399601
11 *190:25 *191:25 0.000947034
12 *190:25 *293:14 0.000920337
13 *25:17 *190:17 0.00202748
14 *189:9 *190:13 7.35191e-05
*RES
1 S4END[6] *190:13 43.9243 
2 *190:13 *190:17 38.3958 
3 *190:17 *190:25 44.841 
4 *190:25 *1097:A 40 
*END

*D_NET *191 0.0109921
*CONN
*P S4END[7] I
*I *1096:A I *D sg13g2_buf_1
*CAP
1 S4END[7] 0.000279062
2 *1096:A 0
3 *191:25 0.000711966
4 *191:15 0.0019205
5 *191:11 0.0014876
6 *191:11 *219:18 0.000234224
7 *191:15 *192:17 0
8 *191:15 *302:22 0
9 *191:25 *293:14 0
10 *191:25 *302:22 0.000143188
11 *191:25 *306:8 0.000340288
12 *191:25 *307:12 0
13 *23:19 *191:15 0.00206961
14 *150:10 *191:25 0.000446352
15 *158:17 *191:25 0
16 *168:13 *191:15 0
17 *175:15 *191:15 0.00239016
18 *189:9 *191:11 2.20966e-05
19 *190:13 *191:11 0
20 *190:25 *191:25 0.000947034
*RES
1 S4END[7] *191:11 42.7707 
2 *191:11 *191:15 38.8902 
3 *191:15 *191:25 48.4048 
4 *191:25 *1096:A 40 
*END

*D_NET *192 0.0105005
*CONN
*P S4END[8] I
*I *1095:A I *D sg13g2_buf_1
*CAP
1 S4END[8] 2.06114e-05
2 *1095:A 0.000301299
3 *192:23 0.000518434
4 *192:17 0.00152507
5 *192:9 0.00132855
6 *192:9 *1094:A 0
7 N4BEG[10] *1095:A 0.000369743
8 N4BEG[11] *1095:A 0.000472118
9 *131:12 *1095:A 4.77425e-05
10 *161:9 *192:23 0.00108273
11 *168:13 *192:17 0
12 *173:15 *192:17 0.00212112
13 *176:17 *192:17 0.00163329
14 *176:21 *192:23 0.00107975
15 *191:15 *192:17 0
*RES
1 S4END[8] *192:9 40.1648 
2 *192:9 *192:17 40.5485 
3 *192:17 *192:23 45.047 
4 *192:23 *1095:A 43.5844 
*END

*D_NET *193 0.000821342
*CONN
*P S4END[9] I
*I *1094:A I *D sg13g2_buf_1
*CAP
1 S4END[9] 0.000410671
2 *1094:A 0.000410671
3 *1094:A *1110:A 0
4 *1093:A *1094:A 0
5 *192:9 *1094:A 0
*RES
1 S4END[9] *1094:A 23.4093 
*END

*D_NET *194 0.00700666
*CONN
*P SS4END[0] I
*I *1119:A I *D sg13g2_buf_1
*CAP
1 SS4END[0] 0.00216988
2 *1119:A 0.000261704
3 *194:17 0.00243159
4 *194:17 *196:9 0
5 *194:17 *201:13 0
6 *194:17 *204:15 0.000393822
7 NN4BEG[12] *1119:A 0.000466768
8 NN4BEG[13] *1119:A 0.000466768
9 *1088:A *194:17 0
10 *161:9 *194:17 0.000816133
11 *185:13 *194:17 0
*RES
1 SS4END[0] *194:17 41.3519 
2 *194:17 *1119:A 43.1312 
*END

*D_NET *195 0.00677937
*CONN
*P SS4END[10] I
*I *1109:A I *D sg13g2_buf_1
*CAP
1 SS4END[10] 0.00141669
2 *1109:A 4.37077e-05
3 *195:9 0.0014604
4 *195:9 *196:9 0
5 *195:9 *197:7 0
6 *195:9 *201:13 0.00220055
7 *195:9 *202:17 0.000553661
8 *195:9 *207:13 0.000177157
9 *195:9 *208:11 0
10 *195:9 *209:9 0
11 *195:9 *220:14 0
12 *195:9 *233:14 0
13 *195:9 *237:12 0
14 *166:11 *1109:A 8.00842e-05
15 *167:15 *1109:A 8.00842e-05
16 *181:11 *195:9 0
17 *187:11 *195:9 0.000767035
*RES
1 SS4END[10] *195:9 37.8149 
2 *195:9 *1109:A 40.5356 
*END

*D_NET *196 0.00659886
*CONN
*P SS4END[11] I
*I *1108:A I *D sg13g2_buf_1
*CAP
1 SS4END[11] 0.000958514
2 *1108:A 0.000267015
3 *196:9 0.00122553
4 *1108:A *219:18 0.000272718
5 *196:9 *197:7 0
6 *196:9 *204:15 0.000818908
7 *196:9 *230:12 0.0028362
8 *178:9 *1108:A 0.000144768
9 *185:13 *196:9 7.52158e-05
10 *194:17 *196:9 0
11 *195:9 *196:9 0
*RES
1 SS4END[11] *196:9 34.0183 
2 *196:9 *1108:A 42.6986 
*END

*D_NET *197 0.0131881
*CONN
*P SS4END[12] I
*I *1107:A I *D sg13g2_buf_1
*CAP
1 SS4END[12] 0.00116477
2 *1107:A 0
3 *197:21 0.000830452
4 *197:15 0.00358295
5 *197:7 0.00391727
6 *197:7 *198:9 0
7 *197:7 *200:17 0
8 *197:7 *218:8 0
9 *197:15 *200:17 0
10 *197:15 *200:33 0
11 *197:15 *225:8 0
12 *197:15 *300:14 0.00249631
13 *197:21 *296:14 0
14 *158:17 *197:21 0
15 *163:17 *197:15 0.00119634
16 *167:19 *197:15 0
17 *174:15 *197:15 0
18 *195:9 *197:7 0
19 *196:9 *197:7 0
*RES
1 SS4END[12] *197:7 30.1146 
2 *197:7 *197:15 49.9421 
3 *197:15 *197:21 46.592 
4 *197:21 *1107:A 20 
*END

*D_NET *198 0.0104282
*CONN
*P SS4END[13] I
*I *1106:A I *D sg13g2_buf_1
*CAP
1 SS4END[13] 0.0015683
2 *1106:A 0.000184423
3 *198:9 0.00175272
4 *198:9 *199:9 0
5 *198:9 *200:17 0.000402688
6 *198:9 *205:11 0
7 *198:9 *232:10 0
8 *198:9 *236:14 0.0018368
9 *198:9 *249:12 0
10 *198:9 *309:14 0.0025797
11 *198:9 *310:16 0.00183123
12 *163:11 *1106:A 0
13 *165:15 *1106:A 0.000272337
14 *197:7 *198:9 0
*RES
1 SS4END[13] *198:9 42.9793 
2 *198:9 *1106:A 41.8334 
*END

*D_NET *199 0.0127334
*CONN
*P SS4END[14] I
*I *1105:A I *D sg13g2_buf_1
*CAP
1 SS4END[14] 0.00129882
2 *1105:A 0
3 *199:21 0.000822939
4 *199:15 0.00091028
5 *199:9 0.00138616
6 *199:9 *200:11 0
7 *199:9 *200:17 0.000467119
8 *199:9 *218:14 0
9 *199:9 *229:14 0
10 *199:9 *236:14 0.00184952
11 *199:21 *218:14 0
12 *199:21 *236:12 0.00237111
13 *199:21 *310:16 0.00306517
14 *199:21 *313:10 1.54008e-05
15 *199:21 *315:12 0
16 FrameStrobe_O[1] *199:9 0
17 *66:17 *199:9 0.000402348
18 *160:21 *199:21 0.000144542
19 *198:9 *199:9 0
*RES
1 SS4END[14] *199:9 34.5127 
2 *199:9 *199:15 41.0918 
3 *199:15 *199:21 35.1616 
4 *199:21 *1105:A 20 
*END

*D_NET *200 0.0162709
*CONN
*P SS4END[15] I
*I *1104:A I *D sg13g2_buf_1
*CAP
1 SS4END[15] 0.000447707
2 *1104:A 0
3 *200:41 0.000332866
4 *200:33 0.00251815
5 *200:27 0.00233609
6 *200:17 0.00130135
7 *200:11 0.00159825
8 *200:11 UserCLKo 0
9 *200:17 *225:8 0
10 *200:17 *308:16 0.000982983
11 *200:33 *308:14 0
12 *200:33 *308:16 0.00237343
13 *200:41 *219:22 0
14 *200:41 *291:8 0.000129356
15 *200:41 *293:14 0
16 *200:41 *314:8 0.000126354
17 *12:9 *200:33 0.00125376
18 *66:17 *200:17 0
19 *145:16 *200:33 0
20 *167:19 *200:33 0.00200083
21 *197:7 *200:17 0
22 *197:15 *200:17 0
23 *197:15 *200:33 0
24 *198:9 *200:17 0.000402688
25 *199:9 *200:11 0
26 *199:9 *200:17 0.000467119
*RES
1 SS4END[15] *200:11 43.8213 
2 *200:11 *200:17 32.6587 
3 *200:17 *200:27 41.6686 
4 *200:27 *200:33 48.325 
5 *200:33 *200:41 42.8943 
6 *200:41 *1104:A 20 
*END

*D_NET *201 0.00958009
*CONN
*P SS4END[1] I
*I *1118:A I *D sg13g2_buf_1
*CAP
1 SS4END[1] 0.00106584
2 *1118:A 7.13682e-05
3 *201:13 0.00113721
4 *201:13 *202:17 0
5 *201:13 *220:14 0.00357962
6 *1088:A *201:13 0
7 *160:21 *1118:A 4.77425e-05
8 *164:17 *201:13 0.00118946
9 *170:19 *1118:A 0.000112426
10 *183:13 *201:13 0.000175886
11 *194:17 *201:13 0
12 *195:9 *201:13 0.00220055
*RES
1 SS4END[1] *201:13 39.879 
2 *201:13 *1118:A 40.7519 
*END

*D_NET *202 0.00657096
*CONN
*P SS4END[2] I
*I *1117:A I *D sg13g2_buf_1
*CAP
1 SS4END[2] 0.00130456
2 *1117:A 0
3 *202:17 0.00130456
4 *202:17 *1116:A 0
5 *202:17 *216:10 0.000340704
6 *202:17 *237:12 0.00166974
7 *181:11 *202:17 0.000610099
8 *182:15 *202:17 0.00018128
9 *183:13 *202:17 0
10 *187:11 *202:17 0.000606365
11 *195:9 *202:17 0.000553661
12 *201:13 *202:17 0
*RES
1 SS4END[2] *202:17 37.2113 
2 *202:17 *1117:A 40 
*END

*D_NET *203 0.000805894
*CONN
*P SS4END[3] I
*I *1116:A I *D sg13g2_buf_1
*CAP
1 SS4END[3] 0.000402947
2 *1116:A 0.000402947
3 *1116:A *204:15 0
4 *1116:A *205:11 0
5 *183:13 *1116:A 0
6 *202:17 *1116:A 0
*RES
1 SS4END[3] *1116:A 23.2245 
*END

*D_NET *204 0.00354315
*CONN
*P SS4END[4] I
*I *1115:A I *D sg13g2_buf_1
*CAP
1 SS4END[4] 0.000771344
2 *1115:A 0
3 *204:15 0.000771344
4 *204:15 *205:11 0
5 *204:15 *301:10 0
6 *1088:A *204:15 0
7 *1116:A *204:15 0
8 *180:13 *204:15 0.000273026
9 *181:11 *204:15 0.000434619
10 *182:15 *204:15 8.00842e-05
11 *194:17 *204:15 0.000393822
12 *196:9 *204:15 0.000818908
*RES
1 SS4END[4] *204:15 49.4039 
2 *204:15 *1115:A 20 
*END

*D_NET *205 0.00142814
*CONN
*P SS4END[5] I
*I *1114:A I *D sg13g2_buf_1
*CAP
1 SS4END[5] 0.00071407
2 *1114:A 0
3 *205:11 0.00071407
4 *205:11 *1113:A 0
5 *205:11 *232:10 0
6 *205:11 *298:8 0
7 *205:11 *309:8 0
8 *1116:A *205:11 0
9 *198:9 *205:11 0
10 *204:15 *205:11 0
*RES
1 SS4END[5] *205:11 46.2315 
2 *205:11 *1114:A 20 
*END

*D_NET *206 0.00100206
*CONN
*P SS4END[6] I
*I *1113:A I *D sg13g2_buf_1
*CAP
1 SS4END[6] 0.000477274
2 *1113:A 0.000477274
3 *1113:A *207:13 0
4 *1113:A *208:11 0
5 *1113:A *220:8 4.75151e-05
6 *205:11 *1113:A 0
*RES
1 SS4END[6] *1113:A 24.2539 
*END

*D_NET *207 0.00145237
*CONN
*P SS4END[7] I
*I *1112:A I *D sg13g2_buf_1
*CAP
1 SS4END[7] 0.000493979
2 *1112:A 0
3 *207:13 0.000493979
4 *207:13 *208:11 0
5 *207:13 *219:8 0
6 *207:13 *233:14 0.000287256
7 *1113:A *207:13 0
8 *195:9 *207:13 0.000177157
*RES
1 SS4END[7] *207:13 44.8513 
2 *207:13 *1112:A 20 
*END

*D_NET *208 0.00135295
*CONN
*P SS4END[8] I
*I *1111:A I *D sg13g2_buf_1
*CAP
1 SS4END[8] 0.000571726
2 *1111:A 0
3 *208:11 0.000571726
4 *208:11 *209:9 0
5 *208:11 *219:8 0.000209499
6 *208:11 *233:14 0
7 *208:11 *237:12 0
8 *1113:A *208:11 0
9 *195:9 *208:11 0
10 *207:13 *208:11 0
*RES
1 SS4END[8] *208:11 45.2427 
2 *208:11 *1111:A 20 
*END

*D_NET *209 0.00617828
*CONN
*P SS4END[9] I
*I *1110:A I *D sg13g2_buf_1
*CAP
1 SS4END[9] 0.000590562
2 *1110:A 0.000246321
3 *209:9 0.000836883
4 *209:9 *219:18 0.00214586
5 *209:9 *230:12 0.00219848
6 *209:9 *233:14 0
7 *1094:A *1110:A 0
8 *188:13 *1110:A 4.77425e-05
9 *189:9 *1110:A 0.000112426
10 *195:9 *209:9 0
11 *208:11 *209:9 0
*RES
1 SS4END[9] *209:9 31.4845 
2 *209:9 *1110:A 42.266 
*END

*D_NET *210 0.0225179
*CONN
*P UserCLK I
*I *1120:A I *D sg13g2_buf_1
*CAP
1 UserCLK 0.00113565
2 *1120:A 0.000355425
3 *210:13 0.00363739
4 *210:11 0.00441761
5 *1049:A *1120:A 0
6 *13:5 *210:11 0
7 *13:5 *210:13 0
8 *68:9 *210:13 0.00221102
9 *70:15 *1120:A 0
10 *79:9 *210:13 0.0107608
*RES
1 UserCLK *210:11 33.4415 
2 *210:11 *210:13 56.7118 
3 *210:13 *1120:A 43.0488 
*END

*D_NET *211 0.000742929
*CONN
*P UserCLKo O
*I *1128:X O *D sg13g2_buf_1
*CAP
1 UserCLKo 0.000371464
2 *1128:X 0.000371464
3 UserCLKo *221:12 0
4 FrameStrobe_O[0] UserCLKo 0
5 *200:11 UserCLKo 0
*RES
1 *1128:X UserCLKo 23.1106 
*END

*D_NET *214 0.0131499
*CONN
*I *1121:A I *D sg13g2_buf_1
*I *1016:X O *D sg13g2_buf_1
*CAP
1 *1121:A 0
2 *1016:X 0.000131379
3 *214:14 0.00385324
4 *214:12 0.00476509
5 *214:8 0.00104324
6 *214:12 *241:8 0.00285412
7 *214:12 *262:10 0
8 *214:14 *241:8 0
9 *214:14 *244:12 0
10 *214:14 *262:10 0
11 *28:5 *214:12 0
12 *29:9 *214:12 0.000502791
*RES
1 *1016:X *214:8 41.1845 
2 *214:8 *214:12 15.2543 
3 *214:12 *214:14 36.1942 
4 *214:14 *1121:A 40 
*END

*D_NET *215 0.0113569
*CONN
*I *1122:A I *D sg13g2_buf_1
*I *1034:X O *D sg13g2_buf_1
*CAP
1 *1122:A 0.000224514
2 *1034:X 5.80404e-05
3 *215:10 0.00550791
4 *215:8 0.00534144
5 *1122:A *1129:A 0
6 *1122:A *1193:A 0
7 *1122:A *1204:A 4.77425e-05
8 *215:10 *222:10 0
9 *215:10 *222:12 0
10 *215:10 *297:8 0
11 FrameData_O[17] *1122:A 0.000177272
12 FrameData_O[17] *215:10 0
13 *166:15 *215:10 0
*RES
1 *1034:X *215:8 40.5356 
2 *215:8 *215:10 50.2846 
3 *215:10 *1122:A 42.3999 
*END

*D_NET *216 0.00711188
*CONN
*I *1123:A I *D sg13g2_buf_1
*I *1109:X O *D sg13g2_buf_1
*CAP
1 *1123:A 0.000613317
2 *1109:X 0.00105582
3 *216:10 0.00166914
4 *1123:A *1222:A 0
5 *1123:A *1224:A 0
6 *1123:A *293:14 0.00139361
7 *216:10 *219:22 0
8 *216:10 *237:12 0.000128247
9 *216:10 *314:8 0.000181027
10 NN4BEG[1] *1123:A 0.000144795
11 NN4BEG[2] *1123:A 0.000144768
12 NN4BEG[3] *1123:A 0
13 *164:17 *1123:A 0.00139183
14 *187:11 *216:10 4.86123e-05
15 *202:17 *216:10 0.000340704
*RES
1 *1109:X *216:10 49.2597 
2 *216:10 *1123:A 49.3936 
*END

*D_NET *217 0.00787607
*CONN
*I *1124:A I *D sg13g2_buf_1
*I *1110:X O *D sg13g2_buf_1
*CAP
1 *1124:A 0
2 *1110:X 0.000630236
3 *217:16 0.000819088
4 *217:12 0.00144932
5 *217:12 *228:8 0
6 *217:12 *232:8 0
7 *217:12 *300:8 0
8 *217:12 *303:10 0.000661118
9 *217:12 *318:8 0
10 *217:12 *318:14 0
11 *217:16 *218:14 0
12 *217:16 *315:12 0.00130632
13 *217:16 *316:16 0
14 *217:16 *318:14 0.00300998
*RES
1 *1110:X *217:12 46.7362 
2 *217:12 *217:16 33.9462 
3 *217:16 *1124:A 20 
*END

*D_NET *218 0.0113946
*CONN
*I *1125:A I *D sg13g2_buf_1
*I *1111:X O *D sg13g2_buf_1
*CAP
1 *1125:A 0
2 *1111:X 0.00032319
3 *218:14 0.00225542
4 *218:8 0.00257861
5 *218:14 *1224:A 0
6 *218:14 *229:12 0
7 *218:14 *229:14 0
8 *218:14 *236:12 0.00246716
9 *218:14 *236:14 0
10 *218:14 *301:18 0.00145848
11 *218:14 *303:10 0
12 *218:14 *310:16 0
13 *218:14 *316:16 0.00231168
14 NN4BEG[7] *218:14 0
15 *159:31 *218:14 0
16 *197:7 *218:8 0
17 *199:9 *218:14 0
18 *199:21 *218:14 0
19 *217:16 *218:14 0
*RES
1 *1111:X *218:8 42.6986 
2 *218:8 *218:14 48.2632 
3 *218:14 *1125:A 20 
*END

*D_NET *219 0.0127178
*CONN
*I *1126:A I *D sg13g2_buf_1
*I *1112:X O *D sg13g2_buf_1
*CAP
1 *1126:A 0.00011249
2 *1112:X 0.000141653
3 *219:22 0.00175678
4 *219:18 0.00253828
5 *219:8 0.00103565
6 *1126:A *1224:A 0
7 *219:18 *233:12 0
8 *219:18 *233:14 0.000499885
9 *219:22 *237:12 0.000767521
10 *219:22 *291:8 0.000339657
11 *219:22 *307:12 0.000332295
12 *219:22 *311:18 0.000397229
13 *219:22 *312:10 0
14 *219:22 *314:8 0.000337884
15 NN4BEG[5] *1126:A 0.000111114
16 NN4BEG[6] *1126:A 0.000175648
17 *1108:A *219:18 0.000272718
18 *170:19 *219:22 0
19 *180:13 *219:18 0.000234224
20 *183:13 *219:18 0.000340704
21 *188:13 *219:18 0.000340704
22 *189:9 *219:18 0.000393736
23 *191:11 *219:18 0.000234224
24 *200:41 *219:22 0
25 *207:13 *219:8 0
26 *208:11 *219:8 0.000209499
27 *209:9 *219:18 0.00214586
28 *216:10 *219:22 0
*RES
1 *1112:X *219:8 41.4008 
2 *219:8 *219:18 34.626 
3 *219:18 *219:22 36.171 
4 *219:22 *1126:A 41.1845 
*END

*D_NET *220 0.0141355
*CONN
*I *1127:A I *D sg13g2_buf_1
*I *1113:X O *D sg13g2_buf_1
*CAP
1 *1127:A 0
2 *1113:X 3.17324e-05
3 *220:14 0.00160203
4 *220:8 0.00163376
5 *220:14 *233:12 0.00373956
6 *220:14 *233:14 0
7 NN4BEG[2] *220:14 0.00014454
8 NN4BEG[3] *220:14 0.00014454
9 *1113:A *220:8 4.75151e-05
10 *164:17 *220:14 0.00181888
11 *186:13 *220:14 0.00139327
12 *195:9 *220:14 0
13 *201:13 *220:14 0.00357962
*RES
1 *1113:X *220:8 40.3193 
2 *220:8 *220:14 49.252 
3 *220:14 *1127:A 20 
*END

*D_NET *221 0.00686895
*CONN
*I *1128:A I *D sg13g2_buf_1
*I *1120:X O *D sg13g2_buf_1
*CAP
1 *1128:A 0
2 *1120:X 0.00228307
3 *221:12 0.00228307
4 *221:12 *250:6 0
5 *221:12 *258:10 0
6 FrameStrobe_O[1] *221:12 0
7 UserCLKo *221:12 0
8 *66:17 *221:12 0.00230281
*RES
1 *1120:X *221:12 42.9072 
2 *221:12 *1128:A 20 
*END

*D_NET *222 0.017597
*CONN
*I *1129:A I *D sg13g2_buf_1
*I *1035:X O *D sg13g2_buf_1
*CAP
1 *1129:A 0.000273199
2 *1035:X 0
3 *222:12 0.00261678
4 *222:10 0.00365879
5 *222:6 0.0013152
6 *1129:A *1132:A 2.4729e-05
7 *222:10 *308:14 0.000823144
8 *222:10 *308:16 0
9 *222:12 *225:8 0
10 *222:12 *308:16 0.00802293
11 FrameData_O[17] *222:12 0
12 FrameData_O[19] *1129:A 0.000208704
13 FrameData_O[20] *222:12 0
14 FrameData_O[21] *1129:A 3.8639e-05
15 *1122:A *1129:A 0
16 *166:15 *222:10 0.000614926
17 *215:10 *222:10 0
18 *215:10 *222:12 0
*RES
1 *1035:X *222:6 40 
2 *222:6 *222:10 15.2543 
3 *222:10 *222:12 38.419 
4 *222:12 *1129:A 42.9355 
*END

*D_NET *223 0.0173989
*CONN
*I *1130:A I *D sg13g2_buf_1
*I *1017:X O *D sg13g2_buf_1
*CAP
1 *1130:A 0.00010646
2 *1017:X 2.52976e-05
3 *223:10 0.00352294
4 *223:8 0.00344178
5 *223:8 *238:12 0
6 *223:10 *238:12 0
7 *223:10 *238:14 0.0103024
8 *24:9 *223:10 0
9 *67:9 *223:10 0
10 *71:13 *223:10 0
11 *74:9 *223:10 0
12 *77:9 *223:10 0
*RES
1 *1017:X *223:8 40.3193 
2 *223:8 *223:10 48.0598 
3 *223:10 *1130:A 40.9682 
*END

*D_NET *224 0.0136886
*CONN
*I *1131:A I *D sg13g2_buf_1
*I *1036:X O *D sg13g2_buf_1
*CAP
1 *1131:A 0
2 *1036:X 0.000170369
3 *224:14 0.00373632
4 *224:12 0.00509659
5 *224:8 0.00153064
6 *224:12 *225:8 0
7 *224:12 *226:14 0.0025277
8 *224:12 *234:16 0
9 *224:14 *225:8 0
10 *224:14 *227:8 0
11 *224:14 *234:16 0
12 *224:14 *247:14 0.0003919
13 *165:15 *224:12 0
14 *174:15 *224:12 0.000235055
*RES
1 *1036:X *224:8 41.4008 
2 *224:8 *224:12 16.9847 
3 *224:12 *224:14 37.183 
4 *224:14 *1131:A 40 
*END

*D_NET *225 0.013882
*CONN
*I *1132:A I *D sg13g2_buf_1
*I *1037:X O *D sg13g2_buf_1
*CAP
1 *1132:A 0.000279226
2 *1037:X 0
3 *225:8 0.00491682
4 *225:6 0.0046376
5 *1132:A *1134:A 0
6 *225:8 *226:14 0.00231675
7 *225:8 *227:8 0
8 *225:8 *300:14 0.00157971
9 *225:8 *308:16 0
10 FrameData_O[20] *1132:A 1.54008e-05
11 FrameData_O[20] *225:8 0
12 FrameData_O[21] *1132:A 0
13 FrameData_O[22] *1132:A 0.0001118
14 *1129:A *1132:A 2.4729e-05
15 *197:15 *225:8 0
16 *200:17 *225:8 0
17 *222:12 *225:8 0
18 *224:12 *225:8 0
19 *224:14 *225:8 0
*RES
1 *1037:X *225:6 40 
2 *225:6 *225:8 52.2622 
3 *225:8 *1132:A 42.8325 
*END

*D_NET *226 0.0228087
*CONN
*I *1133:A I *D sg13g2_buf_1
*I *1038:X O *D sg13g2_buf_1
*CAP
1 *1133:A 0
2 *1038:X 2.61126e-05
3 *226:18 0.00319325
4 *226:16 0.00319325
5 *226:14 0.000742042
6 *226:8 0.000768155
7 *226:18 *227:8 0.00882364
8 *226:18 *229:12 0.000823472
9 *226:18 *229:14 0
10 *226:18 *267:14 0.000394283
11 *224:12 *226:14 0.0025277
12 *225:8 *226:14 0.00231675
*RES
1 *1038:X *226:8 40.3193 
2 *226:8 *226:14 33.9874 
3 *226:14 *226:16 20 
4 *226:16 *226:18 40.891 
5 *226:18 *1133:A 40 
*END

*D_NET *227 0.0223247
*CONN
*I *1134:A I *D sg13g2_buf_1
*I *1039:X O *D sg13g2_buf_1
*CAP
1 *1134:A 0.000293794
2 *1039:X 0
3 *227:8 0.00251161
4 *227:6 0.00221782
5 *1134:A *1136:A 0
6 *227:8 *228:8 0.00823573
7 *227:8 *229:12 0
8 *227:8 *229:14 0
9 *227:8 *234:16 0
10 *227:8 *303:10 0
11 FrameData_O[22] *227:8 0
12 FrameData_O[23] *1134:A 0.000242098
13 FrameData_O[25] *1134:A 0
14 *1132:A *1134:A 0
15 *224:14 *227:8 0
16 *225:8 *227:8 0
17 *226:18 *227:8 0.00882364
*RES
1 *1039:X *227:6 40 
2 *227:6 *227:8 46.3294 
3 *227:8 *1134:A 42.8325 
*END

*D_NET *228 0.0188101
*CONN
*I *1135:A I *D sg13g2_buf_1
*I *1040:X O *D sg13g2_buf_1
*CAP
1 *1135:A 0
2 *1040:X 0
3 *228:16 0.000950465
4 *228:8 0.00414983
5 *228:6 0.00319937
6 *228:8 *234:16 0
7 *228:8 *281:18 0.000978167
8 *228:8 *303:10 0
9 *228:8 *318:14 0.00129652
10 *228:16 *229:14 0
11 *228:16 *232:10 0
12 *228:16 *236:14 0
13 FrameData_O[27] *228:16 0
14 FrameData_O[28] *228:16 0
15 *217:12 *228:8 0
16 *227:8 *228:8 0.00823573
*RES
1 *1040:X *228:6 40 
2 *228:6 *228:8 46.3294 
3 *228:8 *228:16 49.7232 
4 *228:16 *1135:A 40 
*END

*D_NET *229 0.0124104
*CONN
*I *1136:A I *D sg13g2_buf_1
*I *1041:X O *D sg13g2_buf_1
*CAP
1 *1136:A 0.00038448
2 *1041:X 0.000688492
3 *229:14 0.00455243
4 *229:12 0.00485644
5 *1136:A *1137:A 0
6 *1136:A *1141:A 0
7 *229:12 *300:8 8.01995e-05
8 *229:12 *301:18 0
9 *229:12 *303:10 0.000235556
10 *229:14 *236:14 0
11 *229:14 *250:10 0
12 *229:14 *267:14 0.00039276
13 FrameData_O[24] *1136:A 0.000144843
14 FrameData_O[24] *229:14 7.52149e-05
15 FrameData_O[25] *1136:A 0
16 FrameData_O[26] *1136:A 0.000176511
17 FrameData_O[29] *1136:A 0
18 *1134:A *1136:A 0
19 *199:9 *229:14 0
20 *218:14 *229:12 0
21 *218:14 *229:14 0
22 *226:18 *229:12 0.000823472
23 *226:18 *229:14 0
24 *227:8 *229:12 0
25 *227:8 *229:14 0
26 *228:16 *229:14 0
*RES
1 *1041:X *229:12 47.8795 
2 *229:12 *229:14 37.9246 
3 *229:14 *1136:A 43.914 
*END

*D_NET *230 0.0170966
*CONN
*I *1137:A I *D sg13g2_buf_1
*I *1042:X O *D sg13g2_buf_1
*CAP
1 *1137:A 0.00024441
2 *1042:X 0.000465702
3 *230:12 0.00474169
4 *230:10 0.00496298
5 *230:10 *234:14 0
6 *230:12 *233:14 0
7 FrameData_O[29] *1137:A 0.000176585
8 FrameData_O[30] *230:12 0
9 FrameData_O[31] *1137:A 0
10 FrameData_O[31] *230:12 0
11 *1136:A *1137:A 0
12 *171:13 *230:10 0
13 *172:11 *230:10 1.53561e-05
14 *185:13 *230:12 0.0014552
15 *188:13 *230:12 0
16 *196:9 *230:12 0.0028362
17 *209:9 *230:12 0.00219848
*RES
1 *1042:X *230:10 44.1303 
2 *230:10 *230:12 53.7454 
3 *230:12 *1137:A 42.4823 
*END

*D_NET *231 0.0159251
*CONN
*I *1138:A I *D sg13g2_buf_1
*I *1026:X O *D sg13g2_buf_1
*CAP
1 *1138:A 0
2 *1026:X 7.48428e-05
3 *231:20 0.00133916
4 *231:14 0.00364163
5 *231:10 0.00237731
6 *231:14 *243:8 0
7 *231:14 *245:8 0.00836289
8 *231:20 *1152:A 0
9 *231:20 *243:8 0
10 *231:20 *245:8 0
11 FrameData_O[10] *231:20 0
12 FrameData_O[7] *231:20 0
13 FrameData_O[9] *231:20 0.000129281
14 *32:9 *231:14 0
*RES
1 *1026:X *231:10 40.6695 
2 *231:10 *231:14 38.7383 
3 *231:14 *231:20 33.184 
4 *231:20 *1138:A 20 
*END

*D_NET *232 0.0111233
*CONN
*I *1139:A I *D sg13g2_buf_1
*I *1043:X O *D sg13g2_buf_1
*CAP
1 *1139:A 0.000113288
2 *1043:X 3.02867e-05
3 *232:10 0.00471585
4 *232:8 0.00463284
5 *232:8 *300:8 4.74703e-05
6 *232:10 *236:14 0
7 *232:10 *237:12 0
8 *232:10 *249:12 0
9 *232:10 *309:14 0
10 *232:10 *311:18 0.00140683
11 FrameData_O[28] *232:10 0
12 FrameData_O[29] *1139:A 0
13 FrameData_O[31] *1139:A 0.000176714
14 *198:9 *232:10 0
15 *205:11 *232:10 0
16 *217:12 *232:8 0
17 *228:16 *232:10 0
*RES
1 *1043:X *232:8 40.3193 
2 *232:8 *232:10 43.6102 
3 *232:10 *1139:A 41.1845 
*END

*D_NET *233 0.0166341
*CONN
*I *1140:A I *D sg13g2_buf_1
*I *1044:X O *D sg13g2_buf_1
*CAP
1 *1140:A 0.000197308
2 *1044:X 5.80582e-05
3 *233:14 0.00333988
4 *233:12 0.00418761
5 *233:8 0.0011031
6 *1140:A *1143:A 0
7 *233:14 *246:8 0
8 FrameData_O[28] *1140:A 0
9 FrameData_O[30] *1140:A 0
10 FrameData_O[30] *233:14 0.00012816
11 FrameData_O[31] *1140:A 0
12 *86:8 *233:14 0
13 *90:12 *233:14 0.000605197
14 *98:10 *233:14 0.00039332
15 *171:13 *233:8 7.9225e-05
16 *180:13 *233:12 0
17 *183:13 *233:12 0
18 *186:13 *233:12 0.00183411
19 *189:9 *233:12 0
20 *190:13 *233:12 0.00018144
21 *195:9 *233:14 0
22 *207:13 *233:14 0.000287256
23 *208:11 *233:14 0
24 *209:9 *233:14 0
25 *219:18 *233:12 0
26 *219:18 *233:14 0.000499885
27 *220:14 *233:12 0.00373956
28 *220:14 *233:14 0
29 *230:12 *233:14 0
*RES
1 *1044:X *233:8 40.5356 
2 *233:8 *233:12 18.1589 
3 *233:12 *233:14 35.2054 
4 *233:14 *1140:A 41.8334 
*END

*D_NET *234 0.0130247
*CONN
*I *1141:A I *D sg13g2_buf_1
*I *1045:X O *D sg13g2_buf_1
*CAP
1 *1141:A 0.000348148
2 *1045:X 0.000630248
3 *234:16 0.00565017
4 *234:14 0.00593227
5 *1141:A *1143:A 0
6 *234:16 *247:14 0
7 *234:16 *281:18 0
8 FrameData_O[22] *1141:A 0
9 FrameData_O[24] *1141:A 0
10 *1040:A *234:14 0
11 *1136:A *1141:A 0
12 *165:15 *234:16 0
13 *174:11 *234:14 0.000175693
14 *177:15 *234:16 0.000288173
15 *224:12 *234:16 0
16 *224:14 *234:16 0
17 *227:8 *234:16 0
18 *228:8 *234:16 0
19 *230:10 *234:14 0
*RES
1 *1045:X *234:14 45.4487 
2 *234:14 *234:16 52.015 
3 *234:16 *1141:A 43.2595 
*END

*D_NET *235 0.0236345
*CONN
*I *1142:A I *D sg13g2_buf_1
*I *1018:X O *D sg13g2_buf_1
*CAP
1 *1142:A 5.70062e-05
2 *1018:X 6.46837e-05
3 *235:12 0.00214558
4 *235:10 0.00215326
5 *235:10 *239:8 0
6 *235:10 *240:10 0
7 *235:12 *238:14 0.0103271
8 *235:12 *239:14 0.00888692
9 *235:12 *240:12 0
10 *28:5 *235:12 0
*RES
1 *1018:X *235:10 40.6695 
2 *235:10 *235:12 47.8126 
3 *235:12 *1142:A 40.5356 
*END

*D_NET *236 0.0175059
*CONN
*I *1143:A I *D sg13g2_buf_1
*I *1046:X O *D sg13g2_buf_1
*CAP
1 *1143:A 0.000259704
2 *1046:X 0.000249932
3 *236:14 0.00352247
4 *236:12 0.00379623
5 *236:8 0.000783396
6 *1143:A *1144:A 0
7 *236:14 *249:12 0
8 *236:14 *250:10 0
9 FrameData_O[28] *1143:A 0
10 FrameData_O[31] *1143:A 0
11 *1140:A *1143:A 0
12 *1141:A *1143:A 0
13 *174:11 *236:8 0.000369561
14 *177:11 *236:8 0
15 *198:9 *236:14 0.0018368
16 *199:9 *236:14 0.00184952
17 *199:21 *236:12 0.00237111
18 *218:14 *236:12 0.00246716
19 *218:14 *236:14 0
20 *228:16 *236:14 0
21 *229:14 *236:14 0
22 *232:10 *236:14 0
*RES
1 *1046:X *236:8 42.4823 
2 *236:8 *236:12 12.0098 
3 *236:12 *236:14 38.1718 
4 *236:14 *1143:A 42.4823 
*END

*D_NET *237 0.0143433
*CONN
*I *1144:A I *D sg13g2_buf_1
*I *1047:X O *D sg13g2_buf_1
*CAP
1 *1144:A 0.00013816
2 *1047:X 0
3 *237:12 0.0049483
4 *237:6 0.00481014
5 *237:12 *246:8 0.000663498
6 *237:12 *252:8 0
7 *237:12 *261:8 0
8 *237:12 *302:10 0.000555481
9 *237:12 *311:18 0
10 FrameData_O[26] *1144:A 0
11 FrameData_O[31] *1144:A 0
12 *1143:A *1144:A 0
13 *88:8 *237:12 0.000662218
14 *104:10 *237:12 0
15 *182:15 *237:12 0
16 *195:9 *237:12 0
17 *202:17 *237:12 0.00166974
18 *208:11 *237:12 0
19 *216:10 *237:12 0.000128247
20 *219:22 *237:12 0.000767521
21 *232:10 *237:12 0
*RES
1 *1047:X *237:6 40 
2 *237:6 *237:12 48.4821 
3 *237:12 *1144:A 41.1845 
*END

*D_NET *238 0.0260365
*CONN
*I *1145:A I *D sg13g2_buf_1
*I *1019:X O *D sg13g2_buf_1
*CAP
1 *1145:A 7.50432e-05
2 *1019:X 0.000574561
3 *238:14 0.0020727
4 *238:12 0.00257222
5 *238:14 *239:14 0
6 FrameData_O[0] *1145:A 0.000112541
7 FrameData_O[1] *238:14 0
8 FrameData_O[2] *238:14 0
9 FrameData_O[3] *1145:A 0
10 *2:13 *238:12 0
11 *24:9 *238:12 0
12 *28:5 *238:12 0
13 *223:8 *238:12 0
14 *223:10 *238:12 0
15 *223:10 *238:14 0.0103024
16 *235:12 *238:14 0.0103271
*RES
1 *1019:X *238:12 45.9328 
2 *238:12 *238:14 49.2958 
3 *238:14 *1145:A 40.7519 
*END

*D_NET *239 0.0179806
*CONN
*I *1146:A I *D sg13g2_buf_1
*I *1020:X O *D sg13g2_buf_1
*CAP
1 *1146:A 0
2 *1020:X 5.72812e-05
3 *239:14 0.00290596
4 *239:8 0.00296324
5 *239:14 *240:12 0
6 *239:14 *241:8 0
7 *239:14 *251:8 0
8 *239:14 *259:8 0
9 FrameData_O[3] *239:14 0.000128663
10 *70:15 *239:14 0.000288173
11 *75:9 *239:14 0.00275034
12 *235:10 *239:8 0
13 *235:12 *239:14 0.00888692
14 *238:14 *239:14 0
*RES
1 *1020:X *239:8 40.5356 
2 *239:8 *239:14 48.2349 
3 *239:14 *1146:A 40 
*END

*D_NET *240 0.017191
*CONN
*I *1147:A I *D sg13g2_buf_1
*I *1021:X O *D sg13g2_buf_1
*CAP
1 *1147:A 7.11994e-05
2 *1021:X 7.30432e-05
3 *240:12 0.00315904
4 *240:10 0.00316089
5 *1147:A *1148:A 0
6 *240:12 *241:8 0.0106793
7 *240:12 *251:8 0
8 *240:12 *259:8 0
9 FrameData_O[0] *1147:A 4.75166e-05
10 *28:5 *240:12 0
11 *70:15 *240:12 0
12 *75:9 *240:12 0
13 *235:10 *240:10 0
14 *235:12 *240:12 0
15 *239:14 *240:12 0
*RES
1 *1021:X *240:10 40.6695 
2 *240:10 *240:12 49.0486 
3 *240:12 *1147:A 40.7519 
*END

*D_NET *241 0.0211532
*CONN
*I *1148:A I *D sg13g2_buf_1
*I *1022:X O *D sg13g2_buf_1
*CAP
1 *1148:A 5.37247e-05
2 *1022:X 0
3 *241:8 0.00374556
4 *241:6 0.00369183
5 *241:8 *244:12 0
6 FrameData_O[5] *241:8 0.000128662
7 *1147:A *1148:A 0
8 *28:5 *241:8 0
9 *214:12 *241:8 0.00285412
10 *214:14 *241:8 0
11 *239:14 *241:8 0
12 *240:12 *241:8 0.0106793
*RES
1 *1022:X *241:6 40 
2 *241:6 *241:8 51.2734 
3 *241:8 *1148:A 40.5356 
*END

*D_NET *242 0.0170701
*CONN
*I *1149:A I *D sg13g2_buf_1
*I *1027:X O *D sg13g2_buf_1
*CAP
1 *1149:A 9.70891e-05
2 *1027:X 7.85488e-05
3 *242:12 0.00338751
4 *242:10 0.00336897
5 *1149:A *1160:A 0
6 *242:12 *245:8 0
7 *242:12 *253:8 0.010138
8 *242:12 *266:10 0
*RES
1 *1027:X *242:10 40.6695 
2 *242:10 *242:12 46.5766 
3 *242:12 *1149:A 40.9682 
*END

*D_NET *243 0.0170637
*CONN
*I *1150:A I *D sg13g2_buf_1
*I *1023:X O *D sg13g2_buf_1
*CAP
1 *1150:A 6.84602e-05
2 *1023:X 0
3 *243:8 0.00364976
4 *243:6 0.0035813
5 *1150:A *1151:A 0
6 *243:8 *244:12 0.00976416
7 *243:8 *262:10 0
8 *32:9 *243:8 0
9 *231:14 *243:8 0
10 *231:20 *243:8 0
*RES
1 *1023:X *243:6 40 
2 *243:6 *243:8 54.487 
3 *243:8 *1150:A 40.7519 
*END

*D_NET *244 0.0165563
*CONN
*I *1151:A I *D sg13g2_buf_1
*I *1024:X O *D sg13g2_buf_1
*CAP
1 *1151:A 9.41318e-05
2 *1024:X 7.48428e-05
3 *244:12 0.0032566
4 *244:10 0.00323731
5 *244:12 *262:10 0
6 FrameData_O[5] *244:12 0
7 FrameData_O[7] *244:12 0.000129281
8 *1150:A *1151:A 0
9 *214:14 *244:12 0
10 *241:8 *244:12 0
11 *243:8 *244:12 0.00976416
*RES
1 *1024:X *244:10 40.6695 
2 *244:10 *244:12 45.835 
3 *244:12 *1151:A 40.9682 
*END

*D_NET *245 0.0160067
*CONN
*I *1152:A I *D sg13g2_buf_1
*I *1025:X O *D sg13g2_buf_1
*CAP
1 *1152:A 5.05675e-05
2 *1025:X 0
3 *245:8 0.00382192
4 *245:6 0.00377135
5 *245:8 *266:10 0
6 *3:9 *245:8 0
7 *32:9 *245:8 0
8 *66:9 *245:8 0
9 *231:14 *245:8 0.00836289
10 *231:20 *1152:A 0
11 *231:20 *245:8 0
12 *242:12 *245:8 0
*RES
1 *1025:X *245:6 40 
2 *245:6 *245:8 52.5094 
3 *245:8 *1152:A 40.5356 
*END

*D_NET *246 0.00143442
*CONN
*I *1153:A I *D sg13g2_buf_1
*I *1048:X O *D sg13g2_buf_1
*CAP
1 *1153:A 5.05471e-05
2 *1048:X 0.000177495
3 *246:8 0.000228042
4 *246:8 *261:8 0.000234726
5 FrameStrobe_O[3] *1153:A 0
6 FrameStrobe_O[5] *1153:A 8.01118e-05
7 *86:8 *246:8 0
8 *233:14 *246:8 0
9 *237:12 *246:8 0.000663498
*RES
1 *1048:X *246:8 43.0694 
2 *246:8 *1153:A 40.5356 
*END

*D_NET *247 0.0063897
*CONN
*I *1154:A I *D sg13g2_buf_1
*I *1058:X O *D sg13g2_buf_1
*CAP
1 *1154:A 0
2 *1058:X 0.00151154
3 *247:14 0.000479413
4 *247:6 0.00199095
5 *247:6 *1172:A 0.000889183
6 *247:6 *248:10 0
7 *247:6 *267:6 0
8 *247:14 *248:10 0.000563361
9 *247:14 *266:16 0.000563361
10 *224:14 *247:14 0.0003919
11 *234:16 *247:14 0
*RES
1 *1058:X *247:6 27.3291 
2 *247:6 *247:14 45.6135 
3 *247:14 *1154:A 20 
*END

*D_NET *248 0.0057977
*CONN
*I *1155:A I *D sg13g2_buf_1
*I *1059:X O *D sg13g2_buf_1
*CAP
1 *1155:A 0
2 *1059:X 0.00219971
3 *248:16 0.000299973
4 *248:10 0.00249968
5 *248:10 *1172:A 0
6 *248:10 *266:16 0
7 *248:10 *267:14 0
8 *248:16 *252:8 0.000234977
9 FrameStrobe_O[10] *248:10 0
10 FrameStrobe_O[11] *248:10 0
11 *1063:A *248:10 0
12 *88:8 *248:16 0
13 *90:12 *248:16 0
14 *92:10 *248:16 0
15 *94:10 *248:16 0
16 *247:6 *248:10 0
17 *247:14 *248:10 0.000563361
*RES
1 *1059:X *248:10 41.5682 
2 *248:10 *248:16 43.0694 
3 *248:16 *1155:A 20 
*END

*D_NET *249 0.00695943
*CONN
*I *1156:A I *D sg13g2_buf_1
*I *1060:X O *D sg13g2_buf_1
*CAP
1 *1156:A 0
2 *1060:X 0.0020225
3 *249:12 0.00145722
4 *249:6 0.00347972
5 *198:9 *249:12 0
6 *232:10 *249:12 0
7 *236:14 *249:12 0
*RES
1 *1060:X *249:6 38.9211 
2 *249:6 *249:12 33.2767 
3 *249:12 *1156:A 40 
*END

*D_NET *250 0.0078777
*CONN
*I *1157:A I *D sg13g2_buf_1
*I *1061:X O *D sg13g2_buf_1
*CAP
1 *1157:A 0
2 *1061:X 0.00200412
3 *250:18 0.000346024
4 *250:10 0.00167877
5 *250:6 0.00333686
6 *250:6 *258:10 0
7 *250:18 *252:8 0.000127823
8 *250:18 *255:14 0
9 *250:18 *256:8 0.000176106
10 *95:12 *250:18 0.000208001
11 *221:12 *250:6 0
12 *229:14 *250:10 0
13 *236:14 *250:10 0
*RES
1 *1061:X *250:6 31.9575 
2 *250:6 *250:10 30.9798 
3 *250:10 *250:18 43.5123 
4 *250:18 *1157:A 40 
*END

*D_NET *251 0.00626739
*CONN
*I *1158:A I *D sg13g2_buf_1
*I *1062:X O *D sg13g2_buf_1
*CAP
1 *1158:A 0
2 *1062:X 0.000186698
3 *251:12 0.00181224
4 *251:8 0.00199894
5 *251:12 *256:8 0
6 *1063:A *251:12 0.00226951
7 *239:14 *251:8 0
8 *240:12 *251:8 0
*RES
1 *1062:X *251:8 41.8334 
2 *251:8 *251:12 39.1374 
3 *251:12 *1158:A 20 
*END

*D_NET *252 0.00114228
*CONN
*I *1159:A I *D sg13g2_buf_1
*I *1063:X O *D sg13g2_buf_1
*CAP
1 *1159:A 3.7512e-05
2 *1063:X 0.000287733
3 *252:8 0.000325245
4 *1159:A *255:14 0
5 *88:8 *252:8 0.000128991
6 *237:12 *252:8 0
7 *248:16 *252:8 0.000234977
8 *250:18 *252:8 0.000127823
*RES
1 *1063:X *252:8 43.0694 
2 *252:8 *1159:A 40.3193 
*END

*D_NET *253 0.017964
*CONN
*I *1160:A I *D sg13g2_buf_1
*I *1028:X O *D sg13g2_buf_1
*CAP
1 *1160:A 7.7493e-05
2 *1028:X 0
3 *253:8 0.00336271
4 *253:6 0.00328522
5 *253:8 *257:16 0
6 *253:8 *266:10 0
7 *253:8 *286:12 0
8 FrameData_O[11] *253:8 0
9 FrameData_O[12] *1160:A 0
10 *1149:A *1160:A 0
11 *4:9 *253:8 0.00110057
12 *242:12 *253:8 0.010138
*RES
1 *1028:X *253:6 40 
2 *253:6 *253:8 53.251 
3 *253:8 *1160:A 40.7519 
*END

*D_NET *254 0.0070392
*CONN
*I *1161:A I *D sg13g2_buf_1
*I *1064:X O *D sg13g2_buf_1
*CAP
1 *1161:A 0
2 *1064:X 0.00179467
3 *254:14 0.000301689
4 *254:8 0.00209636
5 *254:8 *255:14 0.00284647
6 *254:8 *257:16 0
*RES
1 *1064:X *254:8 39.4876 
2 *254:8 *254:14 42.8222 
3 *254:14 *1161:A 20 
*END

*D_NET *255 0.00741701
*CONN
*I *1162:A I *D sg13g2_buf_1
*I *1065:X O *D sg13g2_buf_1
*CAP
1 *1162:A 0
2 *1065:X 0.000286437
3 *255:14 0.00199883
4 *255:8 0.00228527
5 *255:14 *256:8 0
6 *255:14 *257:16 0
7 *1159:A *255:14 0
8 *250:18 *255:14 0
9 *254:8 *255:14 0.00284647
*RES
1 *1065:X *255:8 42.575 
2 *255:8 *255:14 41.218 
3 *255:14 *1162:A 20 
*END

*D_NET *256 0.00418771
*CONN
*I *1163:A I *D sg13g2_buf_1
*I *1066:X O *D sg13g2_buf_1
*CAP
1 *1163:A 0
2 *1066:X 0.0020058
3 *256:8 0.0020058
4 *250:18 *256:8 0.000176106
5 *251:12 *256:8 0
6 *255:14 *256:8 0
*RES
1 *1066:X *256:8 39.7348 
2 *256:8 *1163:A 20 
*END

*D_NET *257 0.0068718
*CONN
*I *1164:A I *D sg13g2_buf_1
*I *1067:X O *D sg13g2_buf_1
*CAP
1 *1164:A 0
2 *1067:X 0.000780843
3 *257:16 0.00265506
4 *257:8 0.0034359
5 *257:16 *286:12 0
6 *253:8 *257:16 0
7 *254:8 *257:16 0
8 *255:14 *257:16 0
*RES
1 *1067:X *257:8 47.6735 
2 *257:8 *257:16 47.5937 
3 *257:16 *1164:A 20 
*END

*D_NET *258 0.00412843
*CONN
*I *1165:A I *D sg13g2_buf_1
*I *1049:X O *D sg13g2_buf_1
*CAP
1 *1165:A 0
2 *1049:X 0.00206421
3 *258:10 0.00206421
4 *258:10 *260:8 0
5 *221:12 *258:10 0
6 *250:6 *258:10 0
*RES
1 *1049:X *258:10 40.085 
2 *258:10 *1165:A 20 
*END

*D_NET *259 0.00713074
*CONN
*I *1166:A I *D sg13g2_buf_1
*I *1050:X O *D sg13g2_buf_1
*CAP
1 *1166:A 0
2 *1050:X 0.000165548
3 *259:14 0.00213275
4 *259:8 0.0022983
5 *259:14 *260:8 0
6 *259:14 *262:14 0.00253415
7 *259:14 *267:6 0
8 FrameStrobe_O[5] *259:14 0
9 FrameStrobe_O[7] *259:14 0
10 *239:14 *259:8 0
11 *240:12 *259:8 0
*RES
1 *1050:X *259:8 41.5862 
2 *259:8 *259:14 41.218 
3 *259:14 *1166:A 20 
*END

*D_NET *260 0.00414229
*CONN
*I *1167:A I *D sg13g2_buf_1
*I *1051:X O *D sg13g2_buf_1
*CAP
1 *1167:A 0
2 *1051:X 0.00207115
3 *260:8 0.00207115
4 *258:10 *260:8 0
5 *259:14 *260:8 0
*RES
1 *1051:X *260:8 39.4876 
2 *260:8 *1167:A 20 
*END

*D_NET *261 0.000950572
*CONN
*I *1168:A I *D sg13g2_buf_1
*I *1052:X O *D sg13g2_buf_1
*CAP
1 *1168:A 2.99401e-05
2 *1052:X 0.000304097
3 *261:8 0.000334038
4 FrameStrobe_O[7] *1168:A 0
5 FrameStrobe_O[9] *1168:A 4.77702e-05
6 *86:8 *261:8 0
7 *98:10 *261:8 0
8 *100:10 *261:8 0
9 *102:8 *261:8 0
10 *237:12 *261:8 0
11 *246:8 *261:8 0.000234726
*RES
1 *1052:X *261:8 43.0694 
2 *261:8 *1168:A 40.3193 
*END

*D_NET *262 0.0201309
*CONN
*I *1169:A I *D sg13g2_buf_1
*I *1053:X O *D sg13g2_buf_1
*CAP
1 *1169:A 0
2 *1053:X 0.000238188
3 *262:14 0.00141139
4 *262:10 0.0052351
5 *262:8 0.0040619
6 *262:14 *1172:A 0
7 *262:14 *267:6 0.00224418
8 *29:9 *262:10 0
9 *30:5 *262:10 0.00440599
10 *31:5 *262:10 0
11 *32:9 *262:10 0
12 *214:12 *262:10 0
13 *214:14 *262:10 0
14 *243:8 *262:10 0
15 *244:12 *262:10 0
16 *259:14 *262:14 0.00253415
*RES
1 *1053:X *262:8 42.266 
2 *262:8 *262:10 43.6102 
3 *262:10 *262:14 36.9744 
4 *262:14 *1169:A 20 
*END

*D_NET *263 0.0163025
*CONN
*I *1170:A I *D sg13g2_buf_1
*I *1054:X O *D sg13g2_buf_1
*CAP
1 *1170:A 0
2 *1054:X 0
3 *263:22 0
4 *263:18 0.000946425
5 *263:14 0.00338684
6 *263:12 0.00328883
7 *263:6 0.000848421
8 *80:15 *263:14 0.00783199
*RES
1 *1054:X *263:6 40 
2 *263:6 *263:12 49.8365 
3 *263:12 *263:14 40.6438 
4 *263:14 *263:18 31.1343 
5 *263:18 *263:22 40 
6 *263:22 *1170:A 20 
*END

*D_NET *264 0.0230127
*CONN
*I *1171:A I *D sg13g2_buf_1
*I *1029:X O *D sg13g2_buf_1
*CAP
1 *1171:A 5.18791e-05
2 *1029:X 0
3 *264:8 0.0040548
4 *264:6 0.00400292
5 *1171:A *1193:A 8.00842e-05
6 *264:8 *265:10 0
7 *264:8 *275:10 0.00322908
8 *264:8 *275:12 0
9 *264:8 *286:12 0.0115939
10 *5:9 *264:8 0
11 *7:9 *264:8 0
*RES
1 *1029:X *264:6 40 
2 *264:6 *264:8 55.4758 
3 *264:8 *1171:A 40.5356 
*END

*D_NET *265 0.011792
*CONN
*I *1172:A I *D sg13g2_buf_1
*I *1055:X O *D sg13g2_buf_1
*CAP
1 *1172:A 0.000960096
2 *1055:X 0.000404191
3 *265:10 0.00428598
4 *265:8 0.00373007
5 *1172:A *267:6 0
6 *1172:A *267:14 0
7 *265:10 *275:10 0
8 *265:10 *275:12 0
9 *265:10 *297:8 0
10 *7:9 *265:10 0
11 *8:5 *265:10 0.00152249
12 *9:5 *265:10 0
13 *11:13 *265:10 0
14 *247:6 *1172:A 0.000889183
15 *248:10 *1172:A 0
16 *262:14 *1172:A 0
17 *264:8 *265:10 0
*RES
1 *1055:X *265:8 43.7801 
2 *265:8 *265:10 34.711 
3 *265:10 *1172:A 47.957 
*END

*D_NET *266 0.0151835
*CONN
*I *1173:A I *D sg13g2_buf_1
*I *1056:X O *D sg13g2_buf_1
*CAP
1 *1173:A 0
2 *1056:X 0.000240999
3 *266:16 0.00153774
4 *266:10 0.00438945
5 *266:8 0.00309271
6 FrameStrobe_O[12] *266:16 0.000208062
7 *1063:A *266:16 0
8 *4:9 *266:10 0
9 *66:9 *266:10 0.00515113
10 *242:12 *266:10 0
11 *245:8 *266:10 0
12 *247:14 *266:16 0.000563361
13 *248:10 *266:16 0
14 *253:8 *266:10 0
*RES
1 *1056:X *266:8 42.266 
2 *266:8 *266:10 31.9918 
3 *266:10 *266:16 35.1616 
4 *266:16 *1173:A 20 
*END

*D_NET *267 0.00694951
*CONN
*I *1174:A I *D sg13g2_buf_1
*I *1057:X O *D sg13g2_buf_1
*CAP
1 *1174:A 0
2 *1057:X 0.00165422
3 *267:14 0.000304928
4 *267:6 0.00195915
5 *1172:A *267:6 0
6 *1172:A *267:14 0
7 *226:18 *267:14 0.000394283
8 *229:14 *267:14 0.00039276
9 *247:6 *267:6 0
10 *248:10 *267:14 0
11 *259:14 *267:6 0
12 *262:14 *267:6 0.00224418
*RES
1 *1057:X *267:6 37.1907 
2 *267:6 *267:14 43.8831 
3 *267:14 *1174:A 20 
*END

*D_NET *268 0.000772866
*CONN
*I *1175:A I *D sg13g2_buf_1
*I *1068:X O *D sg13g2_buf_1
*CAP
1 *1175:A 0.000327742
2 *1068:X 0.000327742
3 *1175:A *1178:A 0
4 N1BEG[0] *1175:A 1.54008e-05
5 *159:41 *1175:A 0
6 *160:37 *1175:A 0.000101981
*RES
1 *1068:X *1175:A 43.9037 
*END

*D_NET *269 0.000706086
*CONN
*I *1176:A I *D sg13g2_buf_1
*I *1069:X O *D sg13g2_buf_1
*CAP
1 *1176:A 3.46921e-05
2 *1069:X 0.000200616
3 *269:8 0.000235308
4 *269:8 *272:8 0.00023547
5 *20:5 *269:8 0
6 *22:5 *269:8 0
*RES
1 *1069:X *269:8 42.0806 
2 *269:8 *1176:A 40.3193 
*END

*D_NET *270 0.000882745
*CONN
*I *1177:A I *D sg13g2_buf_1
*I *1070:X O *D sg13g2_buf_1
*CAP
1 *1177:A 0.00030421
2 *1070:X 0.00030421
3 *1068:A *1177:A 0
4 *159:41 *1177:A 0
5 *160:37 *1177:A 0.000274325
*RES
1 *1070:X *1177:A 43.3269 
*END

*D_NET *271 0.00120973
*CONN
*I *1178:A I *D sg13g2_buf_1
*I *1071:X O *D sg13g2_buf_1
*CAP
1 *1178:A 0.000404254
2 *1071:X 0.000404254
3 *1178:A *1181:A 0
4 *1178:A *1183:A 0.000112533
5 N1BEG[0] *1178:A 0.000241167
6 N1BEG[2] *1178:A 4.75166e-05
7 *1175:A *1178:A 0
8 *113:12 *1178:A 0
*RES
1 *1071:X *1178:A 43.914 
*END

*D_NET *272 0.00147239
*CONN
*I *1179:A I *D sg13g2_buf_1
*I *1072:X O *D sg13g2_buf_1
*CAP
1 *1179:A 5.01927e-05
2 *1072:X 0.000357296
3 *272:8 0.000407488
4 *1068:A *1179:A 8.01116e-05
5 *20:5 *272:8 0
6 *22:5 *272:8 0
7 *108:12 *272:8 0.000341834
8 *113:12 *272:8 0
9 *269:8 *272:8 0.00023547
*RES
1 *1072:X *272:8 44.0582 
2 *272:8 *1179:A 40.5356 
*END

*D_NET *273 0.00181641
*CONN
*I *1180:A I *D sg13g2_buf_1
*I *1073:X O *D sg13g2_buf_1
*CAP
1 *1180:A 0
2 *1073:X 0.000308629
3 *273:10 0.000308629
4 *273:10 *274:8 0
5 *273:10 *280:16 1.54008e-05
6 N2BEG[2] *273:10 0.000208063
7 *20:5 *273:10 0.000601071
8 *111:10 *273:10 0.000231238
9 *117:12 *273:10 0.000143379
*RES
1 *1073:X *273:10 44.223 
2 *273:10 *1180:A 40 
*END

*D_NET *274 0.00134455
*CONN
*I *1181:A I *D sg13g2_buf_1
*I *1074:X O *D sg13g2_buf_1
*CAP
1 *1181:A 0.000141903
2 *1074:X 0.000162375
3 *274:8 0.000304278
4 *1181:A *1184:A 0
5 *274:8 *280:16 0
6 N1BEG[3] *1181:A 0.000143306
7 N2BEG[2] *1181:A 0.000143351
8 *1178:A *1181:A 0
9 *20:5 *274:8 0
10 *159:41 *274:8 0.000449332
11 *273:10 *274:8 0
*RES
1 *1074:X *274:8 42.0806 
2 *274:8 *1181:A 41.6171 
*END

*D_NET *275 0.0137817
*CONN
*I *1182:A I *D sg13g2_buf_1
*I *1030:X O *D sg13g2_buf_1
*CAP
1 *1182:A 0
2 *1030:X 0
3 *275:12 0.00424044
4 *275:10 0.00527631
5 *275:6 0.00103587
6 *275:12 *297:8 0
7 FrameData_O[13] *275:12 0
8 FrameData_O[15] *275:12 0
9 *264:8 *275:10 0.00322908
10 *264:8 *275:12 0
11 *265:10 *275:10 0
12 *265:10 *275:12 0
*RES
1 *1030:X *275:6 40 
2 *275:6 *275:10 15.2543 
3 *275:10 *275:12 38.1718 
4 *275:12 *1182:A 40 
*END

*D_NET *276 0.00291824
*CONN
*I *1183:A I *D sg13g2_buf_1
*I *1075:X O *D sg13g2_buf_1
*CAP
1 *1183:A 6.11923e-05
2 *1075:X 0.000403667
3 *276:10 0.00046486
4 *276:10 *278:8 0.000760138
5 *1178:A *1183:A 0.000112533
6 *20:5 *276:10 0
7 *108:12 *276:10 0
8 *113:12 *1183:A 0.000112198
9 *113:12 *276:10 0.00049394
10 *118:10 *276:10 0.00011123
11 *120:16 *276:10 0.00011123
12 *175:35 *276:10 0.000287256
13 *177:25 *276:10 0
*RES
1 *1075:X *276:10 45.5517 
2 *276:10 *1183:A 40.7519 
*END

*D_NET *277 0.00112818
*CONN
*I *1184:A I *D sg13g2_buf_1
*I *1076:X O *D sg13g2_buf_1
*CAP
1 *1184:A 0.000436619
2 *1076:X 0.000436619
3 *1184:A *280:16 0
4 N2BEG[2] *1184:A 0
5 N2BEG[3] *1184:A 7.92542e-05
6 *1181:A *1184:A 0
7 *114:8 *1184:A 0.000175693
8 *125:20 *1184:A 0
9 *177:25 *1184:A 0
*RES
1 *1076:X *1184:A 44.4084 
*END

*D_NET *278 0.00420788
*CONN
*I *1185:A I *D sg13g2_buf_1
*I *1077:X O *D sg13g2_buf_1
*CAP
1 *1185:A 8.19617e-05
2 *1077:X 0.000460087
3 *278:8 0.000542049
4 *278:8 *283:10 0.000125175
5 *278:8 *288:8 0
6 *278:8 *304:10 0
7 N1BEG[3] *1185:A 1.54008e-05
8 N2BEG[2] *1185:A 0.00010226
9 *20:5 *278:8 0.001707
10 *124:10 *278:8 0.000126047
11 *168:33 *278:8 0.000287758
12 *175:35 *278:8 0
13 *276:10 *278:8 0.000760138
*RES
1 *1077:X *278:8 48.0134 
2 *278:8 *1185:A 40.8858 
*END

*D_NET *279 0.00272679
*CONN
*I *1186:A I *D sg13g2_buf_1
*I *1078:X O *D sg13g2_buf_1
*CAP
1 *1186:A 0
2 *1078:X 0.0010883
3 *279:10 0.0010883
4 *279:10 *281:18 0
5 *279:10 *283:18 0
6 *279:10 *287:22 0.000550182
7 *279:10 *301:30 0
8 *16:7 *279:10 0
9 *18:7 *279:10 0
10 *158:17 *279:10 0
*RES
1 *1078:X *279:10 49.5378 
2 *279:10 *1186:A 40 
*END

*D_NET *280 0.00725525
*CONN
*I *1187:A I *D sg13g2_buf_1
*I *1079:X O *D sg13g2_buf_1
*CAP
1 *1187:A 0
2 *1079:X 4.3288e-05
3 *280:16 0.00134742
4 *280:8 0.00139071
5 *280:16 *1198:A 0.00113527
6 *280:16 *285:12 0.000758571
7 *280:16 *291:18 0
8 *280:16 *296:14 0.000553246
9 N2BEG[2] *280:16 0
10 NN4BEG[3] *280:8 7.98942e-05
11 NN4BEG[4] *280:8 7.98942e-05
12 *1184:A *280:16 0
13 *20:5 *280:16 0
14 *117:12 *280:16 0
15 *122:10 *280:16 0.000493412
16 *153:8 *280:16 0
17 *159:31 *280:16 0.00107535
18 *159:41 *280:16 0
19 *172:25 *280:16 0.000282775
20 *273:10 *280:16 1.54008e-05
21 *274:8 *280:16 0
*RES
1 *1079:X *280:8 40.5356 
2 *280:8 *280:16 37.0877 
3 *280:16 *1187:A 20 
*END

*D_NET *281 0.0126859
*CONN
*I *1188:A I *D sg13g2_buf_1
*I *1080:X O *D sg13g2_buf_1
*CAP
1 *1188:A 9.44965e-05
2 *1080:X 0.000490291
3 *281:18 0.00293366
4 *281:12 0.00332945
5 *281:12 *318:8 0
6 *16:7 *281:18 0.000128293
7 *120:16 *1188:A 0
8 *160:21 *281:18 0.00257779
9 *167:15 *281:12 0.000530647
10 *171:13 *281:18 0.00147866
11 *177:15 *281:18 0
12 *177:25 *1188:A 0.000144423
13 *228:8 *281:18 0.000978167
14 *234:16 *281:18 0
15 *279:10 *281:18 0
*RES
1 *1080:X *281:12 44.7283 
2 *281:12 *281:18 30.1893 
3 *281:18 *1188:A 40.9682 
*END

*D_NET *282 0.00119042
*CONN
*I *1189:A I *D sg13g2_buf_1
*I *1081:X O *D sg13g2_buf_1
*CAP
1 *1189:A 0.000403217
2 *1081:X 0.000403217
3 *1189:A *1191:A 0.000240607
4 N2BEGb[3] *1189:A 0.000143379
5 *166:25 *1189:A 0
*RES
1 *1081:X *1189:A 43.6977 
*END

*D_NET *283 0.00327722
*CONN
*I *1190:A I *D sg13g2_buf_1
*I *1082:X O *D sg13g2_buf_1
*CAP
1 *1190:A 0
2 *1082:X 0.000145156
3 *283:18 0.000648403
4 *283:10 0.000793559
5 *283:10 *304:10 0.000231238
6 *283:18 *1206:A 1.54008e-05
7 *283:18 *287:22 0.000341638
8 N4BEG[0] *283:18 0.000337202
9 N4BEG[1] *283:10 0.00011101
10 *134:10 *283:10 0.00011101
11 *158:17 *283:18 0
12 *162:23 *283:18 0.000369658
13 *165:29 *283:18 4.77702e-05
14 *278:8 *283:10 0.000125175
15 *279:10 *283:18 0
*RES
1 *1082:X *283:10 41.8437 
2 *283:10 *283:18 46.7259 
3 *283:18 *1190:A 40 
*END

*D_NET *284 0.00131097
*CONN
*I *1191:A I *D sg13g2_buf_1
*I *1083:X O *D sg13g2_buf_1
*CAP
1 *1191:A 0.000437494
2 *1083:X 0.000437494
3 N2BEGb[1] *1191:A 1.54008e-05
4 *1189:A *1191:A 0.000240607
5 *124:10 *1191:A 4.75151e-05
6 *124:22 *1191:A 0.000132457
*RES
1 *1083:X *1191:A 43.914 
*END

*D_NET *285 0.00219373
*CONN
*I *1192:A I *D sg13g2_buf_1
*I *1084:X O *D sg13g2_buf_1
*CAP
1 *1192:A 0
2 *1084:X 0.000274381
3 *285:12 0.000274381
4 N2BEGb[5] *285:12 4.77425e-05
5 *20:5 *285:12 0.000758571
6 *165:29 *285:12 8.00842e-05
7 *280:16 *285:12 0.000758571
*RES
1 *1084:X *285:12 44.6659 
2 *285:12 *1192:A 40 
*END

*D_NET *286 0.018902
*CONN
*I *1193:A I *D sg13g2_buf_1
*I *1031:X O *D sg13g2_buf_1
*CAP
1 *1193:A 0.000322493
2 *1031:X 7.14408e-05
3 *286:12 0.00354258
4 *286:10 0.00329153
5 FrameData_O[15] *1193:A 0
6 *1122:A *1193:A 0
7 *1171:A *1193:A 8.00842e-05
8 *5:9 *286:12 0
9 *253:8 *286:12 0
10 *257:16 *286:12 0
11 *264:8 *286:12 0.0115939
*RES
1 *1031:X *286:10 40.6695 
2 *286:10 *286:12 53.251 
3 *286:12 *1193:A 43.2651 
*END

*D_NET *287 0.00369545
*CONN
*I *1194:A I *D sg13g2_buf_1
*I *1085:X O *D sg13g2_buf_1
*CAP
1 *1194:A 5.84103e-05
2 *1085:X 0.00040493
3 *287:22 0.0003674
4 *287:14 0.00071392
5 *287:14 *290:26 0.000388839
6 N2BEGb[5] *1194:A 0
7 N4BEG[1] *287:22 4.68833e-05
8 N4BEG[3] *287:14 1.51e-05
9 N4BEG[6] *287:14 0.000143498
10 *134:10 *287:22 7.92524e-05
11 *140:14 *287:14 0.000148733
12 *158:17 *287:14 0.000388926
13 *158:17 *287:22 0
14 *162:23 *287:22 0
15 *166:25 *1194:A 4.77425e-05
16 *279:10 *287:22 0.000550182
17 *283:18 *287:22 0.000341638
*RES
1 *1085:X *287:14 44.7689 
2 *287:14 *287:22 43.9758 
3 *287:22 *1194:A 40.6695 
*END

*D_NET *288 0.00275466
*CONN
*I *1195:A I *D sg13g2_buf_1
*I *1086:X O *D sg13g2_buf_1
*CAP
1 *1195:A 0.000119876
2 *1086:X 0.000594634
3 *288:8 0.00071451
4 *288:8 *289:12 0.000128112
5 *288:8 *302:38 0.000655192
6 *288:8 *304:10 0
7 N2BEGb[1] *1195:A 0.000208035
8 *22:5 *288:8 0
9 *120:16 *1195:A 0.000208255
10 *163:33 *288:8 0.000126047
11 *175:35 *288:8 0
12 *278:8 *288:8 0
*RES
1 *1086:X *288:8 45.5414 
2 *288:8 *1195:A 41.4008 
*END

*D_NET *289 0.0020679
*CONN
*I *1196:A I *D sg13g2_buf_1
*I *1087:X O *D sg13g2_buf_1
*CAP
1 *1196:A 0
2 *1087:X 0.000485294
3 *289:12 0.000485294
4 *22:5 *289:12 0.000969199
5 *288:8 *289:12 0.000128112
*RES
1 *1087:X *289:12 45.4693 
2 *289:12 *1196:A 40 
*END

*D_NET *290 0.0130257
*CONN
*I *1197:A I *D sg13g2_buf_1
*I *1088:X O *D sg13g2_buf_1
*CAP
1 *1197:A 0
2 *1088:X 0
3 *290:26 0.000867077
4 *290:18 0.00312172
5 *290:12 0.00233523
6 *290:6 8.05919e-05
7 *290:18 *298:14 0
8 *290:26 *316:16 2.20966e-05
9 N2BEGb[5] *290:26 0
10 *19:11 *290:18 0.00485616
11 *20:15 *290:18 0
12 *21:13 *290:18 0
13 *21:21 *290:18 0
14 *158:17 *290:26 0
15 *159:31 *290:26 0.000769236
16 *160:37 *290:26 0.000283955
17 *163:25 *290:26 0.000124862
18 *165:29 *290:26 0.000175924
19 *166:25 *290:26 0
20 *287:14 *290:26 0.000388839
*RES
1 *1088:X *290:6 40 
2 *290:6 *290:12 40.7519 
3 *290:12 *290:18 47.3362 
4 *290:18 *290:26 49.167 
5 *290:26 *1197:A 20 
*END

*D_NET *291 0.00507948
*CONN
*I *1198:A I *D sg13g2_buf_1
*I *1098:X O *D sg13g2_buf_1
*CAP
1 *1198:A 0.000427471
2 *1098:X 0.000109947
3 *291:18 0.00081633
4 *291:8 0.000498806
5 *1198:A *295:10 0
6 *1198:A *304:10 0
7 *1198:A *305:10 0
8 *291:8 *293:14 0
9 *291:18 *307:12 0.000862819
10 NN4BEG[7] *291:18 0.000110965
11 NN4BEG[8] *291:18 0.00011101
12 *20:5 *1198:A 7.33225e-05
13 *153:8 *291:18 0.000339977
14 *156:8 *291:18 0.000124547
15 *200:41 *291:8 0.000129356
16 *219:22 *291:8 0.000339657
17 *280:16 *1198:A 0.00113527
18 *280:16 *291:18 0
*RES
1 *1098:X *291:8 41.5862 
2 *291:8 *291:18 45.562 
3 *291:18 *1198:A 45.2942 
*END

*D_NET *292 0.0028655
*CONN
*I *1199:A I *D sg13g2_buf_1
*I *1099:X O *D sg13g2_buf_1
*CAP
1 *1199:A 5.58452e-05
2 *1099:X 0.000499891
3 *292:14 0.000555736
4 *1199:A *1203:A 0
5 *1199:A *1213:A 0
6 *292:14 *1222:A 0
7 *292:14 *294:10 0.000175693
8 *292:14 *301:30 0.000661472
9 *292:14 *303:28 0.000661385
10 N4BEG[15] *292:14 0.000240073
11 *1101:A *292:14 1.54008e-05
*RES
1 *1099:X *292:14 46.6538 
2 *292:14 *1199:A 40.5356 
*END

*D_NET *293 0.00558537
*CONN
*I *1200:A I *D sg13g2_buf_1
*I *1100:X O *D sg13g2_buf_1
*CAP
1 *1200:A 0
2 *1100:X 4.37077e-05
3 *293:20 5.10268e-05
4 *293:14 0.00139792
5 *293:8 0.0013906
6 *293:14 *298:20 0
7 *293:14 *306:8 0
8 *293:14 *307:12 0
9 *293:20 *1213:A 8.00842e-05
10 NN4BEG[14] *293:8 8.00842e-05
11 NN4BEG[15] *293:8 8.00842e-05
12 *1123:A *293:14 0.00139361
13 *127:12 *293:14 0
14 *140:14 *293:14 0.000126445
15 *164:27 *293:14 2.14736e-05
16 *172:25 *293:14 0
17 *190:25 *293:14 0.000920337
18 *191:25 *293:14 0
19 *200:41 *293:14 0
20 *291:8 *293:14 0
*RES
1 *1100:X *293:8 40.5356 
2 *293:8 *293:14 34.2037 
3 *293:14 *293:20 40.5356 
4 *293:20 *1200:A 20 
*END

*D_NET *294 0.00133609
*CONN
*I *1201:A I *D sg13g2_buf_1
*I *1101:X O *D sg13g2_buf_1
*CAP
1 *1201:A 0
2 *1101:X 0.00031099
3 *294:10 0.00031099
4 *294:10 *301:30 0.000395066
5 N4BEG[15] *294:10 0.000143351
6 *171:13 *294:10 0
7 *292:14 *294:10 0.000175693
*RES
1 *1101:X *294:10 43.4505 
2 *294:10 *1201:A 40 
*END

*D_NET *295 0.00118287
*CONN
*I *1202:A I *D sg13g2_buf_1
*I *1102:X O *D sg13g2_buf_1
*CAP
1 *1202:A 4.93606e-05
2 *1102:X 0.000350906
3 *295:10 0.000400266
4 *295:10 *307:12 0
5 N4BEG[13] *295:10 0.000143544
6 N4BEG[9] *1202:A 7.9848e-05
7 *1198:A *295:10 0
8 *131:12 *1202:A 1.54008e-05
9 *142:12 *295:10 0.000143544
*RES
1 *1102:X *295:10 43.0488 
2 *295:10 *1202:A 40.5356 
*END

*D_NET *296 0.00285737
*CONN
*I *1203:A I *D sg13g2_buf_1
*I *1103:X O *D sg13g2_buf_1
*CAP
1 *1203:A 0.000207701
2 *1103:X 0
3 *296:14 0.00088577
4 *296:6 0.000678069
5 N4BEG[13] *1203:A 0.000175693
6 N4BEG[15] *1203:A 0.000175693
7 *1199:A *1203:A 0
8 *158:17 *296:14 0
9 *159:31 *296:14 0.000181192
10 *170:19 *296:14 0
11 *197:21 *296:14 0
12 *280:16 *296:14 0.000553246
*RES
1 *1103:X *296:6 40 
2 *296:6 *296:14 46.1388 
3 *296:14 *1203:A 42.1836 
*END

*D_NET *297 0.0112515
*CONN
*I *1204:A I *D sg13g2_buf_1
*I *1032:X O *D sg13g2_buf_1
*CAP
1 *1204:A 7.1547e-05
2 *1032:X 0
3 *297:8 0.00560188
4 *297:6 0.00553033
5 FrameData_O[15] *297:8 0
6 *1122:A *1204:A 4.77425e-05
7 *11:13 *297:8 0
8 *166:15 *297:8 0
9 *215:10 *297:8 0
10 *265:10 *297:8 0
11 *275:12 *297:8 0
*RES
1 *1032:X *297:6 40 
2 *297:6 *297:8 52.2622 
3 *297:8 *1204:A 40.7519 
*END

*D_NET *298 0.0117149
*CONN
*I *1205:A I *D sg13g2_buf_1
*I *1089:X O *D sg13g2_buf_1
*CAP
1 *1205:A 0
2 *1089:X 0.000120493
3 *298:20 0.000434591
4 *298:14 0.00281891
5 *298:12 0.00238432
6 *298:8 0.000120493
7 *298:14 *299:12 0
8 *1088:A *298:8 0
9 *21:13 *298:14 0.00517689
10 *21:21 *298:14 0
11 *167:25 *298:20 0.0006592
12 *172:25 *298:20 0
13 *205:11 *298:8 0
14 *290:18 *298:14 0
15 *293:14 *298:20 0
*RES
1 *1089:X *298:8 40.9682 
2 *298:8 *298:12 40 
3 *298:12 *298:14 32.9806 
4 *298:14 *298:20 44.429 
5 *298:20 *1205:A 40 
*END

*D_NET *299 0.0104054
*CONN
*I *1206:A I *D sg13g2_buf_1
*I *1090:X O *D sg13g2_buf_1
*CAP
1 *1206:A 7.74004e-05
2 *1090:X 0
3 *299:18 0.000550948
4 *299:12 0.0031059
5 *299:10 0.00263235
6 *299:6 0
7 *299:18 *302:38 0
8 *21:13 *299:12 0
9 *22:15 *299:12 0.00341055
10 *25:17 *299:12 0.000227045
11 *160:27 *299:18 0.000273617
12 *162:23 *1206:A 0.000112155
13 *167:25 *299:18 0
14 *190:17 *299:12 0
15 *283:18 *1206:A 1.54008e-05
16 *298:14 *299:12 0
*RES
1 *1090:X *299:6 40 
2 *299:6 *299:10 40 
3 *299:10 *299:12 33.475 
4 *299:12 *299:18 44.429 
5 *299:18 *1206:A 40.7519 
*END

*D_NET *300 0.0129377
*CONN
*I *1207:A I *D sg13g2_buf_1
*I *1091:X O *D sg13g2_buf_1
*CAP
1 *1207:A 0
2 *1091:X 0.000671791
3 *300:18 0.00128451
4 *300:14 0.00202589
5 *300:8 0.00141317
6 *300:8 *303:10 0
7 *165:29 *300:18 0.00333865
8 *174:15 *300:14 0
9 *177:15 *300:18 0
10 *197:15 *300:14 0.00249631
11 *217:12 *300:8 0
12 *225:8 *300:14 0.00157971
13 *229:12 *300:8 8.01995e-05
14 *232:8 *300:8 4.74703e-05
*RES
1 *1091:X *300:8 43.757 
2 *300:8 *300:14 32.4424 
3 *300:14 *300:18 35.4294 
4 *300:18 *1207:A 40 
*END

*D_NET *301 0.0125261
*CONN
*I *1208:A I *D sg13g2_buf_1
*I *1092:X O *D sg13g2_buf_1
*CAP
1 *1208:A 0
2 *1092:X 0.000382018
3 *301:30 0.000865057
4 *301:22 0.00239253
5 *301:18 0.00194256
6 *301:10 0.0007971
7 *301:10 *303:10 0
8 *301:18 *303:10 0.00108518
9 *301:22 *303:20 0
10 *301:30 *1222:A 0.000395068
11 *301:30 *303:28 0
12 *301:30 *318:14 0
13 *17:11 *301:22 0
14 *17:19 *301:22 7.63864e-05
15 *18:13 *301:22 0.00207516
16 *158:17 *301:30 0
17 *171:13 *301:30 0
18 *204:15 *301:10 0
19 *218:14 *301:18 0.00145848
20 *229:12 *301:18 0
21 *279:10 *301:30 0
22 *292:14 *301:30 0.000661472
23 *294:10 *301:30 0.000395066
*RES
1 *1092:X *301:10 43.2651 
2 *301:10 *301:18 47.313 
3 *301:18 *301:22 35.1822 
4 *301:22 *301:30 49.8159 
5 *301:30 *1208:A 20 
*END

*D_NET *302 0.0148917
*CONN
*I *1209:A I *D sg13g2_buf_1
*I *1093:X O *D sg13g2_buf_1
*CAP
1 *1209:A 0
2 *1093:X 0.000140107
3 *302:38 0.000521552
4 *302:28 0.00130779
5 *302:22 0.00220027
6 *302:16 0.00157087
7 *302:10 0.000296944
8 *302:10 *311:18 0.000558374
9 *302:38 *304:10 0.000443366
10 N2BEGb[3] *302:38 0.000112418
11 N2BEGb[4] *302:38 0.0001122
12 *23:19 *302:22 0
13 *25:17 *302:22 0
14 *157:10 *302:28 2.14736e-05
15 *167:25 *302:38 0
16 *168:25 *302:28 0
17 *172:25 *302:38 0
18 *175:21 *302:22 0
19 *175:27 *302:28 0.0018746
20 *186:13 *302:28 0
21 *188:13 *302:28 0.000335491
22 *190:13 *302:16 4.63914e-05
23 *190:17 *302:22 0.00399601
24 *191:15 *302:22 0
25 *191:25 *302:22 0.000143188
26 *237:12 *302:10 0.000555481
27 *288:8 *302:38 0.000655192
28 *299:18 *302:38 0
*RES
1 *1093:X *302:10 42.8943 
2 *302:10 *302:16 41.4008 
3 *302:16 *302:22 40.1056 
4 *302:22 *302:28 49.2494 
5 *302:28 *302:38 46.0873 
6 *302:38 *1209:A 20 
*END

*D_NET *303 0.010974
*CONN
*I *1210:A I *D sg13g2_buf_1
*I *1094:X O *D sg13g2_buf_1
*CAP
1 *1210:A 0
2 *1094:X 0.000621118
3 *303:28 0.000565999
4 *303:20 0.00229413
5 *303:16 0.00175346
6 *303:10 0.000646449
7 *303:28 *1222:A 0.000394981
8 N4BEG[3] *303:28 0.000112381
9 *19:11 *303:20 0
10 *158:17 *303:28 0.00182975
11 *163:17 *303:28 0.000112496
12 *217:12 *303:10 0.000661118
13 *218:14 *303:10 0
14 *227:8 *303:10 0
15 *228:8 *303:10 0
16 *229:12 *303:10 0.000235556
17 *292:14 *303:28 0.000661385
18 *300:8 *303:10 0
19 *301:10 *303:10 0
20 *301:18 *303:10 0.00108518
21 *301:22 *303:20 0
22 *301:30 *303:28 0
*RES
1 *1094:X *303:10 48.4254 
2 *303:10 *303:16 40.3193 
3 *303:16 *303:20 34.935 
4 *303:20 *303:28 49.2597 
5 *303:28 *1210:A 20 
*END

*D_NET *304 0.00297036
*CONN
*I *1211:A I *D sg13g2_buf_1
*I *1095:X O *D sg13g2_buf_1
*CAP
1 *1211:A 8.28444e-05
2 *1095:X 0.000625533
3 *304:10 0.000708377
4 *304:10 *305:10 0
5 *304:10 *306:8 0
6 N2BEGb[5] *1211:A 0.00014391
7 N4BEG[9] *304:10 7.92265e-05
8 *1198:A *304:10 0
9 *20:5 *304:10 0
10 *129:10 *304:10 0.00012816
11 *131:12 *304:10 7.92265e-05
12 *163:33 *304:10 0.000229435
13 *164:27 *304:10 0
14 *168:25 *1211:A 0.00014391
15 *168:33 *304:10 7.51285e-05
16 *278:8 *304:10 0
17 *283:10 *304:10 0.000231238
18 *288:8 *304:10 0
19 *302:38 *304:10 0.000443366
*RES
1 *1095:X *304:10 46.5714 
2 *304:10 *1211:A 40.9682 
*END

*D_NET *305 0.00147697
*CONN
*I *1212:A I *D sg13g2_buf_1
*I *1096:X O *D sg13g2_buf_1
*CAP
1 *1212:A 4.3657e-05
2 *1096:X 0.000330192
3 *305:10 0.000373849
4 *305:10 *1213:A 0.000143498
5 N4BEG[3] *1212:A 8.00842e-05
6 *1198:A *305:10 0
7 *20:5 *305:10 0.000282152
8 *127:12 *305:10 0.000143498
9 *136:10 *1212:A 8.0039e-05
10 *304:10 *305:10 0
*RES
1 *1096:X *305:10 43.0488 
2 *305:10 *1212:A 40.5356 
*END

*D_NET *306 0.00199961
*CONN
*I *1213:A I *D sg13g2_buf_1
*I *1097:X O *D sg13g2_buf_1
*CAP
1 *1213:A 0.000393246
2 *1097:X 9.90531e-05
3 *306:8 0.000492299
4 N4BEG[9] *1213:A 0
5 *1078:A *1213:A 0
6 *1199:A *1213:A 0
7 *129:10 *1213:A 0.000110851
8 *129:10 *306:8 0.000340288
9 *191:25 *306:8 0.000340288
10 *293:14 *306:8 0
11 *293:20 *1213:A 8.00842e-05
12 *304:10 *306:8 0
13 *305:10 *1213:A 0.000143498
*RES
1 *1097:X *306:8 41.8334 
2 *306:8 *1213:A 43.5638 
*END

*D_NET *307 0.00304244
*CONN
*I *1214:A I *D sg13g2_buf_1
*I *1104:X O *D sg13g2_buf_1
*CAP
1 *1214:A 7.18954e-05
2 *1104:X 0.000678208
3 *307:12 0.000750103
4 N4BEG[11] *1214:A 0.000112418
5 NN4BEG[10] *307:12 7.92265e-05
6 NN4BEG[8] *307:12 7.92265e-05
7 *129:10 *307:12 7.62515e-05
8 *156:8 *307:12 0
9 *191:25 *307:12 0
10 *219:22 *307:12 0.000332295
11 *291:18 *307:12 0.000862819
12 *293:14 *307:12 0
13 *295:10 *307:12 0
*RES
1 *1104:X *307:12 47.6323 
2 *307:12 *1214:A 40.7519 
*END

*D_NET *308 0.0200725
*CONN
*I *1215:A I *D sg13g2_buf_1
*I *1033:X O *D sg13g2_buf_1
*CAP
1 *1215:A 0
2 *1033:X 0.000676328
3 *308:16 0.00306356
4 *308:14 0.00373989
5 *1036:A *308:14 4.77425e-05
6 *12:9 *308:14 0.00034245
7 *166:15 *308:14 0
8 *200:17 *308:16 0.000982983
9 *200:33 *308:14 0
10 *200:33 *308:16 0.00237343
11 *222:10 *308:14 0.000823144
12 *222:10 *308:16 0
13 *222:12 *308:16 0.00802293
14 *225:8 *308:16 0
*RES
1 *1033:X *308:14 47.6426 
2 *308:14 *308:16 48.307 
3 *308:16 *1215:A 40 
*END

*D_NET *309 0.00814879
*CONN
*I *1216:A I *D sg13g2_buf_1
*I *1114:X O *D sg13g2_buf_1
*CAP
1 *1216:A 0
2 *1114:X 5.03117e-05
3 *309:14 0.00208732
4 *309:8 0.00213763
5 *309:14 *310:16 0
6 *309:14 *311:18 0
7 *309:14 *312:18 0.000128163
8 *309:14 *313:10 0.000503003
9 *1088:A *309:8 0
10 *159:31 *309:14 0.000662662
11 *170:19 *309:14 0
12 *198:9 *309:14 0.0025797
13 *205:11 *309:8 0
14 *232:10 *309:14 0
*RES
1 *1114:X *309:8 40.5356 
2 *309:8 *309:14 43.9063 
3 *309:14 *1216:A 20 
*END

*D_NET *310 0.0079775
*CONN
*I *1217:A I *D sg13g2_buf_1
*I *1115:X O *D sg13g2_buf_1
*CAP
1 *1217:A 0
2 *1115:X 0
3 *310:16 0.00148505
4 *310:6 0.00148505
5 NN4BEG[11] *310:16 0.00011101
6 *159:31 *310:16 0
7 *198:9 *310:16 0.00183123
8 *199:21 *310:16 0.00306517
9 *218:14 *310:16 0
10 *309:14 *310:16 0
*RES
1 *1115:X *310:6 40 
2 *310:6 *310:16 39.4773 
3 *310:16 *1217:A 20 
*END

*D_NET *311 0.00882935
*CONN
*I *1218:A I *D sg13g2_buf_1
*I *1116:X O *D sg13g2_buf_1
*CAP
1 *1218:A 0
2 *1116:X 6.83256e-05
3 *311:18 0.00194452
4 *311:8 0.00201285
5 *311:18 *312:10 0.00166933
6 *311:18 *312:18 0.000126425
7 *311:18 *313:10 0.000500141
8 *145:8 *311:18 0.000129657
9 *170:19 *311:18 1.56814e-05
10 *219:22 *311:18 0.000397229
11 *232:10 *311:18 0.00140683
12 *237:12 *311:18 0
13 *302:10 *311:18 0.000558374
14 *309:14 *311:18 0
*RES
1 *1116:X *311:8 40.5356 
2 *311:8 *311:18 43.7724 
3 *311:18 *1218:A 20 
*END

*D_NET *312 0.0043692
*CONN
*I *1219:A I *D sg13g2_buf_1
*I *1117:X O *D sg13g2_buf_1
*CAP
1 *1219:A 0
2 *1117:X 0.000533336
3 *312:18 0.000104836
4 *312:10 0.000638173
5 *145:16 *312:18 1.4965e-05
6 *162:11 *312:10 0.000144027
7 *170:19 *312:10 0.000865917
8 *177:11 *312:10 0.000144027
9 *219:22 *312:10 0
10 *309:14 *312:18 0.000128163
11 *311:18 *312:10 0.00166933
12 *311:18 *312:18 0.000126425
*RES
1 *1117:X *312:10 48.7344 
2 *312:10 *312:18 41.133 
3 *312:18 *1219:A 40 
*END

*D_NET *313 0.0016794
*CONN
*I *1220:A I *D sg13g2_buf_1
*I *1118:X O *D sg13g2_buf_1
*CAP
1 *1220:A 0
2 *1118:X 0.000258754
3 *313:10 0.000258754
4 *160:21 *313:10 0.000143351
5 *199:21 *313:10 1.54008e-05
6 *309:14 *313:10 0.000503003
7 *311:18 *313:10 0.000500141
*RES
1 *1118:X *313:10 43.7286 
2 *313:10 *1220:A 40 
*END

*D_NET *314 0.00114703
*CONN
*I *1221:A I *D sg13g2_buf_1
*I *1119:X O *D sg13g2_buf_1
*CAP
1 *1221:A 0.000168943
2 *1119:X 8.1937e-05
3 *314:8 0.00025088
4 *200:41 *314:8 0.000126354
5 *216:10 *314:8 0.000181027
6 *219:22 *314:8 0.000337884
*RES
1 *1119:X *314:8 41.5862 
2 *314:8 *1221:A 41.4008 
*END

*D_NET *315 0.00413032
*CONN
*I *1222:A I *D sg13g2_buf_1
*I *1105:X O *D sg13g2_buf_1
*CAP
1 *1222:A 0.00022033
2 *1105:X 0.000796644
3 *315:12 0.00101697
4 *1222:A *1224:A 0
5 *1222:A *318:14 0
6 *315:12 *316:16 0
7 *315:12 *318:14 0
8 *1123:A *1222:A 0
9 *158:17 *1222:A 0
10 *158:17 *315:12 0
11 *199:21 *315:12 0
12 *217:16 *315:12 0.00130632
13 *292:14 *1222:A 0
14 *301:30 *1222:A 0.000395068
15 *303:28 *1222:A 0.000394981
*RES
1 *1105:X *315:12 48.4975 
2 *315:12 *1222:A 43.0912 
*END

*D_NET *316 0.00728882
*CONN
*I *1223:A I *D sg13g2_buf_1
*I *1106:X O *D sg13g2_buf_1
*CAP
1 *1223:A 0
2 *1106:X 0
3 *316:16 0.0013614
4 *316:6 0.0013614
5 N4BEG[13] *316:16 0.000176252
6 *158:17 *316:16 0.0011332
7 *159:31 *316:16 0.000922781
8 *217:16 *316:16 0
9 *218:14 *316:16 0.00231168
10 *290:26 *316:16 2.20966e-05
11 *315:12 *316:16 0
*RES
1 *1106:X *316:6 40 
2 *316:6 *316:16 38.2413 
3 *316:16 *1223:A 20 
*END

*D_NET *317 0.00131745
*CONN
*I *1224:A I *D sg13g2_buf_1
*I *1107:X O *D sg13g2_buf_1
*CAP
1 *1224:A 0.000547268
2 *1107:X 0.000547268
3 NN4BEG[4] *1224:A 7.94189e-05
4 NN4BEG[5] *1224:A 0.000143498
5 NN4BEG[6] *1224:A 0
6 *1123:A *1224:A 0
7 *1126:A *1224:A 0
8 *1222:A *1224:A 0
9 *218:14 *1224:A 0
*RES
1 *1107:X *1224:A 45.356 
*END

*D_NET *318 0.00862849
*CONN
*I *1225:A I *D sg13g2_buf_1
*I *1108:X O *D sg13g2_buf_1
*CAP
1 *1225:A 0
2 *1108:X 0.000429691
3 *318:14 0.000810645
4 *318:8 0.00124034
5 *1222:A *318:14 0
6 *171:13 *318:14 0.00184131
7 *217:12 *318:8 0
8 *217:12 *318:14 0
9 *217:16 *318:14 0.00300998
10 *228:8 *318:14 0.00129652
11 *281:12 *318:8 0
12 *301:30 *318:14 0
13 *315:12 *318:14 0
*RES
1 *1108:X *318:8 43.4105 
2 *318:8 *318:14 36.2431 
3 *318:14 *1225:A 20 
*END
