*SPEF "ieee 1481-1999"
*DESIGN "N_term_single"
*DATE "20:47:02 Monday August 25, 2025"
*VENDOR "The OpenROAD Project"
*PROGRAM "OpenROAD"
*VERSION "341650e72dad0dc8571822ff8c5d9c5e365327f7"
*DESIGN_FLOW "NAME_SCOPE LOCAL" "PIN_CAP NONE"
*DIVIDER /
*DELIMITER :
*BUS_DELIMITER []
*T_UNIT 1 NS
*C_UNIT 1 PF
*R_UNIT 1 OHM
*L_UNIT 1 HENRY

*NAME_MAP
*1 Ci
*2 FrameData[0]
*3 FrameData[10]
*4 FrameData[11]
*5 FrameData[12]
*6 FrameData[13]
*7 FrameData[14]
*8 FrameData[15]
*9 FrameData[16]
*10 FrameData[17]
*11 FrameData[18]
*12 FrameData[19]
*13 FrameData[1]
*14 FrameData[20]
*15 FrameData[21]
*16 FrameData[22]
*17 FrameData[23]
*18 FrameData[24]
*19 FrameData[25]
*20 FrameData[26]
*21 FrameData[27]
*22 FrameData[28]
*23 FrameData[29]
*24 FrameData[2]
*25 FrameData[30]
*26 FrameData[31]
*27 FrameData[3]
*28 FrameData[4]
*29 FrameData[5]
*30 FrameData[6]
*31 FrameData[7]
*32 FrameData[8]
*33 FrameData[9]
*34 FrameData_O[0]
*35 FrameData_O[10]
*36 FrameData_O[11]
*37 FrameData_O[12]
*38 FrameData_O[13]
*39 FrameData_O[14]
*40 FrameData_O[15]
*41 FrameData_O[16]
*42 FrameData_O[17]
*43 FrameData_O[18]
*44 FrameData_O[19]
*45 FrameData_O[1]
*46 FrameData_O[20]
*47 FrameData_O[21]
*48 FrameData_O[22]
*49 FrameData_O[23]
*50 FrameData_O[24]
*51 FrameData_O[25]
*52 FrameData_O[26]
*53 FrameData_O[27]
*54 FrameData_O[28]
*55 FrameData_O[29]
*56 FrameData_O[2]
*57 FrameData_O[30]
*58 FrameData_O[31]
*59 FrameData_O[3]
*60 FrameData_O[4]
*61 FrameData_O[5]
*62 FrameData_O[6]
*63 FrameData_O[7]
*64 FrameData_O[8]
*65 FrameData_O[9]
*66 FrameStrobe[0]
*67 FrameStrobe[10]
*68 FrameStrobe[11]
*69 FrameStrobe[12]
*70 FrameStrobe[13]
*71 FrameStrobe[14]
*72 FrameStrobe[15]
*73 FrameStrobe[16]
*74 FrameStrobe[17]
*75 FrameStrobe[18]
*76 FrameStrobe[19]
*77 FrameStrobe[1]
*78 FrameStrobe[2]
*79 FrameStrobe[3]
*80 FrameStrobe[4]
*81 FrameStrobe[5]
*82 FrameStrobe[6]
*83 FrameStrobe[7]
*84 FrameStrobe[8]
*85 FrameStrobe[9]
*86 FrameStrobe_O[0]
*87 FrameStrobe_O[10]
*88 FrameStrobe_O[11]
*89 FrameStrobe_O[12]
*90 FrameStrobe_O[13]
*91 FrameStrobe_O[14]
*92 FrameStrobe_O[15]
*93 FrameStrobe_O[16]
*94 FrameStrobe_O[17]
*95 FrameStrobe_O[18]
*96 FrameStrobe_O[19]
*97 FrameStrobe_O[1]
*98 FrameStrobe_O[2]
*99 FrameStrobe_O[3]
*100 FrameStrobe_O[4]
*101 FrameStrobe_O[5]
*102 FrameStrobe_O[6]
*103 FrameStrobe_O[7]
*104 FrameStrobe_O[8]
*105 FrameStrobe_O[9]
*106 N1END[0]
*107 N1END[1]
*108 N1END[2]
*109 N1END[3]
*110 N2END[0]
*111 N2END[1]
*112 N2END[2]
*113 N2END[3]
*114 N2END[4]
*115 N2END[5]
*116 N2END[6]
*117 N2END[7]
*118 N2MID[0]
*119 N2MID[1]
*120 N2MID[2]
*121 N2MID[3]
*122 N2MID[4]
*123 N2MID[5]
*124 N2MID[6]
*125 N2MID[7]
*126 N4END[0]
*127 N4END[10]
*128 N4END[11]
*129 N4END[12]
*130 N4END[13]
*131 N4END[14]
*132 N4END[15]
*133 N4END[1]
*134 N4END[2]
*135 N4END[3]
*136 N4END[4]
*137 N4END[5]
*138 N4END[6]
*139 N4END[7]
*140 N4END[8]
*141 N4END[9]
*142 NN4END[0]
*143 NN4END[10]
*144 NN4END[11]
*145 NN4END[12]
*146 NN4END[13]
*147 NN4END[14]
*148 NN4END[15]
*149 NN4END[1]
*150 NN4END[2]
*151 NN4END[3]
*152 NN4END[4]
*153 NN4END[5]
*154 NN4END[6]
*155 NN4END[7]
*156 NN4END[8]
*157 NN4END[9]
*158 S1BEG[0]
*159 S1BEG[1]
*160 S1BEG[2]
*161 S1BEG[3]
*162 S2BEG[0]
*163 S2BEG[1]
*164 S2BEG[2]
*165 S2BEG[3]
*166 S2BEG[4]
*167 S2BEG[5]
*168 S2BEG[6]
*169 S2BEG[7]
*170 S2BEGb[0]
*171 S2BEGb[1]
*172 S2BEGb[2]
*173 S2BEGb[3]
*174 S2BEGb[4]
*175 S2BEGb[5]
*176 S2BEGb[6]
*177 S2BEGb[7]
*178 S4BEG[0]
*179 S4BEG[10]
*180 S4BEG[11]
*181 S4BEG[12]
*182 S4BEG[13]
*183 S4BEG[14]
*184 S4BEG[15]
*185 S4BEG[1]
*186 S4BEG[2]
*187 S4BEG[3]
*188 S4BEG[4]
*189 S4BEG[5]
*190 S4BEG[6]
*191 S4BEG[7]
*192 S4BEG[8]
*193 S4BEG[9]
*194 SS4BEG[0]
*195 SS4BEG[10]
*196 SS4BEG[11]
*197 SS4BEG[12]
*198 SS4BEG[13]
*199 SS4BEG[14]
*200 SS4BEG[15]
*201 SS4BEG[1]
*202 SS4BEG[2]
*203 SS4BEG[3]
*204 SS4BEG[4]
*205 SS4BEG[5]
*206 SS4BEG[6]
*207 SS4BEG[7]
*208 SS4BEG[8]
*209 SS4BEG[9]
*210 UserCLK
*211 UserCLKo
*214 net1
*215 net10
*216 net100
*217 net101
*218 net102
*219 net103
*220 net104
*221 net105
*222 net11
*223 net12
*224 net13
*225 net14
*226 net15
*227 net16
*228 net17
*229 net18
*230 net19
*231 net2
*232 net20
*233 net21
*234 net22
*235 net23
*236 net24
*237 net25
*238 net26
*239 net27
*240 net28
*241 net29
*242 net3
*243 net30
*244 net31
*245 net32
*246 net33
*247 net34
*248 net35
*249 net36
*250 net37
*251 net38
*252 net39
*253 net4
*254 net40
*255 net41
*256 net42
*257 net43
*258 net44
*259 net45
*260 net46
*261 net47
*262 net48
*263 net49
*264 net5
*265 net50
*266 net51
*267 net52
*268 net53
*269 net54
*270 net55
*271 net56
*272 net57
*273 net58
*274 net59
*275 net6
*276 net60
*277 net61
*278 net62
*279 net63
*280 net64
*281 net65
*282 net66
*283 net67
*284 net68
*285 net69
*286 net7
*287 net70
*288 net71
*289 net72
*290 net73
*291 net74
*292 net75
*293 net76
*294 net77
*295 net78
*296 net79
*297 net8
*298 net80
*299 net81
*300 net82
*301 net83
*302 net84
*303 net85
*304 net86
*305 net87
*306 net88
*307 net89
*308 net9
*309 net90
*310 net91
*311 net92
*312 net93
*313 net94
*314 net95
*315 net96
*316 net97
*317 net98
*318 net99
*319 FILLER_0_0
*320 FILLER_0_105
*321 FILLER_0_112
*322 FILLER_0_119
*323 FILLER_0_126
*324 FILLER_0_133
*325 FILLER_0_14
*326 FILLER_0_21
*327 FILLER_0_28
*328 FILLER_0_315
*329 FILLER_0_322
*330 FILLER_0_329
*331 FILLER_0_336
*332 FILLER_0_343
*333 FILLER_0_35
*334 FILLER_0_350
*335 FILLER_0_357
*336 FILLER_0_364
*337 FILLER_0_371
*338 FILLER_0_378
*339 FILLER_0_385
*340 FILLER_0_392
*341 FILLER_0_399
*342 FILLER_0_406
*343 FILLER_0_413
*344 FILLER_0_42
*345 FILLER_0_49
*346 FILLER_0_56
*347 FILLER_0_63
*348 FILLER_0_7
*349 FILLER_0_70
*350 FILLER_0_77
*351 FILLER_0_84
*352 FILLER_0_91
*353 FILLER_0_98
*354 FILLER_10_0
*355 FILLER_10_105
*356 FILLER_10_112
*357 FILLER_10_119
*358 FILLER_10_126
*359 FILLER_10_133
*360 FILLER_10_14
*361 FILLER_10_140
*362 FILLER_10_147
*363 FILLER_10_154
*364 FILLER_10_161
*365 FILLER_10_168
*366 FILLER_10_175
*367 FILLER_10_182
*368 FILLER_10_189
*369 FILLER_10_196
*370 FILLER_10_203
*371 FILLER_10_21
*372 FILLER_10_210
*373 FILLER_10_212
*374 FILLER_10_221
*375 FILLER_10_228
*376 FILLER_10_235
*377 FILLER_10_242
*378 FILLER_10_249
*379 FILLER_10_256
*380 FILLER_10_263
*381 FILLER_10_270
*382 FILLER_10_277
*383 FILLER_10_28
*384 FILLER_10_284
*385 FILLER_10_291
*386 FILLER_10_298
*387 FILLER_10_305
*388 FILLER_10_312
*389 FILLER_10_319
*390 FILLER_10_326
*391 FILLER_10_333
*392 FILLER_10_340
*393 FILLER_10_347
*394 FILLER_10_35
*395 FILLER_10_354
*396 FILLER_10_361
*397 FILLER_10_368
*398 FILLER_10_375
*399 FILLER_10_382
*400 FILLER_10_389
*401 FILLER_10_396
*402 FILLER_10_403
*403 FILLER_10_410
*404 FILLER_10_417
*405 FILLER_10_419
*406 FILLER_10_42
*407 FILLER_10_49
*408 FILLER_10_56
*409 FILLER_10_63
*410 FILLER_10_7
*411 FILLER_10_70
*412 FILLER_10_77
*413 FILLER_10_84
*414 FILLER_10_91
*415 FILLER_10_98
*416 FILLER_11_0
*417 FILLER_11_101
*418 FILLER_11_108
*419 FILLER_11_115
*420 FILLER_11_121
*421 FILLER_11_128
*422 FILLER_11_135
*423 FILLER_11_14
*424 FILLER_11_141
*425 FILLER_11_148
*426 FILLER_11_155
*427 FILLER_11_16
*428 FILLER_11_161
*429 FILLER_11_168
*430 FILLER_11_175
*431 FILLER_11_181
*432 FILLER_11_188
*433 FILLER_11_195
*434 FILLER_11_21
*435 FILLER_11_225
*436 FILLER_11_232
*437 FILLER_11_236
*438 FILLER_11_241
*439 FILLER_11_248
*440 FILLER_11_255
*441 FILLER_11_261
*442 FILLER_11_268
*443 FILLER_11_275
*444 FILLER_11_28
*445 FILLER_11_281
*446 FILLER_11_288
*447 FILLER_11_295
*448 FILLER_11_301
*449 FILLER_11_308
*450 FILLER_11_315
*451 FILLER_11_321
*452 FILLER_11_328
*453 FILLER_11_335
*454 FILLER_11_341
*455 FILLER_11_348
*456 FILLER_11_35
*457 FILLER_11_355
*458 FILLER_11_361
*459 FILLER_11_368
*460 FILLER_11_375
*461 FILLER_11_381
*462 FILLER_11_388
*463 FILLER_11_395
*464 FILLER_11_401
*465 FILLER_11_408
*466 FILLER_11_41
*467 FILLER_11_421
*468 FILLER_11_423
*469 FILLER_11_48
*470 FILLER_11_55
*471 FILLER_11_61
*472 FILLER_11_68
*473 FILLER_11_7
*474 FILLER_11_75
*475 FILLER_11_81
*476 FILLER_11_88
*477 FILLER_11_95
*478 FILLER_1_0
*479 FILLER_1_105
*480 FILLER_1_112
*481 FILLER_1_119
*482 FILLER_1_126
*483 FILLER_1_133
*484 FILLER_1_14
*485 FILLER_1_140
*486 FILLER_1_147
*487 FILLER_1_154
*488 FILLER_1_21
*489 FILLER_1_28
*490 FILLER_1_311
*491 FILLER_1_318
*492 FILLER_1_325
*493 FILLER_1_332
*494 FILLER_1_339
*495 FILLER_1_346
*496 FILLER_1_35
*497 FILLER_1_353
*498 FILLER_1_360
*499 FILLER_1_367
*500 FILLER_1_374
*501 FILLER_1_381
*502 FILLER_1_388
*503 FILLER_1_395
*504 FILLER_1_402
*505 FILLER_1_409
*506 FILLER_1_416
*507 FILLER_1_42
*508 FILLER_1_423
*509 FILLER_1_49
*510 FILLER_1_56
*511 FILLER_1_63
*512 FILLER_1_7
*513 FILLER_1_70
*514 FILLER_1_77
*515 FILLER_1_84
*516 FILLER_1_91
*517 FILLER_1_98
*518 FILLER_2_0
*519 FILLER_2_105
*520 FILLER_2_112
*521 FILLER_2_119
*522 FILLER_2_126
*523 FILLER_2_133
*524 FILLER_2_14
*525 FILLER_2_140
*526 FILLER_2_147
*527 FILLER_2_154
*528 FILLER_2_161
*529 FILLER_2_168
*530 FILLER_2_175
*531 FILLER_2_182
*532 FILLER_2_189
*533 FILLER_2_21
*534 FILLER_2_213
*535 FILLER_2_226
*536 FILLER_2_28
*537 FILLER_2_303
*538 FILLER_2_310
*539 FILLER_2_317
*540 FILLER_2_324
*541 FILLER_2_331
*542 FILLER_2_338
*543 FILLER_2_345
*544 FILLER_2_35
*545 FILLER_2_352
*546 FILLER_2_359
*547 FILLER_2_366
*548 FILLER_2_373
*549 FILLER_2_380
*550 FILLER_2_387
*551 FILLER_2_394
*552 FILLER_2_401
*553 FILLER_2_408
*554 FILLER_2_415
*555 FILLER_2_42
*556 FILLER_2_422
*557 FILLER_2_426
*558 FILLER_2_49
*559 FILLER_2_56
*560 FILLER_2_63
*561 FILLER_2_7
*562 FILLER_2_70
*563 FILLER_2_77
*564 FILLER_2_84
*565 FILLER_2_91
*566 FILLER_2_98
*567 FILLER_3_0
*568 FILLER_3_105
*569 FILLER_3_112
*570 FILLER_3_119
*571 FILLER_3_126
*572 FILLER_3_133
*573 FILLER_3_14
*574 FILLER_3_140
*575 FILLER_3_147
*576 FILLER_3_154
*577 FILLER_3_161
*578 FILLER_3_168
*579 FILLER_3_175
*580 FILLER_3_182
*581 FILLER_3_189
*582 FILLER_3_196
*583 FILLER_3_203
*584 FILLER_3_207
*585 FILLER_3_21
*586 FILLER_3_217
*587 FILLER_3_219
*588 FILLER_3_224
*589 FILLER_3_228
*590 FILLER_3_233
*591 FILLER_3_240
*592 FILLER_3_247
*593 FILLER_3_254
*594 FILLER_3_258
*595 FILLER_3_267
*596 FILLER_3_274
*597 FILLER_3_28
*598 FILLER_3_281
*599 FILLER_3_288
*600 FILLER_3_295
*601 FILLER_3_302
*602 FILLER_3_309
*603 FILLER_3_316
*604 FILLER_3_323
*605 FILLER_3_330
*606 FILLER_3_337
*607 FILLER_3_344
*608 FILLER_3_35
*609 FILLER_3_351
*610 FILLER_3_358
*611 FILLER_3_364
*612 FILLER_3_368
*613 FILLER_3_373
*614 FILLER_3_380
*615 FILLER_3_387
*616 FILLER_3_394
*617 FILLER_3_401
*618 FILLER_3_408
*619 FILLER_3_415
*620 FILLER_3_42
*621 FILLER_3_422
*622 FILLER_3_426
*623 FILLER_3_49
*624 FILLER_3_56
*625 FILLER_3_63
*626 FILLER_3_7
*627 FILLER_3_70
*628 FILLER_3_77
*629 FILLER_3_84
*630 FILLER_3_91
*631 FILLER_3_98
*632 FILLER_4_0
*633 FILLER_4_105
*634 FILLER_4_112
*635 FILLER_4_119
*636 FILLER_4_126
*637 FILLER_4_133
*638 FILLER_4_14
*639 FILLER_4_140
*640 FILLER_4_147
*641 FILLER_4_154
*642 FILLER_4_161
*643 FILLER_4_168
*644 FILLER_4_173
*645 FILLER_4_180
*646 FILLER_4_187
*647 FILLER_4_194
*648 FILLER_4_201
*649 FILLER_4_208
*650 FILLER_4_21
*651 FILLER_4_215
*652 FILLER_4_223
*653 FILLER_4_230
*654 FILLER_4_237
*655 FILLER_4_244
*656 FILLER_4_251
*657 FILLER_4_258
*658 FILLER_4_265
*659 FILLER_4_276
*660 FILLER_4_28
*661 FILLER_4_283
*662 FILLER_4_290
*663 FILLER_4_297
*664 FILLER_4_304
*665 FILLER_4_311
*666 FILLER_4_318
*667 FILLER_4_325
*668 FILLER_4_331
*669 FILLER_4_338
*670 FILLER_4_345
*671 FILLER_4_35
*672 FILLER_4_352
*673 FILLER_4_359
*674 FILLER_4_366
*675 FILLER_4_373
*676 FILLER_4_380
*677 FILLER_4_387
*678 FILLER_4_394
*679 FILLER_4_401
*680 FILLER_4_408
*681 FILLER_4_415
*682 FILLER_4_42
*683 FILLER_4_422
*684 FILLER_4_426
*685 FILLER_4_49
*686 FILLER_4_56
*687 FILLER_4_63
*688 FILLER_4_7
*689 FILLER_4_70
*690 FILLER_4_77
*691 FILLER_4_84
*692 FILLER_4_91
*693 FILLER_4_98
*694 FILLER_5_0
*695 FILLER_5_105
*696 FILLER_5_112
*697 FILLER_5_119
*698 FILLER_5_126
*699 FILLER_5_133
*700 FILLER_5_14
*701 FILLER_5_140
*702 FILLER_5_147
*703 FILLER_5_154
*704 FILLER_5_161
*705 FILLER_5_168
*706 FILLER_5_175
*707 FILLER_5_182
*708 FILLER_5_189
*709 FILLER_5_196
*710 FILLER_5_203
*711 FILLER_5_207
*712 FILLER_5_21
*713 FILLER_5_212
*714 FILLER_5_221
*715 FILLER_5_228
*716 FILLER_5_240
*717 FILLER_5_248
*718 FILLER_5_255
*719 FILLER_5_262
*720 FILLER_5_269
*721 FILLER_5_276
*722 FILLER_5_28
*723 FILLER_5_283
*724 FILLER_5_290
*725 FILLER_5_297
*726 FILLER_5_308
*727 FILLER_5_316
*728 FILLER_5_323
*729 FILLER_5_330
*730 FILLER_5_337
*731 FILLER_5_344
*732 FILLER_5_35
*733 FILLER_5_351
*734 FILLER_5_358
*735 FILLER_5_365
*736 FILLER_5_372
*737 FILLER_5_379
*738 FILLER_5_386
*739 FILLER_5_393
*740 FILLER_5_400
*741 FILLER_5_407
*742 FILLER_5_414
*743 FILLER_5_42
*744 FILLER_5_421
*745 FILLER_5_49
*746 FILLER_5_56
*747 FILLER_5_63
*748 FILLER_5_7
*749 FILLER_5_70
*750 FILLER_5_77
*751 FILLER_5_84
*752 FILLER_5_91
*753 FILLER_5_98
*754 FILLER_6_0
*755 FILLER_6_105
*756 FILLER_6_112
*757 FILLER_6_119
*758 FILLER_6_126
*759 FILLER_6_133
*760 FILLER_6_14
*761 FILLER_6_140
*762 FILLER_6_147
*763 FILLER_6_154
*764 FILLER_6_161
*765 FILLER_6_168
*766 FILLER_6_172
*767 FILLER_6_177
*768 FILLER_6_184
*769 FILLER_6_191
*770 FILLER_6_193
*771 FILLER_6_198
*772 FILLER_6_206
*773 FILLER_6_208
*774 FILLER_6_21
*775 FILLER_6_217
*776 FILLER_6_222
*777 FILLER_6_232
*778 FILLER_6_239
*779 FILLER_6_246
*780 FILLER_6_253
*781 FILLER_6_260
*782 FILLER_6_267
*783 FILLER_6_274
*784 FILLER_6_28
*785 FILLER_6_281
*786 FILLER_6_288
*787 FILLER_6_295
*788 FILLER_6_302
*789 FILLER_6_309
*790 FILLER_6_316
*791 FILLER_6_323
*792 FILLER_6_330
*793 FILLER_6_337
*794 FILLER_6_342
*795 FILLER_6_349
*796 FILLER_6_35
*797 FILLER_6_356
*798 FILLER_6_363
*799 FILLER_6_370
*800 FILLER_6_376
*801 FILLER_6_383
*802 FILLER_6_390
*803 FILLER_6_397
*804 FILLER_6_404
*805 FILLER_6_411
*806 FILLER_6_418
*807 FILLER_6_42
*808 FILLER_6_425
*809 FILLER_6_427
*810 FILLER_6_49
*811 FILLER_6_56
*812 FILLER_6_63
*813 FILLER_6_7
*814 FILLER_6_70
*815 FILLER_6_77
*816 FILLER_6_84
*817 FILLER_6_91
*818 FILLER_6_98
*819 FILLER_7_0
*820 FILLER_7_105
*821 FILLER_7_112
*822 FILLER_7_119
*823 FILLER_7_126
*824 FILLER_7_133
*825 FILLER_7_14
*826 FILLER_7_140
*827 FILLER_7_147
*828 FILLER_7_154
*829 FILLER_7_161
*830 FILLER_7_168
*831 FILLER_7_175
*832 FILLER_7_182
*833 FILLER_7_189
*834 FILLER_7_196
*835 FILLER_7_203
*836 FILLER_7_21
*837 FILLER_7_210
*838 FILLER_7_212
*839 FILLER_7_221
*840 FILLER_7_223
*841 FILLER_7_228
*842 FILLER_7_235
*843 FILLER_7_242
*844 FILLER_7_249
*845 FILLER_7_256
*846 FILLER_7_263
*847 FILLER_7_270
*848 FILLER_7_277
*849 FILLER_7_28
*850 FILLER_7_284
*851 FILLER_7_291
*852 FILLER_7_298
*853 FILLER_7_305
*854 FILLER_7_312
*855 FILLER_7_319
*856 FILLER_7_326
*857 FILLER_7_333
*858 FILLER_7_340
*859 FILLER_7_347
*860 FILLER_7_35
*861 FILLER_7_352
*862 FILLER_7_359
*863 FILLER_7_366
*864 FILLER_7_373
*865 FILLER_7_380
*866 FILLER_7_387
*867 FILLER_7_394
*868 FILLER_7_401
*869 FILLER_7_408
*870 FILLER_7_415
*871 FILLER_7_42
*872 FILLER_7_422
*873 FILLER_7_426
*874 FILLER_7_49
*875 FILLER_7_56
*876 FILLER_7_63
*877 FILLER_7_7
*878 FILLER_7_70
*879 FILLER_7_77
*880 FILLER_7_84
*881 FILLER_7_91
*882 FILLER_7_98
*883 FILLER_8_0
*884 FILLER_8_105
*885 FILLER_8_112
*886 FILLER_8_119
*887 FILLER_8_126
*888 FILLER_8_133
*889 FILLER_8_14
*890 FILLER_8_140
*891 FILLER_8_147
*892 FILLER_8_154
*893 FILLER_8_161
*894 FILLER_8_168
*895 FILLER_8_175
*896 FILLER_8_182
*897 FILLER_8_189
*898 FILLER_8_196
*899 FILLER_8_203
*900 FILLER_8_21
*901 FILLER_8_210
*902 FILLER_8_219
*903 FILLER_8_224
*904 FILLER_8_231
*905 FILLER_8_238
*906 FILLER_8_245
*907 FILLER_8_252
*908 FILLER_8_259
*909 FILLER_8_266
*910 FILLER_8_273
*911 FILLER_8_28
*912 FILLER_8_280
*913 FILLER_8_287
*914 FILLER_8_294
*915 FILLER_8_301
*916 FILLER_8_308
*917 FILLER_8_315
*918 FILLER_8_322
*919 FILLER_8_329
*920 FILLER_8_336
*921 FILLER_8_343
*922 FILLER_8_35
*923 FILLER_8_350
*924 FILLER_8_357
*925 FILLER_8_364
*926 FILLER_8_371
*927 FILLER_8_378
*928 FILLER_8_385
*929 FILLER_8_392
*930 FILLER_8_399
*931 FILLER_8_406
*932 FILLER_8_413
*933 FILLER_8_42
*934 FILLER_8_420
*935 FILLER_8_427
*936 FILLER_8_49
*937 FILLER_8_56
*938 FILLER_8_63
*939 FILLER_8_7
*940 FILLER_8_70
*941 FILLER_8_77
*942 FILLER_8_84
*943 FILLER_8_91
*944 FILLER_8_98
*945 FILLER_9_0
*946 FILLER_9_105
*947 FILLER_9_112
*948 FILLER_9_119
*949 FILLER_9_126
*950 FILLER_9_133
*951 FILLER_9_14
*952 FILLER_9_140
*953 FILLER_9_147
*954 FILLER_9_154
*955 FILLER_9_161
*956 FILLER_9_168
*957 FILLER_9_175
*958 FILLER_9_182
*959 FILLER_9_189
*960 FILLER_9_196
*961 FILLER_9_203
*962 FILLER_9_21
*963 FILLER_9_210
*964 FILLER_9_220
*965 FILLER_9_227
*966 FILLER_9_234
*967 FILLER_9_241
*968 FILLER_9_248
*969 FILLER_9_255
*970 FILLER_9_262
*971 FILLER_9_269
*972 FILLER_9_276
*973 FILLER_9_28
*974 FILLER_9_283
*975 FILLER_9_290
*976 FILLER_9_297
*977 FILLER_9_304
*978 FILLER_9_311
*979 FILLER_9_318
*980 FILLER_9_325
*981 FILLER_9_332
*982 FILLER_9_339
*983 FILLER_9_346
*984 FILLER_9_35
*985 FILLER_9_353
*986 FILLER_9_360
*987 FILLER_9_367
*988 FILLER_9_374
*989 FILLER_9_381
*990 FILLER_9_388
*991 FILLER_9_395
*992 FILLER_9_402
*993 FILLER_9_409
*994 FILLER_9_416
*995 FILLER_9_42
*996 FILLER_9_423
*997 FILLER_9_427
*998 FILLER_9_49
*999 FILLER_9_56
*1000 FILLER_9_63
*1001 FILLER_9_7
*1002 FILLER_9_70
*1003 FILLER_9_77
*1004 FILLER_9_84
*1005 FILLER_9_91
*1006 FILLER_9_98
*1007 _000_
*1008 _001_
*1009 _002_
*1010 _003_
*1011 _004_
*1012 _005_
*1013 _006_
*1014 _007_
*1015 _008_
*1016 _009_
*1017 _010_
*1018 _011_
*1019 _012_
*1020 _013_
*1021 _014_
*1022 _015_
*1023 _016_
*1024 _017_
*1025 _018_
*1026 _019_
*1027 _020_
*1028 _021_
*1029 _022_
*1030 _023_
*1031 _024_
*1032 _025_
*1033 _026_
*1034 _027_
*1035 _028_
*1036 _029_
*1037 _030_
*1038 _031_
*1039 _032_
*1040 _033_
*1041 _034_
*1042 _035_
*1043 _036_
*1044 _037_
*1045 _038_
*1046 _039_
*1047 _040_
*1048 _041_
*1049 _042_
*1050 _043_
*1051 _044_
*1052 _045_
*1053 _046_
*1054 _047_
*1055 _048_
*1056 _049_
*1057 _050_
*1058 _051_
*1059 _052_
*1060 _053_
*1061 _054_
*1062 _055_
*1063 _056_
*1064 _057_
*1065 _058_
*1066 _059_
*1067 _060_
*1068 _061_
*1069 _062_
*1070 _063_
*1071 _064_
*1072 _065_
*1073 _066_
*1074 _067_
*1075 _068_
*1076 _069_
*1077 _070_
*1078 _071_
*1079 _072_
*1080 _073_
*1081 _074_
*1082 _075_
*1083 _076_
*1084 _077_
*1085 _078_
*1086 _079_
*1087 _080_
*1088 _081_
*1089 _082_
*1090 _083_
*1091 _084_
*1092 _085_
*1093 _086_
*1094 _087_
*1095 _088_
*1096 _089_
*1097 _090_
*1098 _091_
*1099 _092_
*1100 _093_
*1101 _094_
*1102 _095_
*1103 _096_
*1104 _097_
*1105 _098_
*1106 _099_
*1107 _100_
*1108 _101_
*1109 _102_
*1110 _103_
*1111 _104_
*1112 output1
*1113 output10
*1114 output100
*1115 output101
*1116 output102
*1117 output103
*1118 output104
*1119 output105
*1120 output11
*1121 output12
*1122 output13
*1123 output14
*1124 output15
*1125 output16
*1126 output17
*1127 output18
*1128 output19
*1129 output2
*1130 output20
*1131 output21
*1132 output22
*1133 output23
*1134 output24
*1135 output25
*1136 output26
*1137 output27
*1138 output28
*1139 output29
*1140 output3
*1141 output30
*1142 output31
*1143 output32
*1144 output33
*1145 output34
*1146 output35
*1147 output36
*1148 output37
*1149 output38
*1150 output39
*1151 output4
*1152 output40
*1153 output41
*1154 output42
*1155 output43
*1156 output44
*1157 output45
*1158 output46
*1159 output47
*1160 output48
*1161 output49
*1162 output5
*1163 output50
*1164 output51
*1165 output52
*1166 output53
*1167 output54
*1168 output55
*1169 output56
*1170 output57
*1171 output58
*1172 output59
*1173 output6
*1174 output60
*1175 output61
*1176 output62
*1177 output63
*1178 output64
*1179 output65
*1180 output66
*1181 output67
*1182 output68
*1183 output69
*1184 output7
*1185 output70
*1186 output71
*1187 output72
*1188 output73
*1189 output74
*1190 output75
*1191 output76
*1192 output77
*1193 output78
*1194 output79
*1195 output8
*1196 output80
*1197 output81
*1198 output82
*1199 output83
*1200 output84
*1201 output85
*1202 output86
*1203 output87
*1204 output88
*1205 output89
*1206 output9
*1207 output90
*1208 output91
*1209 output92
*1210 output93
*1211 output94
*1212 output95
*1213 output96
*1214 output97
*1215 output98
*1216 output99

*PORTS
Ci I
FrameData[0] I
FrameData[10] I
FrameData[11] I
FrameData[12] I
FrameData[13] I
FrameData[14] I
FrameData[15] I
FrameData[16] I
FrameData[17] I
FrameData[18] I
FrameData[19] I
FrameData[1] I
FrameData[20] I
FrameData[21] I
FrameData[22] I
FrameData[23] I
FrameData[24] I
FrameData[25] I
FrameData[26] I
FrameData[27] I
FrameData[28] I
FrameData[29] I
FrameData[2] I
FrameData[30] I
FrameData[31] I
FrameData[3] I
FrameData[4] I
FrameData[5] I
FrameData[6] I
FrameData[7] I
FrameData[8] I
FrameData[9] I
FrameData_O[0] O
FrameData_O[10] O
FrameData_O[11] O
FrameData_O[12] O
FrameData_O[13] O
FrameData_O[14] O
FrameData_O[15] O
FrameData_O[16] O
FrameData_O[17] O
FrameData_O[18] O
FrameData_O[19] O
FrameData_O[1] O
FrameData_O[20] O
FrameData_O[21] O
FrameData_O[22] O
FrameData_O[23] O
FrameData_O[24] O
FrameData_O[25] O
FrameData_O[26] O
FrameData_O[27] O
FrameData_O[28] O
FrameData_O[29] O
FrameData_O[2] O
FrameData_O[30] O
FrameData_O[31] O
FrameData_O[3] O
FrameData_O[4] O
FrameData_O[5] O
FrameData_O[6] O
FrameData_O[7] O
FrameData_O[8] O
FrameData_O[9] O
FrameStrobe[0] I
FrameStrobe[10] I
FrameStrobe[11] I
FrameStrobe[12] I
FrameStrobe[13] I
FrameStrobe[14] I
FrameStrobe[15] I
FrameStrobe[16] I
FrameStrobe[17] I
FrameStrobe[18] I
FrameStrobe[19] I
FrameStrobe[1] I
FrameStrobe[2] I
FrameStrobe[3] I
FrameStrobe[4] I
FrameStrobe[5] I
FrameStrobe[6] I
FrameStrobe[7] I
FrameStrobe[8] I
FrameStrobe[9] I
FrameStrobe_O[0] O
FrameStrobe_O[10] O
FrameStrobe_O[11] O
FrameStrobe_O[12] O
FrameStrobe_O[13] O
FrameStrobe_O[14] O
FrameStrobe_O[15] O
FrameStrobe_O[16] O
FrameStrobe_O[17] O
FrameStrobe_O[18] O
FrameStrobe_O[19] O
FrameStrobe_O[1] O
FrameStrobe_O[2] O
FrameStrobe_O[3] O
FrameStrobe_O[4] O
FrameStrobe_O[5] O
FrameStrobe_O[6] O
FrameStrobe_O[7] O
FrameStrobe_O[8] O
FrameStrobe_O[9] O
N1END[0] I
N1END[1] I
N1END[2] I
N1END[3] I
N2END[0] I
N2END[1] I
N2END[2] I
N2END[3] I
N2END[4] I
N2END[5] I
N2END[6] I
N2END[7] I
N2MID[0] I
N2MID[1] I
N2MID[2] I
N2MID[3] I
N2MID[4] I
N2MID[5] I
N2MID[6] I
N2MID[7] I
N4END[0] I
N4END[10] I
N4END[11] I
N4END[12] I
N4END[13] I
N4END[14] I
N4END[15] I
N4END[1] I
N4END[2] I
N4END[3] I
N4END[4] I
N4END[5] I
N4END[6] I
N4END[7] I
N4END[8] I
N4END[9] I
NN4END[0] I
NN4END[10] I
NN4END[11] I
NN4END[12] I
NN4END[13] I
NN4END[14] I
NN4END[15] I
NN4END[1] I
NN4END[2] I
NN4END[3] I
NN4END[4] I
NN4END[5] I
NN4END[6] I
NN4END[7] I
NN4END[8] I
NN4END[9] I
S1BEG[0] O
S1BEG[1] O
S1BEG[2] O
S1BEG[3] O
S2BEG[0] O
S2BEG[1] O
S2BEG[2] O
S2BEG[3] O
S2BEG[4] O
S2BEG[5] O
S2BEG[6] O
S2BEG[7] O
S2BEGb[0] O
S2BEGb[1] O
S2BEGb[2] O
S2BEGb[3] O
S2BEGb[4] O
S2BEGb[5] O
S2BEGb[6] O
S2BEGb[7] O
S4BEG[0] O
S4BEG[10] O
S4BEG[11] O
S4BEG[12] O
S4BEG[13] O
S4BEG[14] O
S4BEG[15] O
S4BEG[1] O
S4BEG[2] O
S4BEG[3] O
S4BEG[4] O
S4BEG[5] O
S4BEG[6] O
S4BEG[7] O
S4BEG[8] O
S4BEG[9] O
SS4BEG[0] O
SS4BEG[10] O
SS4BEG[11] O
SS4BEG[12] O
SS4BEG[13] O
SS4BEG[14] O
SS4BEG[15] O
SS4BEG[1] O
SS4BEG[2] O
SS4BEG[3] O
SS4BEG[4] O
SS4BEG[5] O
SS4BEG[6] O
SS4BEG[7] O
SS4BEG[8] O
SS4BEG[9] O
UserCLK I
UserCLKo O

*D_NET *2 0.0209068
*CONN
*P FrameData[0] I
*I *1007:A I *D sg13g2_buf_1
*CAP
1 FrameData[0] 0.00309829
2 *1007:A 0.000916556
3 *2:17 0.00237254
4 *2:9 0.0026189
5 *2:5 0.00426121
6 *1007:A *1018:A 0.000338077
7 *1007:A *1020:A 0.000175809
8 *1007:A *1171:A 1.53556e-05
9 *1007:A *3:17 0.000207686
10 *1007:A *135:15 0
11 *1007:A *245:8 8.00842e-05
12 *1007:A *275:8 0
13 *2:5 *13:13 0
14 *2:5 *124:13 0.00150518
15 *2:9 *24:19 0.00118711
16 *2:9 *141:11 0
17 *2:17 *1021:A 0.000289504
18 *2:17 *7:5 0
19 *2:17 *111:13 0
20 *2:17 *275:10 0.00012816
21 *2:17 *314:18 0.00371232
*RES
1 FrameData[0] *2:5 36.2869 
2 *2:5 *2:9 32.6484 
3 *2:9 *2:17 38.3237 
4 *2:17 *1007:A 49.0434 
*END

*D_NET *3 0.0149253
*CONN
*P FrameData[10] I
*I *1017:A I *D sg13g2_buf_1
*CAP
1 FrameData[10] 0.00327377
2 *1017:A 0
3 *3:17 0.00179803
4 *3:11 0.00189869
5 *3:5 0.00337443
6 *3:5 *4:11 0
7 *3:5 *5:5 0
8 *3:5 *33:5 0
9 *3:5 *123:13 0.00283627
10 *3:5 *138:9 0.00103458
11 *3:11 *28:11 0.000181483
12 *3:17 *1018:A 0.00020871
13 *3:17 *5:5 0
14 *3:17 *82:9 0
15 *3:17 *128:13 0
16 *3:17 *216:20 0
17 *3:17 *231:8 0
18 *3:17 *242:8 0.000111685
19 *1007:A *3:17 0.000207686
*RES
1 FrameData[10] *3:5 41.9725 
2 *3:5 *3:11 41.1845 
3 *3:11 *3:17 35.8414 
4 *3:17 *1017:A 20 
*END

*D_NET *4 0.0201529
*CONN
*P FrameData[11] I
*I *1018:A I *D sg13g2_buf_1
*CAP
1 FrameData[11] 0.000866164
2 *1018:A 0.000208002
3 *4:13 0.00346773
4 *4:11 0.00412589
5 *4:11 *5:5 0
6 *4:13 *5:5 0.0100076
7 *4:13 *6:5 0
8 *4:13 *309:14 0.000930738
9 *1007:A *1018:A 0.000338077
10 *3:5 *4:11 0
11 *3:17 *1018:A 0.00020871
*RES
1 FrameData[11] *4:11 49.2906 
2 *4:11 *4:13 46.3294 
3 *4:13 *1018:A 42.266 
*END

*D_NET *5 0.019791
*CONN
*P FrameData[12] I
*I *1019:A I *D sg13g2_buf_1
*CAP
1 FrameData[12] 0.00342104
2 *1019:A 0.00023139
3 *5:5 0.00365243
4 *1019:A *1020:A 0
5 *1019:A *260:10 0
6 *5:5 *6:5 0
7 *5:5 *82:9 0.00247854
8 *5:5 *128:13 0
9 *5:5 *138:9 0
10 *5:5 *242:12 0
11 *3:5 *5:5 0
12 *3:17 *5:5 0
13 *4:11 *5:5 0
14 *4:13 *5:5 0.0100076
*RES
1 FrameData[12] *5:5 55.3213 
2 *5:5 *1019:A 41.0377 
*END

*D_NET *6 0.0137356
*CONN
*P FrameData[13] I
*I *1020:A I *D sg13g2_buf_1
*CAP
1 FrameData[13] 0.00522135
2 *1020:A 0.00011752
3 *6:5 0.00533887
4 *6:5 *7:5 0
5 *6:5 *111:13 0
6 *6:5 *263:8 0.000556238
7 *6:5 *309:14 0.00232579
8 *1007:A *1020:A 0.000175809
9 *1019:A *1020:A 0
10 *4:13 *6:5 0
11 *5:5 *6:5 0
*RES
1 FrameData[13] *6:5 54.3325 
2 *6:5 *1020:A 41.1845 
*END

*D_NET *7 0.0109412
*CONN
*P FrameData[14] I
*I *1021:A I *D sg13g2_buf_1
*CAP
1 FrameData[14] 0.00521307
2 *1021:A 0.000112799
3 *7:5 0.00532586
4 *7:5 *8:7 0
5 *7:5 *8:9 0
6 *7:5 *111:13 0
7 *7:5 *314:18 0
8 *2:17 *1021:A 0.000289504
9 *2:17 *7:5 0
10 *6:5 *7:5 0
*RES
1 FrameData[14] *7:5 51.8605 
2 *7:5 *1021:A 41.6583 
*END

*D_NET *8 0.0142047
*CONN
*P FrameData[15] I
*I *1022:A I *D sg13g2_buf_1
*CAP
1 FrameData[15] 9.67415e-05
2 *1022:A 0.000101182
3 *8:9 0.00435715
4 *8:7 0.00435271
5 *1022:A *1023:A 0
6 *1022:A *81:29 0
7 *8:7 *9:11 0
8 *8:9 *9:11 0.00158587
9 *8:9 *10:5 0
10 *8:9 *81:29 0.000291165
11 *8:9 *84:21 0
12 *8:9 *133:13 0
13 *8:9 *262:12 0.00341992
14 *7:5 *8:7 0
15 *7:5 *8:9 0
*RES
1 FrameData[15] *8:7 1.1948 
2 *8:7 *8:9 53.0038 
3 *8:9 *1022:A 40.9682 
*END

*D_NET *9 0.0178525
*CONN
*P FrameData[16] I
*I *1023:A I *D sg13g2_buf_1
*CAP
1 FrameData[16] 0.000634699
2 *1023:A 8.24986e-05
3 *9:13 0.00442994
4 *9:11 0.00498214
5 *1023:A *260:10 0
6 *9:11 *10:5 0
7 *9:13 *10:5 0
8 *9:13 *11:11 0
9 *9:13 *110:9 0.00520526
10 *9:13 *112:11 0
11 *9:13 *112:19 0.000932111
12 *1022:A *1023:A 0
13 *8:7 *9:11 0
14 *8:9 *9:11 0.00158587
*RES
1 FrameData[16] *9:11 49.0125 
2 *9:11 *9:13 46.8238 
3 *9:13 *1023:A 40.6639 
*END

*D_NET *10 0.0140615
*CONN
*P FrameData[17] I
*I *1024:A I *D sg13g2_buf_1
*CAP
1 FrameData[17] 0.00412371
2 *1024:A 0
3 *10:17 0
4 *10:13 0.000774949
5 *10:5 0.00489866
6 *10:5 *11:11 0
7 *10:5 *83:13 0.000610967
8 *10:5 *110:9 0.00365321
9 *10:5 *262:12 0
10 *10:13 *13:21 0
11 *10:13 *286:16 0
12 *10:13 *297:12 0
13 *8:9 *10:5 0
14 *9:11 *10:5 0
15 *9:13 *10:5 0
*RES
1 FrameData[17] *10:5 47.1637 
2 *10:5 *10:13 48.8271 
3 *10:13 *10:17 40 
4 *10:17 *1024:A 40 
*END

*D_NET *11 0.0137828
*CONN
*P FrameData[18] I
*I *1025:A I *D sg13g2_buf_1
*CAP
1 FrameData[18] 0.00370908
2 *1025:A 0
3 *11:15 0.0016597
4 *11:11 0.00536878
5 *11:11 *12:5 0
6 *11:11 *112:11 0.00158157
7 *11:15 *12:5 0.00146368
8 *11:15 *112:19 0
9 *11:15 *137:9 0
10 *9:13 *11:11 0
11 *10:5 *11:11 0
*RES
1 FrameData[18] *11:11 39.4696 
2 *11:11 *11:15 35.9238 
3 *11:15 *1025:A 20 
*END

*D_NET *12 0.0162202
*CONN
*P FrameData[19] I
*I *1026:A I *D sg13g2_buf_1
*CAP
1 FrameData[19] 0.00448703
2 *1026:A 0.000764886
3 *12:13 0.00172809
4 *12:5 0.00545024
5 *1026:A *1027:A 0
6 *1026:A *15:9 0
7 *1026:A *17:9 0
8 *1026:A *225:10 0
9 *1026:A *226:8 0
10 *1026:A *227:8 0
11 *1026:A *228:10 2.20736e-05
12 *1026:A *259:10 0
13 *1026:A *261:10 0
14 *1026:A *308:8 0
15 *12:5 *14:7 0
16 *12:5 *14:9 0
17 *12:5 *137:9 0.00183722
18 *12:13 *15:9 0
19 *12:13 *17:9 0
20 *12:13 *265:10 0.000466959
21 *11:11 *12:5 0
22 *11:15 *12:5 0.00146368
*RES
1 FrameData[19] *12:5 45.1861 
2 *12:5 *12:13 49.9086 
3 *12:13 *1026:A 47.7147 
*END

*D_NET *13 0.0206332
*CONN
*P FrameData[1] I
*I *1008:A I *D sg13g2_buf_1
*CAP
1 FrameData[1] 0.00243958
2 *1008:A 0
3 *13:31 2.96157e-05
4 *13:25 0.00128574
5 *13:21 0.00274236
6 *13:17 0.0025302
7 *13:13 0.00348354
8 *13:13 *24:13 0
9 *13:13 *106:9 0.00113719
10 *13:13 *119:9 0.000607109
11 *13:17 *27:11 0
12 *13:17 *30:11 0.000865527
13 *13:21 *31:19 0.00543736
14 *13:25 *24:29 0
15 *13:25 *27:21 0
16 *13:25 *28:17 0
17 *13:25 *31:25 0
18 *13:31 *24:37 7.4933e-05
19 *13:31 *316:28 0
20 *2:5 *13:13 0
21 *10:13 *13:21 0
*RES
1 FrameData[1] *13:13 30.4571 
2 *13:13 *13:17 32.2158 
3 *13:17 *13:21 45.0702 
4 *13:21 *13:25 30.2691 
5 *13:25 *13:31 40.3502 
6 *13:31 *1008:A 20 
*END

*D_NET *14 0.0177477
*CONN
*P FrameData[20] I
*I *1027:A I *D sg13g2_buf_1
*CAP
1 FrameData[20] 7.52775e-05
2 *1027:A 0.000188771
3 *14:9 0.00481987
4 *14:7 0.00470637
5 *14:7 *15:7 0
6 *14:9 *15:7 0
7 *14:9 *136:9 0.00403192
8 *14:9 *137:9 0.00392553
9 *14:9 *258:14 0
10 *1026:A *1027:A 0
11 *12:5 *14:7 0
12 *12:5 *14:9 0
*RES
1 FrameData[20] *14:7 0.9785 
2 *14:7 *14:9 54.487 
3 *14:9 *1027:A 41.6171 
*END

*D_NET *15 0.0107347
*CONN
*P FrameData[21] I
*I *1028:A I *D sg13g2_buf_1
*CAP
1 FrameData[21] 0.00137972
2 *1028:A 0
3 *15:9 0.00398762
4 *15:7 0.00536733
5 *15:7 *16:7 0
6 *15:9 *16:7 0
7 *15:9 *17:9 0
8 *15:9 *258:14 0
9 *15:9 *259:10 0
10 *1026:A *15:9 0
11 *12:13 *15:9 0
12 *14:7 *15:7 0
13 *14:9 *15:7 0
*RES
1 FrameData[21] *15:7 16.4903 
2 *15:7 *15:9 37.7701 
3 *15:9 *1028:A 40 
*END

*D_NET *16 0.0103106
*CONN
*P FrameData[22] I
*I *1029:A I *D sg13g2_buf_1
*CAP
1 FrameData[22] 0.00266582
2 *1029:A 0
3 *16:17 0
4 *16:13 0.00248946
5 *16:7 0.00515528
6 *16:7 *17:7 0
7 *16:7 *17:9 0
8 *16:13 *246:14 0
9 *15:7 *16:7 0
10 *15:9 *16:7 0
*RES
1 FrameData[22] *16:7 49.3653 
2 *16:7 *16:13 47.5525 
3 *16:13 *16:17 40 
4 *16:17 *1029:A 40 
*END

*D_NET *17 0.0165776
*CONN
*P FrameData[23] I
*I *1030:A I *D sg13g2_buf_1
*CAP
1 FrameData[23] 0.00174422
2 *1030:A 0
3 *17:9 0.00231807
4 *17:7 0.00406228
5 *17:7 *18:7 0
6 *17:7 *20:13 0
7 *17:9 *20:13 0.0082181
8 *17:9 *265:10 0.000234891
9 *1026:A *17:9 0
10 *12:13 *17:9 0
11 *15:9 *17:9 0
12 *16:7 *17:7 0
13 *16:7 *17:9 0
*RES
1 FrameData[23] *17:7 16.4903 
2 *17:7 *17:9 38.0173 
3 *17:9 *1030:A 40 
*END

*D_NET *18 0.0263298
*CONN
*P FrameData[24] I
*I *1031:A I *D sg13g2_buf_1
*CAP
1 FrameData[24] 0.000649354
2 *1031:A 5.37682e-05
3 *18:9 0.00191132
4 *18:7 0.00250691
5 *1031:A *1033:A 4.77425e-05
6 *18:7 *19:5 0
7 *18:7 *20:13 0
8 *18:9 *19:5 0
9 *18:9 *20:13 0.0106071
10 *18:9 *221:10 0.0105536
11 *17:7 *18:7 0
*RES
1 FrameData[24] *18:7 6.4478 
2 *18:7 *18:9 49.0486 
3 *18:9 *1031:A 40.5356 
*END

*D_NET *19 0.00960045
*CONN
*P FrameData[25] I
*I *1032:A I *D sg13g2_buf_1
*CAP
1 FrameData[25] 0.00472147
2 *1032:A 7.87543e-05
3 *19:5 0.00480023
4 *1032:A *1033:A 0
5 *1032:A *233:8 0
6 *19:5 *20:11 0
7 *19:5 *21:7 0
8 *19:5 *21:9 0
9 *19:5 *221:10 0
10 *19:5 *234:10 0
11 *19:5 *236:10 0
12 *19:5 *261:16 0
13 *18:7 *19:5 0
14 *18:9 *19:5 0
*RES
1 FrameData[25] *19:5 54.3325 
2 *19:5 *1032:A 40.7519 
*END

*D_NET *20 0.0261437
*CONN
*P FrameData[26] I
*I *1033:A I *D sg13g2_buf_1
*CAP
1 FrameData[26] 0.000410245
2 *1033:A 0.000232525
3 *20:13 0.00310756
4 *20:11 0.00328528
5 *1033:A *1165:A 0
6 *20:11 *21:7 0
7 *20:13 *225:12 0.000235228
8 *1031:A *1033:A 4.77425e-05
9 *1032:A *1033:A 0
10 *17:7 *20:13 0
11 *17:9 *20:13 0.0082181
12 *18:7 *20:13 0
13 *18:9 *20:13 0.0106071
14 *19:5 *20:11 0
*RES
1 FrameData[26] *20:11 44.1921 
2 *20:11 *20:13 53.4982 
3 *20:13 *1033:A 41.9529 
*END

*D_NET *21 0.0154165
*CONN
*P FrameData[27] I
*I *1034:A I *D sg13g2_buf_1
*CAP
1 FrameData[27] 0.00146119
2 *1034:A 6.05957e-05
3 *21:9 0.00224536
4 *21:7 0.00364595
5 *21:7 *22:7 0
6 *21:7 *246:22 0
7 *21:9 *22:9 0.0080034
8 *21:9 *234:10 0
9 *19:5 *21:7 0
10 *19:5 *21:9 0
11 *20:11 *21:7 0
*RES
1 FrameData[27] *21:7 16.7066 
2 *21:7 *21:9 37.0285 
3 *21:9 *1034:A 40.6695 
*END

*D_NET *22 0.0163193
*CONN
*P FrameData[28] I
*I *1035:A I *D sg13g2_buf_1
*CAP
1 FrameData[28] 0.00149615
2 *1035:A 0
3 *22:9 0.00248986
4 *22:7 0.00398601
5 *22:7 *23:7 0
6 *22:7 *23:9 0
7 *22:7 *246:22 0.000343884
8 *22:9 *23:9 0
9 *22:9 *25:5 0
10 *22:9 *232:8 0
11 *21:7 *22:7 0
12 *21:9 *22:9 0.0080034
*RES
1 FrameData[28] *22:7 16.4903 
2 *22:7 *22:9 38.2645 
3 *22:9 *1035:A 40 
*END

*D_NET *23 0.0093577
*CONN
*P FrameData[29] I
*I *1036:A I *D sg13g2_buf_1
*CAP
1 FrameData[29] 0.000760556
2 *1036:A 9.60012e-05
3 *23:9 0.0039183
4 *23:7 0.00458285
5 *1036:A FrameStrobe_O[8] 0
6 *1036:A *1037:A 0
7 *23:7 *25:5 0
8 *23:9 *25:5 0
9 *22:7 *23:7 0
10 *22:7 *23:9 0
11 *22:9 *23:9 0
*RES
1 FrameData[29] *23:7 8.4254 
2 *23:7 *23:9 43.363 
3 *23:9 *1036:A 40.9682 
*END

*D_NET *24 0.0250579
*CONN
*P FrameData[2] I
*I *1009:A I *D sg13g2_buf_1
*CAP
1 FrameData[2] 0.00300191
2 *1009:A 0
3 *24:37 0.000159049
4 *24:29 0.00207786
5 *24:19 0.00257122
6 *24:13 0.00365432
7 *24:13 *27:7 0.00249838
8 *24:13 *28:5 0
9 *24:13 *108:9 0
10 *24:13 *122:13 0.00166435
11 *24:13 *142:11 0.000232418
12 *24:19 *29:11 0.000864862
13 *24:29 *27:15 0.00293236
14 *24:29 *28:17 0.00271489
15 *24:29 *29:17 0.00103166
16 *24:29 *161:16 0
17 *24:37 *131:17 0.000392598
18 *24:37 *223:10 0
19 *24:37 *316:28 0
20 *2:9 *24:19 0.00118711
21 *13:13 *24:13 0
22 *13:25 *24:29 0
23 *13:31 *24:37 7.4933e-05
*RES
1 FrameData[2] *24:13 37.1006 
2 *24:13 *24:19 47.8898 
3 *24:19 *24:29 46.0281 
4 *24:29 *24:37 42.1527 
5 *24:37 *1009:A 20 
*END

*D_NET *25 0.0096163
*CONN
*P FrameData[30] I
*I *1037:A I *D sg13g2_buf_1
*CAP
1 FrameData[30] 0.00460646
2 *1037:A 0.000201693
3 *25:5 0.00480815
4 *1037:A FrameStrobe_O[8] 0
5 *25:5 *26:5 0
6 *1036:A *1037:A 0
7 *22:9 *25:5 0
8 *23:7 *25:5 0
9 *23:9 *25:5 0
*RES
1 FrameData[30] *25:5 52.3549 
2 *25:5 *1037:A 42.0497 
*END

*D_NET *26 0.00996421
*CONN
*P FrameData[31] I
*I *1038:A I *D sg13g2_buf_1
*CAP
1 FrameData[31] 0.00471973
2 *1038:A 0.000254641
3 *26:5 0.00497437
4 *1038:A FrameStrobe_O[9] 0
5 *1038:A *1165:A 1.54556e-05
6 *25:5 *26:5 0
*RES
1 FrameData[31] *26:5 56.3101 
2 *26:5 *1038:A 42.9149 
*END

*D_NET *27 0.0234933
*CONN
*P FrameData[3] I
*I *1010:A I *D sg13g2_buf_1
*CAP
1 FrameData[3] 0.00248246
2 *1010:A 0
3 *27:21 0.00085581
4 *27:15 0.00251835
5 *27:11 0.00238491
6 *27:7 0.00320483
7 *27:7 *28:5 0
8 *27:11 *30:11 0
9 *27:11 *31:15 0
10 *27:15 *28:17 0
11 *27:15 *30:15 0.00597221
12 *27:15 *31:19 0
13 *27:15 *33:15 0
14 *27:21 *28:17 0.000533053
15 *27:21 *30:21 0
16 *27:21 *235:20 0
17 *27:21 *239:16 0.000110966
18 *27:21 *241:12 0
19 *13:17 *27:11 0
20 *13:25 *27:21 0
21 *24:13 *27:7 0.00249838
22 *24:29 *27:15 0.00293236
*RES
1 FrameData[3] *27:7 47.6349 
2 *27:7 *27:11 28.1061 
3 *27:11 *27:15 49.2726 
4 *27:15 *27:21 47.8898 
5 *27:21 *1010:A 20 
*END

*D_NET *28 0.0198377
*CONN
*P FrameData[4] I
*I *1011:A I *D sg13g2_buf_1
*CAP
1 FrameData[4] 0.00371967
2 *1011:A 0
3 *28:21 0
4 *28:17 0.001057
5 *28:11 0.00185115
6 *28:5 0.00451382
7 *28:5 *29:5 0
8 *28:5 *109:9 0
9 *28:5 *114:9 0.00144842
10 *28:5 *142:11 0
11 *28:5 *149:11 0
12 *28:5 *152:13 0.000390749
13 *28:5 *154:13 0.000179079
14 *28:5 *313:8 0
15 *28:11 *219:14 0
16 *28:17 *29:17 0.00324839
17 *28:17 *31:25 0
18 *3:11 *28:11 0.000181483
19 *13:25 *28:17 0
20 *24:13 *28:5 0
21 *24:29 *28:17 0.00271489
22 *27:7 *28:5 0
23 *27:15 *28:17 0
24 *27:21 *28:17 0.000533053
*RES
1 FrameData[4] *28:5 41.7253 
2 *28:5 *28:11 46.8083 
3 *28:11 *28:17 38.4988 
4 *28:17 *28:21 40 
5 *28:21 *1011:A 20 
*END

*D_NET *29 0.0181119
*CONN
*P FrameData[5] I
*I *1012:A I *D sg13g2_buf_1
*CAP
1 FrameData[5] 0.00303105
2 *1012:A 0
3 *29:21 0
4 *29:17 0.00189123
5 *29:11 0.00238143
6 *29:5 0.00352125
7 *29:5 *30:7 0
8 *29:5 *109:9 0.00214205
9 *29:5 *114:9 0
10 *29:17 *30:15 0
11 *29:17 *30:21 0
12 *29:17 *33:15 0
13 *29:17 *140:13 0
14 *24:19 *29:11 0.000864862
15 *24:29 *29:17 0.00103166
16 *28:5 *29:5 0
17 *28:17 *29:17 0.00324839
*RES
1 FrameData[5] *29:5 35.7925 
2 *29:5 *29:11 45.7268 
3 *29:11 *29:17 46.4401 
4 *29:17 *29:21 40 
5 *29:21 *1012:A 20 
*END

*D_NET *30 0.0218894
*CONN
*P FrameData[6] I
*I *1013:A I *D sg13g2_buf_1
*CAP
1 FrameData[6] 0.00199033
2 *1013:A 0
3 *30:21 0.000488031
4 *30:15 0.00219338
5 *30:11 0.00217419
6 *30:7 0.00245917
7 *30:7 *31:11 0.00574652
8 *30:7 *109:9 0
9 *30:7 *118:13 0
10 *30:11 *31:15 0
11 *30:15 *31:19 0
12 *13:17 *30:11 0.000865527
13 *27:11 *30:11 0
14 *27:15 *30:15 0.00597221
15 *27:21 *30:21 0
16 *29:5 *30:7 0
17 *29:17 *30:15 0
18 *29:17 *30:21 0
*RES
1 FrameData[6] *30:7 49.3653 
2 *30:7 *30:11 25.7268 
3 *30:11 *30:15 48.531 
4 *30:15 *30:21 44.2127 
5 *30:21 *1013:A 20 
*END

*D_NET *31 0.0203424
*CONN
*P FrameData[7] I
*I *1014:A I *D sg13g2_buf_1
*CAP
1 FrameData[7] 0.00162249
2 *1014:A 0
3 *31:25 0.000500023
4 *31:19 0.00229309
5 *31:15 0.00245674
6 *31:11 0.00228616
7 *31:11 *32:5 0
8 *31:11 *118:13 0
9 *31:19 *297:12 0
10 *13:21 *31:19 0.00543736
11 *13:25 *31:25 0
12 *27:11 *31:15 0
13 *27:15 *31:19 0
14 *28:17 *31:25 0
15 *30:7 *31:11 0.00574652
16 *30:11 *31:15 0
17 *30:15 *31:19 0
*RES
1 FrameData[7] *31:11 47.7482 
2 *31:11 *31:15 27.4572 
3 *31:15 *31:19 49.2726 
4 *31:19 *31:25 44.429 
5 *31:25 *1014:A 20 
*END

*D_NET *32 0.0155697
*CONN
*P FrameData[8] I
*I *1015:A I *D sg13g2_buf_1
*CAP
1 FrameData[8] 0.00391178
2 *1015:A 0
3 *32:17 0
4 *32:13 0.000320617
5 *32:5 0.0042324
6 *32:5 *1168:A 0
7 *32:5 *33:5 0
8 *32:5 *115:9 0.00261783
9 *32:5 *118:13 0
10 *32:5 *120:9 0
11 *32:5 *123:13 0
12 *32:5 *130:9 0
13 *32:5 *135:9 0
14 *32:5 *216:20 0.00114496
15 *32:5 *272:10 0.00028693
16 *32:13 *219:22 0.00152699
17 *32:13 *310:18 0.00152821
18 *31:11 *32:5 0
*RES
1 FrameData[8] *32:5 48.6469 
2 *32:5 *32:13 47.3439 
3 *32:13 *32:17 40 
4 *32:17 *1015:A 40 
*END

*D_NET *33 0.0103399
*CONN
*P FrameData[9] I
*I *1016:A I *D sg13g2_buf_1
*CAP
1 FrameData[9] 0.00304187
2 *1016:A 0
3 *33:19 0
4 *33:15 0.00204827
5 *33:11 0.00212806
6 *33:5 0.00312166
7 *33:5 *123:13 0
8 *33:15 *140:13 0
9 *3:5 *33:5 0
10 *27:15 *33:15 0
11 *29:17 *33:15 0
12 *32:5 *33:5 0
*RES
1 FrameData[9] *33:5 32.5789 
2 *33:5 *33:11 40.7519 
3 *33:11 *33:15 40.8678 
4 *33:15 *33:19 40 
5 *33:19 *1016:A 20 
*END

*D_NET *34 0.001135
*CONN
*P FrameData_O[0] O
*I *1112:X O *D sg13g2_buf_1
*CAP
1 FrameData_O[0] 0.000527791
2 *1112:X 0.000527791
3 FrameData_O[0] FrameData_O[1] 0
4 FrameData_O[0] FrameData_O[2] 7.94189e-05
5 FrameData_O[0] FrameData_O[3] 0
*RES
1 *1112:X FrameData_O[0] 45.9225 
*END

*D_NET *35 0.000408946
*CONN
*P FrameData_O[10] O
*I *1129:X O *D sg13g2_buf_1
*CAP
1 FrameData_O[10] 0.000204473
2 *1129:X 0.000204473
3 FrameData_O[10] FrameData_O[11] 0
4 FrameData_O[10] FrameData_O[9] 0
5 FrameData_O[10] *1129:A 0
*RES
1 *1129:X FrameData_O[10] 42.2145 
*END

*D_NET *36 0.00060552
*CONN
*P FrameData_O[11] O
*I *1140:X O *D sg13g2_buf_1
*CAP
1 FrameData_O[11] 0.00030276
2 *1140:X 0.00030276
3 FrameData_O[11] FrameData_O[12] 0
4 FrameData_O[11] FrameData_O[13] 0
5 FrameData_O[11] *231:10 0
6 FrameData_O[10] FrameData_O[11] 0
*RES
1 *1140:X FrameData_O[11] 43.2033 
*END

*D_NET *37 0.000404623
*CONN
*P FrameData_O[12] O
*I *1151:X O *D sg13g2_buf_1
*CAP
1 FrameData_O[12] 0.000202312
2 *1151:X 0.000202312
3 FrameData_O[12] FrameData_O[13] 0
4 FrameData_O[11] FrameData_O[12] 0
*RES
1 *1151:X FrameData_O[12] 42.2145 
*END

*D_NET *38 0.000682951
*CONN
*P FrameData_O[13] O
*I *1162:X O *D sg13g2_buf_1
*CAP
1 FrameData_O[13] 0.000341476
2 *1162:X 0.000341476
3 FrameData_O[13] FrameData_O[14] 0
4 FrameData_O[13] FrameData_O[15] 0
5 FrameData_O[13] *1151:A 0
6 FrameData_O[11] FrameData_O[13] 0
7 FrameData_O[12] FrameData_O[13] 0
*RES
1 *1162:X FrameData_O[13] 43.4196 
*END

*D_NET *39 0.000297607
*CONN
*P FrameData_O[14] O
*I *1173:X O *D sg13g2_buf_1
*CAP
1 FrameData_O[14] 0.000148804
2 *1173:X 0.000148804
3 FrameData_O[14] FrameData_O[15] 0
4 FrameData_O[13] FrameData_O[14] 0
*RES
1 *1173:X FrameData_O[14] 41.6789 
*END

*D_NET *40 0.000671562
*CONN
*P FrameData_O[15] O
*I *1184:X O *D sg13g2_buf_1
*CAP
1 FrameData_O[15] 0.000335781
2 *1184:X 0.000335781
3 FrameData_O[15] FrameData_O[16] 0
4 FrameData_O[15] FrameData_O[17] 0
5 FrameData_O[15] *1173:A 0
6 FrameData_O[13] FrameData_O[15] 0
7 FrameData_O[14] FrameData_O[15] 0
*RES
1 *1184:X FrameData_O[15] 43.6359 
*END

*D_NET *41 0.000297607
*CONN
*P FrameData_O[16] O
*I *1195:X O *D sg13g2_buf_1
*CAP
1 FrameData_O[16] 0.000148804
2 *1195:X 0.000148804
3 FrameData_O[16] FrameData_O[17] 0
4 FrameData_O[15] FrameData_O[16] 0
*RES
1 *1195:X FrameData_O[16] 41.6789 
*END

*D_NET *42 0.000710771
*CONN
*P FrameData_O[17] O
*I *1206:X O *D sg13g2_buf_1
*CAP
1 FrameData_O[17] 0.000355386
2 *1206:X 0.000355386
3 FrameData_O[17] FrameData_O[18] 0
4 FrameData_O[17] *215:14 0
5 FrameData_O[15] FrameData_O[17] 0
6 FrameData_O[16] FrameData_O[17] 0
*RES
1 *1206:X FrameData_O[17] 43.8522 
*END

*D_NET *43 0.000352109
*CONN
*P FrameData_O[18] O
*I *1113:X O *D sg13g2_buf_1
*CAP
1 FrameData_O[18] 0.000176055
2 *1113:X 0.000176055
3 FrameData_O[18] FrameData_O[19] 0
4 FrameData_O[18] *215:14 0
5 FrameData_O[17] FrameData_O[18] 0
*RES
1 *1113:X FrameData_O[18] 41.9982 
*END

*D_NET *44 0.000630196
*CONN
*P FrameData_O[19] O
*I *1120:X O *D sg13g2_buf_1
*CAP
1 FrameData_O[19] 0.000315098
2 *1120:X 0.000315098
3 FrameData_O[19] FrameData_O[20] 0
4 FrameData_O[19] *1120:A 0
5 FrameData_O[18] FrameData_O[19] 0
*RES
1 *1120:X FrameData_O[19] 43.0797 
*END

*D_NET *45 0.00110326
*CONN
*P FrameData_O[1] O
*I *1121:X O *D sg13g2_buf_1
*CAP
1 FrameData_O[1] 0.00055163
2 *1121:X 0.00055163
3 FrameData_O[1] FrameData_O[2] 0
4 FrameData_O[1] *240:24 0
5 FrameData_O[0] FrameData_O[1] 0
*RES
1 *1121:X FrameData_O[1] 46.0461 
*END

*D_NET *46 0.00065627
*CONN
*P FrameData_O[20] O
*I *1122:X O *D sg13g2_buf_1
*CAP
1 FrameData_O[20] 0.000328135
2 *1122:X 0.000328135
3 FrameData_O[20] FrameData_O[21] 0
4 FrameData_O[20] *1120:A 0
5 FrameData_O[20] *222:8 0
6 FrameData_O[19] FrameData_O[20] 0
*RES
1 *1122:X FrameData_O[20] 43.2033 
*END

*D_NET *47 0.000648254
*CONN
*P FrameData_O[21] O
*I *1123:X O *D sg13g2_buf_1
*CAP
1 FrameData_O[21] 0.000324127
2 *1123:X 0.000324127
3 FrameData_O[21] FrameData_O[22] 0
4 FrameData_O[21] *1120:A 0
5 FrameData_O[20] FrameData_O[21] 0
*RES
1 *1123:X FrameData_O[21] 43.296 
*END

*D_NET *48 0.000724517
*CONN
*P FrameData_O[22] O
*I *1124:X O *D sg13g2_buf_1
*CAP
1 FrameData_O[22] 0.0003308
2 *1124:X 0.0003308
3 FrameData_O[22] FrameData_O[23] 0
4 FrameData_O[22] FrameData_O[24] 0
5 FrameData_O[22] *1125:A 1.54008e-05
6 FrameData_O[22] *1126:A 4.75166e-05
7 FrameData_O[22] *225:12 0
8 FrameData_O[22] *227:8 0
9 FrameData_O[21] FrameData_O[22] 0
*RES
1 *1124:X FrameData_O[22] 43.4196 
*END

*D_NET *49 0.000717034
*CONN
*P FrameData_O[23] O
*I *1125:X O *D sg13g2_buf_1
*CAP
1 FrameData_O[23] 0.000350789
2 *1125:X 0.000350789
3 FrameData_O[23] FrameData_O[24] 0
4 FrameData_O[23] FrameData_O[25] 1.54556e-05
5 FrameData_O[23] *1125:A 0
6 FrameData_O[22] FrameData_O[23] 0
*RES
1 *1125:X FrameData_O[23] 43.6153 
*END

*D_NET *50 0.000852887
*CONN
*P FrameData_O[24] O
*I *1126:X O *D sg13g2_buf_1
*CAP
1 FrameData_O[24] 0.000346322
2 *1126:X 0.000346322
3 FrameData_O[24] FrameData_O[25] 0
4 FrameData_O[24] *1125:A 0
5 FrameData_O[24] *1126:A 0.000144842
6 FrameData_O[24] *1127:A 1.54008e-05
7 FrameData_O[24] *225:12 0
8 FrameData_O[22] FrameData_O[24] 0
9 FrameData_O[23] FrameData_O[24] 0
*RES
1 *1126:X FrameData_O[24] 43.6359 
*END

*D_NET *51 0.000753143
*CONN
*P FrameData_O[25] O
*I *1127:X O *D sg13g2_buf_1
*CAP
1 FrameData_O[25] 0.000368844
2 *1127:X 0.000368844
3 FrameData_O[25] FrameData_O[26] 0
4 FrameData_O[25] *1125:A 0
5 FrameData_O[25] *1127:A 0
6 FrameData_O[23] FrameData_O[25] 1.54556e-05
7 FrameData_O[24] FrameData_O[25] 0
*RES
1 *1127:X FrameData_O[25] 43.8316 
*END

*D_NET *52 0.00090807
*CONN
*P FrameData_O[26] O
*I *1128:X O *D sg13g2_buf_1
*CAP
1 FrameData_O[26] 0.00036578
2 *1128:X 0.00036578
3 FrameData_O[26] FrameData_O[27] 0
4 FrameData_O[26] *1127:A 0.000176511
5 FrameData_O[26] *1128:A 0
6 FrameData_O[25] FrameData_O[26] 0
*RES
1 *1128:X FrameData_O[26] 43.8522 
*END

*D_NET *53 0.000746106
*CONN
*P FrameData_O[27] O
*I *1130:X O *D sg13g2_buf_1
*CAP
1 FrameData_O[27] 0.000373053
2 *1130:X 0.000373053
3 FrameData_O[27] FrameData_O[28] 0
4 FrameData_O[27] *229:8 0
5 FrameData_O[27] *230:12 0
6 FrameData_O[26] FrameData_O[27] 0
*RES
1 *1130:X FrameData_O[27] 44.0788 
*END

*D_NET *54 0.00121385
*CONN
*P FrameData_O[28] O
*I *1131:X O *D sg13g2_buf_1
*CAP
1 FrameData_O[28] 0.00056681
2 *1131:X 0.00056681
3 FrameData_O[28] FrameData_O[29] 0
4 FrameData_O[28] FrameData_O[30] 0
5 FrameData_O[28] *1128:A 0
6 FrameData_O[28] *1130:A 8.02269e-05
7 FrameData_O[27] FrameData_O[28] 0
*RES
1 *1131:X FrameData_O[28] 45.871 
*END

*D_NET *55 0.00131931
*CONN
*P FrameData_O[29] O
*I *1132:X O *D sg13g2_buf_1
*CAP
1 FrameData_O[29] 0.000619935
2 *1132:X 0.000619935
3 FrameData_O[29] FrameData_O[30] 0
4 FrameData_O[29] FrameData_O[31] 0
5 FrameData_O[29] FrameStrobe_O[19] 7.94445e-05
6 FrameData_O[29] *232:8 0
7 FrameData_O[28] FrameData_O[29] 0
*RES
1 *1132:X FrameData_O[29] 46.9113 
*END

*D_NET *56 0.00145395
*CONN
*P FrameData_O[2] O
*I *1133:X O *D sg13g2_buf_1
*CAP
1 FrameData_O[2] 0.000647208
2 *1133:X 0.000647208
3 FrameData_O[2] FrameData_O[3] 0
4 FrameData_O[2] *1138:A 0
5 FrameData_O[2] *214:26 8.01116e-05
6 FrameData_O[2] *240:24 0
7 FrameData_O[0] FrameData_O[2] 7.94189e-05
8 FrameData_O[1] FrameData_O[2] 0
*RES
1 *1133:X FrameData_O[2] 46.7362 
*END

*D_NET *57 0.00157564
*CONN
*P FrameData_O[30] O
*I *1134:X O *D sg13g2_buf_1
*CAP
1 FrameData_O[30] 0.00078782
2 *1134:X 0.00078782
3 FrameData_O[30] FrameData_O[31] 0
4 FrameData_O[30] FrameStrobe_O[19] 0
5 FrameData_O[30] *1128:A 0
6 FrameData_O[30] *1130:A 0
7 FrameData_O[30] *257:12 0
8 FrameData_O[28] FrameData_O[30] 0
9 FrameData_O[29] FrameData_O[30] 0
*RES
1 *1134:X FrameData_O[30] 48.2091 
*END

*D_NET *58 0.00162626
*CONN
*P FrameData_O[31] O
*I *1135:X O *D sg13g2_buf_1
*CAP
1 FrameData_O[31] 0.000813128
2 *1135:X 0.000813128
3 FrameData_O[31] FrameStrobe_O[19] 0
4 FrameData_O[29] FrameData_O[31] 0
5 FrameData_O[30] FrameData_O[31] 0
*RES
1 *1135:X FrameData_O[31] 49.6305 
*END

*D_NET *59 0.000605774
*CONN
*P FrameData_O[3] O
*I *1136:X O *D sg13g2_buf_1
*CAP
1 FrameData_O[3] 0.000302887
2 *1136:X 0.000302887
3 FrameData_O[3] FrameData_O[4] 0
4 FrameData_O[3] FrameData_O[5] 0
5 FrameData_O[3] *1138:A 0
6 FrameData_O[3] *239:34 0
7 FrameData_O[0] FrameData_O[3] 0
8 FrameData_O[2] FrameData_O[3] 0
*RES
1 *1136:X FrameData_O[3] 43.2033 
*END

*D_NET *60 0.00040625
*CONN
*P FrameData_O[4] O
*I *1137:X O *D sg13g2_buf_1
*CAP
1 FrameData_O[4] 0.000203125
2 *1137:X 0.000203125
3 FrameData_O[4] FrameData_O[5] 0
4 FrameData_O[4] *1138:A 0
5 FrameData_O[3] FrameData_O[4] 0
*RES
1 *1137:X FrameData_O[4] 42.2145 
*END

*D_NET *61 0.000452784
*CONN
*P FrameData_O[5] O
*I *1138:X O *D sg13g2_buf_1
*CAP
1 FrameData_O[5] 0.000226392
2 *1138:X 0.000226392
3 FrameData_O[5] FrameData_O[6] 0
4 FrameData_O[5] FrameData_O[7] 0
5 FrameData_O[5] *239:34 0
6 FrameData_O[3] FrameData_O[5] 0
7 FrameData_O[4] FrameData_O[5] 0
*RES
1 *1138:X FrameData_O[5] 42.6677 
*END

*D_NET *62 0.000297607
*CONN
*P FrameData_O[6] O
*I *1139:X O *D sg13g2_buf_1
*CAP
1 FrameData_O[6] 0.000148804
2 *1139:X 0.000148804
3 FrameData_O[6] FrameData_O[7] 0
4 FrameData_O[5] FrameData_O[6] 0
*RES
1 *1139:X FrameData_O[6] 41.6789 
*END

*D_NET *63 0.000461045
*CONN
*P FrameData_O[7] O
*I *1141:X O *D sg13g2_buf_1
*CAP
1 FrameData_O[7] 0.000230522
2 *1141:X 0.000230522
3 FrameData_O[7] FrameData_O[8] 0
4 FrameData_O[7] FrameData_O[9] 0
5 FrameData_O[7] *244:24 0
6 FrameData_O[5] FrameData_O[7] 0
7 FrameData_O[6] FrameData_O[7] 0
*RES
1 *1141:X FrameData_O[7] 42.6677 
*END

*D_NET *64 0.000297607
*CONN
*P FrameData_O[8] O
*I *1142:X O *D sg13g2_buf_1
*CAP
1 FrameData_O[8] 0.000148804
2 *1142:X 0.000148804
3 FrameData_O[8] FrameData_O[9] 0
4 FrameData_O[7] FrameData_O[8] 0
*RES
1 *1142:X FrameData_O[8] 41.6789 
*END

*D_NET *65 0.000509769
*CONN
*P FrameData_O[9] O
*I *1143:X O *D sg13g2_buf_1
*CAP
1 FrameData_O[9] 0.000254885
2 *1143:X 0.000254885
3 FrameData_O[9] *244:24 0
4 FrameData_O[10] FrameData_O[9] 0
5 FrameData_O[7] FrameData_O[9] 0
6 FrameData_O[8] FrameData_O[9] 0
*RES
1 *1143:X FrameData_O[9] 42.987 
*END

*D_NET *66 0.0106728
*CONN
*P FrameStrobe[0] I
*I *1039:A I *D sg13g2_buf_1
*CAP
1 FrameStrobe[0] 0.00277997
2 *1039:A 0.000115042
3 *66:9 0.00289502
4 *1039:A *221:8 0
5 *1039:A *259:8 0
6 *66:9 *1051:A 0
7 *66:9 *1116:A 0.000144305
8 *66:9 *1209:A 0.000176203
9 *66:9 *77:15 0
10 *66:9 *111:13 0.000395896
11 *66:9 *197:10 0.000175886
12 *66:9 *207:10 0.000208825
13 *66:9 *210:9 0
14 *66:9 *264:10 0.00378169
15 *66:9 *309:14 0
*RES
1 FrameStrobe[0] *66:9 49.0357 
2 *66:9 *1039:A 40.9682 
*END

*D_NET *67 0.00738877
*CONN
*P FrameStrobe[10] I
*I *1049:A I *D sg13g2_buf_1
*CAP
1 FrameStrobe[10] 0.00315995
2 *1049:A 0.000317186
3 *67:9 0.00347713
4 *1049:A *1076:A 0.0004345
5 *1049:A *110:17 0
6 *67:9 *1053:A 0
7 *67:9 *68:13 0
8 *67:9 *69:11 0
9 *67:9 *70:9 0
10 *67:9 *82:9 0
11 *67:9 *85:7 0
12 *67:9 *128:13 0
13 *67:9 *231:10 0
*RES
1 FrameStrobe[10] *67:9 49.0666 
2 *67:9 *1049:A 42.9149 
*END

*D_NET *68 0.00717524
*CONN
*P FrameStrobe[11] I
*I *1050:A I *D sg13g2_buf_1
*CAP
1 FrameStrobe[11] 0.00112329
2 *1050:A 0
3 *68:21 0.00119897
4 *68:13 0.00232226
5 *68:13 *69:11 0
6 *68:13 *78:13 0.00166608
7 *68:13 *192:12 1.55212e-05
8 *68:13 *202:10 0.00012816
9 *68:21 SS4BEG[1] 0.000305202
10 *68:21 SS4BEG[2] 4.77425e-05
11 *68:21 SS4BEG[3] 0
12 *68:21 *1192:A 0.000240187
13 *68:21 *1201:A 8.00842e-05
14 *68:21 *137:13 0
15 *68:21 *306:12 4.77425e-05
16 *67:9 *68:13 0
*RES
1 FrameStrobe[11] *68:13 34.008 
2 *68:13 *68:21 30.6255 
3 *68:21 *1050:A 20 
*END

*D_NET *69 0.00530479
*CONN
*P FrameStrobe[12] I
*I *1051:A I *D sg13g2_buf_1
*CAP
1 FrameStrobe[12] 0.000965169
2 *1051:A 0.00100287
3 *69:11 0.00196804
4 *1051:A *1207:A 0
5 *1051:A *1209:A 0.000176203
6 *1051:A *77:15 8.00491e-05
7 *1051:A *77:21 0.00111245
8 *1051:A *249:10 0
9 *69:11 *70:9 0
10 *69:11 *214:20 0
11 *69:11 *240:24 0
12 *66:9 *1051:A 0
13 *67:9 *69:11 0
14 *68:13 *69:11 0
*RES
1 FrameStrobe[12] *69:11 48.7344 
2 *69:11 *1051:A 29.4039 
*END

*D_NET *70 0.00527335
*CONN
*P FrameStrobe[13] I
*I *1052:A I *D sg13g2_buf_1
*CAP
1 FrameStrobe[13] 0.00111872
2 *1052:A 0.000622153
3 *70:9 0.00174087
4 *1052:A *81:19 0.000919332
5 *1052:A *82:7 0
6 *1052:A *83:7 0
7 *70:9 *1053:A 0
8 *70:9 *235:30 0
9 *70:9 *244:24 0.000872267
10 *67:9 *70:9 0
11 *69:11 *70:9 0
*RES
1 FrameStrobe[13] *70:9 30.4957 
2 *70:9 *1052:A 46.1594 
*END

*D_NET *71 0.00272459
*CONN
*P FrameStrobe[14] I
*I *1053:A I *D sg13g2_buf_1
*CAP
1 FrameStrobe[14] 0.00136229
2 *1053:A 0.00136229
3 *1053:A *72:9 0
4 *1053:A *85:7 0
5 *67:9 *1053:A 0
6 *70:9 *1053:A 0
*RES
1 FrameStrobe[14] *1053:A 31.6081 
*END

*D_NET *72 0.00384099
*CONN
*P FrameStrobe[15] I
*I *1054:A I *D sg13g2_buf_1
*CAP
1 FrameStrobe[15] 0.0019205
2 *1054:A 0
3 *72:9 0.0019205
4 *72:9 *73:9 0
5 *72:9 *215:14 0
6 *72:9 *251:10 0
7 *72:9 *275:10 0
8 *1053:A *72:9 0
*RES
1 FrameStrobe[15] *72:9 36.2431 
2 *72:9 *1054:A 40 
*END

*D_NET *73 0.00495171
*CONN
*P FrameStrobe[16] I
*I *1055:A I *D sg13g2_buf_1
*CAP
1 FrameStrobe[16] 0.00214342
2 *1055:A 0
3 *73:9 0.00214342
4 *73:9 *1150:A 0
5 *73:9 *74:11 0
6 *73:9 *75:13 0
7 *73:9 *76:13 0
8 *73:9 *215:14 0
9 *73:9 *308:10 0.000664857
10 *72:9 *73:9 0
*RES
1 FrameStrobe[16] *73:9 39.4567 
2 *73:9 *1055:A 40 
*END

*D_NET *74 0.00388531
*CONN
*P FrameStrobe[17] I
*I *1056:A I *D sg13g2_buf_1
*CAP
1 FrameStrobe[17] 0.000782062
2 *1056:A 0.000560724
3 *74:11 0.00134279
4 *74:11 *75:13 0
5 *74:11 *214:26 0.00119974
6 *74:11 *240:24 0
7 *73:9 *74:11 0
*RES
1 FrameStrobe[17] *74:11 48.7344 
2 *74:11 *1056:A 25.5105 
*END

*D_NET *75 0.00480298
*CONN
*P FrameStrobe[18] I
*I *1057:A I *D sg13g2_buf_1
*CAP
1 FrameStrobe[18] 0.00164039
2 *1057:A 0.000761103
3 *75:13 0.00240149
4 *1057:A *255:10 0
5 *1057:A *255:14 0
6 *75:13 *76:13 0
7 *75:13 *243:12 0
8 *75:13 *244:24 0
9 *73:9 *75:13 0
10 *74:11 *75:13 0
*RES
1 FrameStrobe[18] *75:13 35.8317 
2 *75:13 *1057:A 47.4572 
*END

*D_NET *76 0.00402454
*CONN
*P FrameStrobe[19] I
*I *1058:A I *D sg13g2_buf_1
*CAP
1 FrameStrobe[19] 0.00135849
2 *1058:A 0
3 *76:13 0.00135849
4 *76:13 *243:12 0
5 *76:13 *245:10 0.00130755
6 *73:9 *76:13 0
7 *75:13 *76:13 0
*RES
1 FrameStrobe[19] *76:13 35.5839 
2 *76:13 *1058:A 40 
*END

*D_NET *77 0.014786
*CONN
*P FrameStrobe[1] I
*I *1040:A I *D sg13g2_buf_1
*CAP
1 FrameStrobe[1] 0.000553065
2 *1040:A 9.30776e-05
3 *77:25 0.0010029
4 *77:21 0.00171779
5 *77:15 0.00136104
6 *1040:A *259:8 0.00014476
7 *77:15 *1116:A 0.000112155
8 *77:15 *1207:A 0.000112346
9 *77:15 *78:13 0
10 *77:15 *79:7 0
11 *77:15 *195:10 0.000177157
12 *77:15 *217:22 0
13 *77:21 *1207:A 0.000919026
14 *77:21 *1212:A 0
15 *77:25 *80:21 0.00361838
16 *77:25 *134:13 0.00265316
17 *77:25 *250:10 0.000453045
18 *77:25 *314:18 0.000675632
19 *1051:A *77:15 8.00491e-05
20 *1051:A *77:21 0.00111245
21 *66:9 *77:15 0
*RES
1 FrameStrobe[1] *77:15 45.6959 
2 *77:15 *77:21 48.755 
3 *77:21 *77:25 39.1374 
4 *77:25 *1040:A 40.9682 
*END

*D_NET *78 0.0110075
*CONN
*P FrameStrobe[2] I
*I *1041:A I *D sg13g2_buf_1
*CAP
1 FrameStrobe[2] 0.000596559
2 *1041:A 0.000867215
3 *78:25 0.00176392
4 *78:13 0.00149327
5 *1041:A S2BEGb[6] 0
6 *1041:A *1072:A 0.000176252
7 *1041:A *1180:A 0
8 *1041:A *1186:A 0
9 *1041:A *216:20 0
10 *78:13 SS4BEG[3] 0.000112426
11 *78:13 SS4BEG[4] 0.000112426
12 *78:13 *79:7 0
13 *78:13 *202:10 0.00097667
14 *78:25 *172:8 0
15 *78:25 *178:8 0
16 *78:25 *186:10 0.000607524
17 *78:25 *193:10 0.000920653
18 *78:25 *194:10 0.00039332
19 *78:25 *307:22 0.00087277
20 *78:25 *307:30 0.000448428
21 *78:25 *316:28 0
22 *68:13 *78:13 0.00166608
23 *77:15 *78:13 0
*RES
1 FrameStrobe[2] *78:13 49.1155 
2 *78:13 *78:25 32.5351 
3 *78:25 *1041:A 47.5087 
*END

*D_NET *79 0.0126614
*CONN
*P FrameStrobe[3] I
*I *1042:A I *D sg13g2_buf_1
*CAP
1 FrameStrobe[3] 0.0011
2 *1042:A 0
3 *79:13 0.00172634
4 *79:7 0.00282634
5 *79:7 *1207:A 0
6 *79:7 *1212:A 0.000886375
7 *79:7 *80:15 0.000531584
8 *79:7 *195:10 0
9 *79:13 *82:9 0.00476396
10 *79:13 *242:12 0
11 *79:13 *242:14 0.000826832
12 *77:15 *79:7 0
13 *78:13 *79:7 0
*RES
1 FrameStrobe[3] *79:7 30.5472 
2 *79:7 *79:13 42.4231 
3 *79:13 *1042:A 20 
*END

*D_NET *80 0.0150297
*CONN
*P FrameStrobe[4] I
*I *1043:A I *D sg13g2_buf_1
*CAP
1 FrameStrobe[4] 0.00186812
2 *1043:A 0
3 *80:21 0.000838124
4 *80:15 0.00270624
5 *80:15 *1212:A 0
6 *80:15 *81:19 0.000961713
7 *80:15 *250:10 0.000937042
8 *80:21 *81:19 8.23973e-05
9 *80:21 *81:29 0
10 *80:21 *133:13 0.00348614
11 *80:21 *134:13 0
12 *80:21 *260:10 0
13 *77:25 *80:21 0.00361838
14 *79:7 *80:15 0.000531584
*RES
1 FrameStrobe[4] *80:15 38.5606 
2 *80:15 *80:21 38.4061 
3 *80:21 *1043:A 20 
*END

*D_NET *81 0.0185492
*CONN
*P FrameStrobe[5] I
*I *1044:A I *D sg13g2_buf_1
*CAP
1 FrameStrobe[5] 0.00189009
2 *1044:A 0
3 *81:29 0.00118619
4 *81:19 0.00307629
5 *81:19 *82:7 0
6 *81:19 *83:7 0
7 *81:19 *84:21 0.000929536
8 *81:19 *250:10 0.000274413
9 *81:29 *1047:A 0
10 *81:29 *84:21 0.00436189
11 *81:29 *133:13 0.00457619
12 *1022:A *81:29 0
13 *1052:A *81:19 0.000919332
14 *8:9 *81:29 0.000291165
15 *80:15 *81:19 0.000961713
16 *80:21 *81:19 8.23973e-05
17 *80:21 *81:29 0
*RES
1 FrameStrobe[5] *81:19 40.2189 
2 *81:19 *81:29 44.823 
3 *81:29 *1044:A 20 
*END

*D_NET *82 0.0156084
*CONN
*P FrameStrobe[6] I
*I *1045:A I *D sg13g2_buf_1
*CAP
1 FrameStrobe[6] 0.00131072
2 *1045:A 5.80404e-05
3 *82:9 0.00287222
4 *82:7 0.0041249
5 *82:7 *83:7 0
6 *82:9 *128:13 0
7 *82:9 *242:12 0
8 *1052:A *82:7 0
9 *3:17 *82:9 0
10 *5:5 *82:9 0.00247854
11 *67:9 *82:9 0
12 *79:13 *82:9 0.00476396
13 *81:19 *82:7 0
*RES
1 FrameStrobe[6] *82:7 30.3309 
2 *82:7 *82:9 35.947 
3 *82:9 *1045:A 40.5356 
*END

*D_NET *83 0.0172324
*CONN
*P FrameStrobe[7] I
*I *1046:A I *D sg13g2_buf_1
*CAP
1 FrameStrobe[7] 0.00178435
2 *1046:A 0
3 *83:13 0.00228645
4 *83:7 0.0040708
5 *83:7 *84:7 0
6 *83:7 *251:14 0.000306067
7 *83:13 *84:21 0.00575318
8 *83:13 *110:9 0.0024206
9 *83:13 *215:10 0
10 *83:13 *215:14 0
11 *83:13 *262:12 0
12 *83:13 *286:10 0
13 *1052:A *83:7 0
14 *10:5 *83:13 0.000610967
15 *81:19 *83:7 0
16 *82:7 *83:7 0
*RES
1 FrameStrobe[7] *83:7 34.8732 
2 *83:7 *83:13 36.3693 
3 *83:13 *1046:A 40 
*END

*D_NET *84 0.0185984
*CONN
*P FrameStrobe[8] I
*I *1047:A I *D sg13g2_buf_1
*CAP
1 FrameStrobe[8] 0.00181747
2 *1047:A 6.33893e-05
3 *84:21 0.00179857
4 *84:7 0.00355265
5 *84:7 *85:7 0
6 *84:7 *251:14 0.00027361
7 *84:21 *262:12 0
8 *84:21 *275:10 0
9 *84:21 *286:10 4.81157e-05
10 *8:9 *84:21 0
11 *81:19 *84:21 0.000929536
12 *81:29 *1047:A 0
13 *81:29 *84:21 0.00436189
14 *83:7 *84:7 0
15 *83:13 *84:21 0.00575318
*RES
1 FrameStrobe[8] *84:7 34.6569 
2 *84:7 *84:21 33.1351 
3 *84:21 *1047:A 40.6695 
*END

*D_NET *85 0.0152173
*CONN
*P FrameStrobe[9] I
*I *1048:A I *D sg13g2_buf_1
*CAP
1 FrameStrobe[9] 0.00196736
2 *1048:A 0
3 *85:11 0.00122159
4 *85:7 0.00318895
5 *85:7 *251:10 0
6 *85:7 *251:14 0
7 *85:11 *215:10 0.00369591
8 *85:11 *215:14 0
9 *85:11 *308:10 0.00514349
10 *1053:A *85:7 0
11 *67:9 *85:7 0
12 *84:7 *85:7 0
*RES
1 FrameStrobe[9] *85:7 36.3873 
2 *85:7 *85:11 43.8342 
3 *85:11 *1048:A 20 
*END

*D_NET *86 0.000614835
*CONN
*P FrameStrobe_O[0] O
*I *1144:X O *D sg13g2_buf_1
*CAP
1 FrameStrobe_O[0] 0.000307417
2 *1144:X 0.000307417
*RES
1 *1144:X FrameStrobe_O[0] 23.1106 
*END

*D_NET *87 0.000522747
*CONN
*P FrameStrobe_O[10] O
*I *1145:X O *D sg13g2_buf_1
*CAP
1 FrameStrobe_O[10] 0.000261374
2 *1145:X 0.000261374
*RES
1 *1145:X FrameStrobe_O[10] 23.1106 
*END

*D_NET *88 0.000522747
*CONN
*P FrameStrobe_O[11] O
*I *1146:X O *D sg13g2_buf_1
*CAP
1 FrameStrobe_O[11] 0.000261374
2 *1146:X 0.000261374
*RES
1 *1146:X FrameStrobe_O[11] 23.1106 
*END

*D_NET *89 0.000522747
*CONN
*P FrameStrobe_O[12] O
*I *1147:X O *D sg13g2_buf_1
*CAP
1 FrameStrobe_O[12] 0.000261374
2 *1147:X 0.000261374
*RES
1 *1147:X FrameStrobe_O[12] 23.1106 
*END

*D_NET *90 0.000522747
*CONN
*P FrameStrobe_O[13] O
*I *1148:X O *D sg13g2_buf_1
*CAP
1 FrameStrobe_O[13] 0.000261374
2 *1148:X 0.000261374
*RES
1 *1148:X FrameStrobe_O[13] 23.1106 
*END

*D_NET *91 0.000522747
*CONN
*P FrameStrobe_O[14] O
*I *1149:X O *D sg13g2_buf_1
*CAP
1 FrameStrobe_O[14] 0.000261374
2 *1149:X 0.000261374
*RES
1 *1149:X FrameStrobe_O[14] 23.1106 
*END

*D_NET *92 0.000522747
*CONN
*P FrameStrobe_O[15] O
*I *1150:X O *D sg13g2_buf_1
*CAP
1 FrameStrobe_O[15] 0.000261374
2 *1150:X 0.000261374
*RES
1 *1150:X FrameStrobe_O[15] 23.1106 
*END

*D_NET *93 0.000636591
*CONN
*P FrameStrobe_O[16] O
*I *1152:X O *D sg13g2_buf_1
*CAP
1 FrameStrobe_O[16] 0.000318295
2 *1152:X 0.000318295
*RES
1 *1152:X FrameStrobe_O[16] 23.811 
*END

*D_NET *94 0.000522747
*CONN
*P FrameStrobe_O[17] O
*I *1153:X O *D sg13g2_buf_1
*CAP
1 FrameStrobe_O[17] 0.000261374
2 *1153:X 0.000261374
*RES
1 *1153:X FrameStrobe_O[17] 23.1106 
*END

*D_NET *95 0.000522747
*CONN
*P FrameStrobe_O[18] O
*I *1154:X O *D sg13g2_buf_1
*CAP
1 FrameStrobe_O[18] 0.000261374
2 *1154:X 0.000261374
*RES
1 *1154:X FrameStrobe_O[18] 23.1106 
*END

*D_NET *96 0.000640911
*CONN
*P FrameStrobe_O[19] O
*I *1155:X O *D sg13g2_buf_1
*CAP
1 FrameStrobe_O[19] 0.000280733
2 *1155:X 0.000280733
3 FrameData_O[29] FrameStrobe_O[19] 7.94445e-05
4 FrameData_O[30] FrameStrobe_O[19] 0
5 FrameData_O[31] FrameStrobe_O[19] 0
*RES
1 *1155:X FrameStrobe_O[19] 23.1106 
*END

*D_NET *97 0.000602567
*CONN
*P FrameStrobe_O[1] O
*I *1156:X O *D sg13g2_buf_1
*CAP
1 FrameStrobe_O[1] 0.000301284
2 *1156:X 0.000301284
*RES
1 *1156:X FrameStrobe_O[1] 23.1106 
*END

*D_NET *98 0.000602567
*CONN
*P FrameStrobe_O[2] O
*I *1157:X O *D sg13g2_buf_1
*CAP
1 FrameStrobe_O[2] 0.000301284
2 *1157:X 0.000301284
*RES
1 *1157:X FrameStrobe_O[2] 23.1106 
*END

*D_NET *99 0.000602567
*CONN
*P FrameStrobe_O[3] O
*I *1158:X O *D sg13g2_buf_1
*CAP
1 FrameStrobe_O[3] 0.000301284
2 *1158:X 0.000301284
*RES
1 *1158:X FrameStrobe_O[3] 23.1106 
*END

*D_NET *100 0.000602567
*CONN
*P FrameStrobe_O[4] O
*I *1159:X O *D sg13g2_buf_1
*CAP
1 FrameStrobe_O[4] 0.000301284
2 *1159:X 0.000301284
*RES
1 *1159:X FrameStrobe_O[4] 23.1106 
*END

*D_NET *101 0.000602567
*CONN
*P FrameStrobe_O[5] O
*I *1160:X O *D sg13g2_buf_1
*CAP
1 FrameStrobe_O[5] 0.000301284
2 *1160:X 0.000301284
*RES
1 *1160:X FrameStrobe_O[5] 23.1106 
*END

*D_NET *102 0.000602567
*CONN
*P FrameStrobe_O[6] O
*I *1161:X O *D sg13g2_buf_1
*CAP
1 FrameStrobe_O[6] 0.000301284
2 *1161:X 0.000301284
*RES
1 *1161:X FrameStrobe_O[6] 23.1106 
*END

*D_NET *103 0.000602567
*CONN
*P FrameStrobe_O[7] O
*I *1163:X O *D sg13g2_buf_1
*CAP
1 FrameStrobe_O[7] 0.000301284
2 *1163:X 0.000301284
*RES
1 *1163:X FrameStrobe_O[7] 23.1106 
*END

*D_NET *104 0.000708821
*CONN
*P FrameStrobe_O[8] O
*I *1164:X O *D sg13g2_buf_1
*CAP
1 FrameStrobe_O[8] 0.000354411
2 *1164:X 0.000354411
3 *1036:A FrameStrobe_O[8] 0
4 *1037:A FrameStrobe_O[8] 0
*RES
1 *1164:X FrameStrobe_O[8] 23.811 
*END

*D_NET *105 0.000550102
*CONN
*P FrameStrobe_O[9] O
*I *1165:X O *D sg13g2_buf_1
*CAP
1 FrameStrobe_O[9] 0.000275051
2 *1165:X 0.000275051
3 *1038:A FrameStrobe_O[9] 0
*RES
1 *1165:X FrameStrobe_O[9] 23.1106 
*END

*D_NET *106 0.00897209
*CONN
*P N1END[0] I
*I *1062:A I *D sg13g2_buf_1
*CAP
1 N1END[0] 0.00168276
2 *1062:A 7.16337e-05
3 *106:17 0.000575032
4 *106:9 0.00218616
5 *1062:A *154:13 0.000112426
6 *106:9 *107:9 0
7 *106:9 *119:9 0
8 *106:17 *121:23 0
9 *106:17 *122:13 0.0016133
10 *106:17 *138:9 0.000175693
11 *106:17 *139:7 0.000175693
12 *106:17 *150:13 0.00124221
13 *13:13 *106:9 0.00113719
*RES
1 N1END[0] *106:9 34.4509 
2 *106:9 *106:17 48.7035 
3 *106:17 *1062:A 40.7519 
*END

*D_NET *107 0.00900927
*CONN
*P N1END[1] I
*I *1061:A I *D sg13g2_buf_1
*CAP
1 N1END[1] 0.00168344
2 *1061:A 0.000142698
3 *107:9 0.00182614
4 *1061:A *1060:A 0
5 *1061:A *152:13 0.000208035
6 *107:9 *108:9 0.00378361
7 *107:9 *121:23 0.000127508
8 *107:9 *150:13 0
9 *107:9 *151:13 0.00123784
10 *106:9 *107:9 0
*RES
1 N1END[1] *107:9 40.8163 
2 *107:9 *1061:A 41.4008 
*END

*D_NET *108 0.00854016
*CONN
*P N1END[2] I
*I *1060:A I *D sg13g2_buf_1
*CAP
1 N1END[2] 0.00150906
2 *1060:A 0.000110026
3 *108:9 0.00161909
4 *1060:A *149:11 0.000176252
5 *1060:A *150:13 4.68848e-05
6 *1060:A *269:10 0
7 *108:9 *109:9 0
8 *108:9 *122:13 0
9 *108:9 *150:13 0.00129524
10 *1061:A *1060:A 0
11 *24:13 *108:9 0
12 *107:9 *108:9 0.00378361
*RES
1 N1END[2] *108:9 39.5494 
2 *108:9 *1060:A 41.1845 
*END

*D_NET *109 0.00820146
*CONN
*P N1END[3] I
*I *1059:A I *D sg13g2_buf_1
*CAP
1 N1END[3] 0.00193628
2 *1059:A 0
3 *109:9 0.00193628
4 *109:9 *113:9 0
5 *109:9 *114:9 0
6 *109:9 *117:9 0.00218686
7 *109:9 *118:7 0
8 *109:9 *125:9 0
9 *109:9 *131:17 0
10 *109:9 *154:13 0
11 *28:5 *109:9 0
12 *29:5 *109:9 0.00214205
13 *30:7 *109:9 0
14 *108:9 *109:9 0
*RES
1 N1END[3] *109:9 42.8557 
2 *109:9 *1059:A 40 
*END

*D_NET *110 0.0216123
*CONN
*P N2END[0] I
*I *1078:A I *D sg13g2_buf_1
*CAP
1 N2END[0] 0.00177382
2 *1078:A 0
3 *110:17 0.00121436
4 *110:9 0.00306938
5 *110:7 0.00362885
6 *110:7 *111:7 0
7 *110:7 *112:11 0
8 *110:7 *123:7 0
9 *110:7 *125:9 0
10 *110:9 *112:19 0
11 *110:9 *215:10 0
12 *110:17 *1076:A 0.000272292
13 *110:17 *1081:A 0.000112198
14 *110:17 *1200:A 0
15 *110:17 *128:13 0
16 *110:17 *299:18 0.000262317
17 *1049:A *110:17 0
18 *9:13 *110:9 0.00520526
19 *10:5 *110:9 0.00365321
20 *83:13 *110:9 0.0024206
*RES
1 N2END[0] *110:7 35.0895 
2 *110:7 *110:9 32.7334 
3 *110:9 *110:17 30.9386 
4 *110:17 *1078:A 20 
*END

*D_NET *111 0.013198
*CONN
*P N2END[1] I
*I *1077:A I *D sg13g2_buf_1
*CAP
1 N2END[1] 0.00153112
2 *1077:A 0.000513374
3 *111:13 0.00413248
4 *111:7 0.00515022
5 *1077:A *1076:A 0
6 *1077:A *1186:A 0
7 *1077:A *1196:A 0
8 *111:7 *112:11 0
9 *111:13 *264:8 1.5595e-05
10 *111:13 *264:10 0
11 *111:13 *275:10 0
12 *111:13 *309:14 0.00145931
13 *2:17 *111:13 0
14 *6:5 *111:13 0
15 *7:5 *111:13 0
16 *66:9 *111:13 0.000395896
17 *110:7 *111:7 0
*RES
1 N2END[1] *111:7 31.845 
2 *111:7 *111:13 31.1472 
3 *111:13 *1077:A 44.4605 
*END

*D_NET *112 0.0163391
*CONN
*P N2END[2] I
*I *1076:A I *D sg13g2_buf_1
*CAP
1 N2END[2] 0.00254558
2 *1076:A 0.00127359
3 *112:19 0.00383763
4 *112:11 0.00510962
5 *1076:A S4BEG[1] 0
6 *1076:A *1081:A 0.000112198
7 *1076:A *1196:A 0.000239996
8 *1076:A *287:16 0
9 *112:11 *113:9 0
10 *112:11 *115:9 0
11 *112:19 *215:10 0
12 *1049:A *1076:A 0.0004345
13 *1077:A *1076:A 0
14 *9:13 *112:11 0
15 *9:13 *112:19 0.000932111
16 *11:11 *112:11 0.00158157
17 *11:15 *112:19 0
18 *110:7 *112:11 0
19 *110:9 *112:19 0
20 *110:17 *1076:A 0.000272292
21 *111:7 *112:11 0
*RES
1 N2END[2] *112:11 43.7003 
2 *112:11 *112:19 44.102 
3 *112:19 *1076:A 32.2158 
*END

*D_NET *113 0.00944221
*CONN
*P N2END[3] I
*I *1075:A I *D sg13g2_buf_1
*CAP
1 N2END[3] 0.00165092
2 *1075:A 0
3 *113:23 0
4 *113:19 0.00193258
5 *113:13 0.00193258
6 *113:9 0.00165092
7 *113:9 *114:9 0
8 *113:9 *115:9 0
9 *113:9 *117:9 0
10 *113:9 *125:9 0
11 *113:19 *117:15 0
12 *113:19 *141:19 0
13 *113:19 *239:16 0
14 *113:19 *239:22 0
15 *113:19 *241:16 0
16 *113:19 *310:18 0
17 *113:19 *311:16 0.00227522
18 *109:9 *113:9 0
19 *112:11 *113:9 0
*RES
1 N2END[3] *113:9 32.6278 
2 *113:9 *113:13 40 
3 *113:13 *113:19 41.6197 
4 *113:19 *113:23 40 
5 *113:23 *1075:A 20 
*END

*D_NET *114 0.0112497
*CONN
*P N2END[4] I
*I *1074:A I *D sg13g2_buf_1
*CAP
1 N2END[4] 0.0010366
2 *1074:A 0
3 *114:29 0
4 *114:25 0.00101284
5 *114:19 0.0016705
6 *114:9 0.00169426
7 *114:9 *115:9 0
8 *114:19 *141:11 4.79507e-05
9 *114:19 *141:19 0
10 *114:19 *217:16 0
11 *114:19 *220:16 0
12 *114:19 *312:12 0.00141178
13 *114:19 *313:14 4.6693e-05
14 *114:25 *217:16 0.00267357
15 *114:25 *220:16 0
16 *114:25 *235:20 0.000207035
17 *28:5 *114:9 0.00144842
18 *29:5 *114:9 0
19 *109:9 *114:9 0
20 *113:9 *114:9 0
*RES
1 N2END[4] *114:9 30.6193 
2 *114:9 *114:19 48.3224 
3 *114:19 *114:25 33.699 
4 *114:25 *114:29 40 
5 *114:29 *1074:A 20 
*END

*D_NET *115 0.0167603
*CONN
*P N2END[5] I
*I *1073:A I *D sg13g2_buf_1
*CAP
1 N2END[5] 0.00140015
2 *1073:A 0
3 *115:25 0
4 *115:21 0.000634018
5 *115:15 0.00115143
6 *115:9 0.00191757
7 *115:9 *116:9 0.00251017
8 *115:15 *116:15 0.000554946
9 *115:21 *126:15 0.00303282
10 *115:21 *235:20 1.4965e-05
11 *115:21 *312:20 0.0029264
12 *32:5 *115:9 0.00261783
13 *112:11 *115:9 0
14 *113:9 *115:9 0
15 *114:9 *115:9 0
*RES
1 N2END[5] *115:9 39.0859 
2 *115:9 *115:15 44.429 
3 *115:15 *115:21 34.4818 
4 *115:21 *115:25 40 
5 *115:25 *1073:A 20 
*END

*D_NET *116 0.0145671
*CONN
*P N2END[6] I
*I *1072:A I *D sg13g2_buf_1
*CAP
1 N2END[6] 0.00192816
2 *1072:A 0.00071703
3 *116:23 0.00112716
4 *116:15 0.000816283
5 *116:9 0.00233431
6 *1072:A *168:8 0
7 *1072:A *273:10 0
8 *1072:A *307:22 0.00145237
9 *1072:A *316:28 0
10 *116:9 *1168:A 0.000126275
11 *116:9 *117:9 0
12 *116:9 *120:9 0
13 *116:9 *133:7 0
14 *116:15 *312:18 7.78179e-05
15 *116:23 *119:31 0
16 *116:23 *126:15 0.00137424
17 *116:23 *161:16 0
18 *116:23 *217:16 0.0013721
19 *1041:A *1072:A 0.000176252
20 *115:9 *116:9 0.00251017
21 *115:15 *116:15 0.000554946
*RES
1 N2END[6] *116:9 38.6224 
2 *116:9 *116:15 43.7801 
3 *116:15 *116:23 47.4675 
4 *116:23 *1072:A 48.2091 
*END

*D_NET *117 0.00921602
*CONN
*P N2END[7] I
*I *1071:A I *D sg13g2_buf_1
*CAP
1 N2END[7] 0.00147209
2 *1071:A 0
3 *117:27 0.000508857
4 *117:15 0.00101899
5 *117:9 0.00198222
6 *117:9 *125:9 0
7 *117:9 *126:9 0
8 *117:9 *131:17 0
9 *117:9 *132:9 0.000660516
10 *117:9 *133:7 0
11 *117:9 *268:8 0
12 *117:15 *141:19 0
13 *117:27 *120:17 0.000500791
14 *117:27 *131:17 0.000181192
15 *117:27 *164:8 0
16 *117:27 *278:12 0.00012812
17 *117:27 *280:8 0.00012868
18 *117:27 *317:24 0.000447708
19 *109:9 *117:9 0.00218686
20 *113:9 *117:9 0
21 *113:19 *117:15 0
22 *116:9 *117:9 0
*RES
1 N2END[7] *117:9 35.9032 
2 *117:9 *117:15 43.811 
3 *117:15 *117:27 46.4993 
4 *117:27 *1071:A 40 
*END

*D_NET *118 0.0144706
*CONN
*P N2MID[0] I
*I *1070:A I *D sg13g2_buf_1
*CAP
1 N2MID[0] 0.000714326
2 *1070:A 0
3 *118:21 0.000132572
4 *118:13 0.0016785
5 *118:7 0.00226026
6 *118:7 *119:9 0
7 *118:7 *120:9 0
8 *118:13 S2BEG[0] 7.86681e-05
9 *118:13 *1168:A 0
10 *118:13 *1172:A 4.68848e-05
11 *118:13 *120:9 0.00460221
12 *118:13 *125:9 0.00369422
13 *118:13 *132:9 0
14 *118:13 *132:21 0.000717521
15 *118:13 *138:19 0
16 *118:13 *311:24 0.00012816
17 *118:21 S2BEG[0] 0.00014454
18 *118:21 S2BEG[1] 0.00014454
19 *118:21 *138:25 0
20 *118:21 *311:24 0.00012816
21 *30:7 *118:13 0
22 *31:11 *118:13 0
23 *32:5 *118:13 0
24 *109:9 *118:7 0
*RES
1 N2MID[0] *118:7 26.0049 
2 *118:7 *118:13 46.5946 
3 *118:13 *118:21 41.5656 
4 *118:21 *1070:A 20 
*END

*D_NET *119 0.00999483
*CONN
*P N2MID[1] I
*I *1069:A I *D sg13g2_buf_1
*CAP
1 N2MID[1] 0.00114028
2 *1069:A 4.08089e-05
3 *119:31 0.000196672
4 *119:23 0.000683078
5 *119:15 0.000867302
6 *119:9 0.00148037
7 *1069:A S1BEG[1] 4.77425e-05
8 *1069:A *148:11 4.77425e-05
9 *119:9 *120:9 0
10 *119:9 *121:9 0.00240646
11 *119:9 *124:13 0
12 *119:9 *153:13 0
13 *119:15 *121:15 0.000879028
14 *119:15 *126:15 0
15 *119:23 *121:23 0.000760761
16 *119:23 *124:19 0
17 *119:23 *144:13 0
18 *119:23 *153:13 0
19 *119:23 *155:13 0
20 *119:23 *273:10 0.000764242
21 *119:23 *316:14 0
22 *119:31 *277:10 2.6842e-05
23 *119:31 *277:18 4.63914e-05
24 *13:13 *119:9 0.000607109
25 *106:9 *119:9 0
26 *116:23 *119:31 0
27 *118:7 *119:9 0
*RES
1 N2MID[1] *119:9 33.5239 
2 *119:9 *119:15 45.047 
3 *119:15 *119:23 46.5096 
4 *119:23 *119:31 41.3133 
5 *119:31 *1069:A 40.4481 
*END

*D_NET *120 0.0117044
*CONN
*P N2MID[2] I
*I *1068:A I *D sg13g2_buf_1
*CAP
1 N2MID[2] 0.00231373
2 *1068:A 0
3 *120:17 0.000292475
4 *120:9 0.00260621
5 *120:9 *1168:A 0.000873049
6 *120:9 *121:9 0
7 *120:9 *122:13 0
8 *120:9 *123:7 0
9 *120:17 *1096:A 0
10 *120:17 *1167:A 1.54008e-05
11 *120:17 *272:10 0
12 *120:17 *317:24 0.000500531
13 *32:5 *120:9 0
14 *116:9 *120:9 0
15 *117:27 *120:17 0.000500791
16 *118:7 *120:9 0
17 *118:13 *120:9 0.00460221
18 *119:9 *120:9 0
*RES
1 N2MID[2] *120:9 43.1482 
2 *120:9 *120:17 43.9449 
3 *120:17 *1068:A 40 
*END

*D_NET *121 0.010572
*CONN
*P N2MID[3] I
*I *1067:A I *D sg13g2_buf_1
*CAP
1 N2MID[3] 0.000625121
2 *1067:A 0.000100076
3 *121:23 0.000614784
4 *121:15 0.000750925
5 *121:9 0.000861338
6 *1067:A *145:17 0.000176062
7 *1067:A *146:19 0.000176062
8 *121:9 *124:13 0.00208744
9 *121:15 *126:15 0
10 *121:15 *127:13 0
11 *121:15 *129:13 0.000718299
12 *121:23 *122:13 0
13 *121:23 *153:13 0
14 *121:23 *316:14 0.000288155
15 *106:17 *121:23 0
16 *107:9 *121:23 0.000127508
17 *119:9 *121:9 0.00240646
18 *119:15 *121:15 0.000879028
19 *119:23 *121:23 0.000760761
20 *120:9 *121:9 0
*RES
1 N2MID[3] *121:9 31.8244 
2 *121:9 *121:15 44.5526 
3 *121:15 *121:23 45.9534 
4 *121:23 *1067:A 41.1845 
*END

*D_NET *122 0.0086023
*CONN
*P N2MID[4] I
*I *1066:A I *D sg13g2_buf_1
*CAP
1 N2MID[4] 0.00182481
2 *1066:A 5.10268e-05
3 *122:13 0.00187584
4 *1066:A *316:14 8.00842e-05
5 *122:13 *142:11 0.00108173
6 *122:13 *150:13 7.51285e-05
7 *122:13 *218:10 0
8 *122:13 *269:10 0
9 *122:13 *271:10 0.000336034
10 *122:13 *316:14 0
11 *24:13 *122:13 0.00166435
12 *106:17 *122:13 0.0016133
13 *108:9 *122:13 0
14 *120:9 *122:13 0
15 *121:23 *122:13 0
*RES
1 N2MID[4] *122:13 41.3931 
2 *122:13 *1066:A 40.5356 
*END

*D_NET *123 0.0109179
*CONN
*P N2MID[5] I
*I *1065:A I *D sg13g2_buf_1
*CAP
1 N2MID[5] 0.000946719
2 *1065:A 0
3 *123:13 0.00172062
4 *123:7 0.00266734
5 *123:7 *125:9 0
6 *123:13 *128:13 0
7 *123:13 *135:9 0
8 *123:13 *138:9 0
9 *123:13 *139:13 0.00274694
10 *3:5 *123:13 0.00283627
11 *32:5 *123:13 0
12 *33:5 *123:13 0
13 *110:7 *123:7 0
14 *120:9 *123:7 0
*RES
1 N2MID[5] *123:7 28.6005 
2 *123:7 *123:13 43.4428 
3 *123:13 *1065:A 20 
*END

*D_NET *124 0.00763316
*CONN
*P N2MID[6] I
*I *1064:A I *D sg13g2_buf_1
*CAP
1 N2MID[6] 0.00118258
2 *1064:A 7.93298e-05
3 *124:19 0.000311894
4 *124:13 0.00141514
5 *1064:A *143:17 0.000144429
6 *1064:A *156:21 0.000144429
7 *124:13 *318:18 0.000762737
8 *124:19 *218:16 0
9 *2:5 *124:13 0.00150518
10 *119:9 *124:13 0
11 *119:23 *124:19 0
12 *121:9 *124:13 0.00208744
*RES
1 N2MID[6] *124:13 37.4688 
2 *124:13 *124:19 42.0497 
3 *124:19 *1064:A 40.9682 
*END

*D_NET *125 0.0081497
*CONN
*P N2MID[7] I
*I *1063:A I *D sg13g2_buf_1
*CAP
1 N2MID[7] 0.00208798
2 *1063:A 0.000139759
3 *125:9 0.00222774
4 *1063:A *270:10 0
5 *1063:A *272:10 0
6 *125:9 *132:9 0
7 *109:9 *125:9 0
8 *110:7 *125:9 0
9 *113:9 *125:9 0
10 *117:9 *125:9 0
11 *118:13 *125:9 0.00369422
12 *123:7 *125:9 0
*RES
1 N2MID[7] *125:9 42.9484 
2 *125:9 *1063:A 41.1845 
*END

*D_NET *126 0.0177204
*CONN
*P N4END[0] I
*I *1094:A I *D sg13g2_buf_1
*CAP
1 N4END[0] 0.00036532
2 *1094:A 0.000630647
3 *126:23 0.00106813
4 *126:15 0.00257415
5 *126:9 0.00250198
6 *1094:A SS4BEG[15] 0.000207845
7 *1094:A *194:10 0.00113701
8 *1094:A *210:9 0.000207845
9 *1094:A *316:28 0.00150602
10 *126:9 *133:7 0
11 *126:15 *217:16 0
12 *126:15 *312:12 0
13 *126:15 *312:20 0
14 *126:23 *129:19 0
15 *126:23 *217:16 0
16 *126:23 *223:20 0.00146758
17 *126:23 *312:20 0.00164681
18 *115:21 *126:15 0.00303282
19 *116:23 *126:15 0.00137424
20 *117:9 *126:9 0
21 *119:15 *126:15 0
22 *121:15 *126:15 0
*RES
1 N4END[0] *126:9 42.7604 
2 *126:9 *126:15 46.7903 
3 *126:15 *126:23 48.5696 
4 *126:23 *1094:A 49.4142 
*END

*D_NET *127 0.0106777
*CONN
*P N4END[10] I
*I *1084:A I *D sg13g2_buf_1
*CAP
1 N4END[10] 2.00464e-05
2 *1084:A 0.000237902
3 *127:19 0.000307658
4 *127:13 0.00187971
5 *127:9 0.00183
6 *1084:A S4BEG[15] 0.000370006
7 *1084:A SS4BEG[0] 0.000144883
8 *1084:A *305:16 1.53556e-05
9 *127:9 *128:7 0
10 *127:9 *141:11 0
11 *127:13 *129:13 0.00587211
12 *127:13 *312:20 0
13 *127:19 *129:19 0
14 *121:15 *127:13 0
*RES
1 N4END[10] *127:9 40.1648 
2 *127:9 *127:13 49.0254 
3 *127:13 *127:19 40.5356 
4 *127:19 *1084:A 42.4823 
*END

*D_NET *128 0.0113044
*CONN
*P N4END[11] I
*I *1083:A I *D sg13g2_buf_1
*CAP
1 N4END[11] 0.00088814
2 *1083:A 0
3 *128:13 0.00218726
4 *128:7 0.0030754
5 *128:7 *129:9 0
6 *128:7 *130:9 0
7 *128:7 *140:9 0
8 *128:7 *141:11 0
9 *128:7 *152:13 0.00020859
10 *128:7 *155:13 0.000305015
11 *128:7 *309:8 0.000917339
12 *128:13 S4BEG[10] 0
13 *128:13 *138:9 0.00183912
14 *128:13 *139:13 0
15 *128:13 *231:10 0.00188358
16 *128:13 *245:10 0
17 *3:17 *128:13 0
18 *5:5 *128:13 0
19 *67:9 *128:13 0
20 *82:9 *128:13 0
21 *110:17 *128:13 0
22 *123:13 *128:13 0
23 *127:9 *128:7 0
*RES
1 N4END[11] *128:7 29.2494 
2 *128:7 *128:13 46.5637 
3 *128:13 *1083:A 20 
*END

*D_NET *129 0.0104885
*CONN
*P N4END[12] I
*I *1082:A I *D sg13g2_buf_1
*CAP
1 N4END[12] 4.83113e-05
2 *1082:A 0
3 *129:19 0.000305928
4 *129:13 0.00190074
5 *129:9 0.00164312
6 *129:9 *130:9 0
7 *129:13 *312:20 0
8 *121:15 *129:13 0.000718299
9 *126:23 *129:19 0
10 *127:13 *129:13 0.00587211
11 *127:19 *129:19 0
12 *128:7 *129:9 0
*RES
1 N4END[12] *129:9 40.3811 
2 *129:9 *129:13 47.0478 
3 *129:13 *129:19 42.6986 
4 *129:19 *1082:A 40 
*END

*D_NET *130 0.011575
*CONN
*P N4END[13] I
*I *1081:A I *D sg13g2_buf_1
*CAP
1 N4END[13] 0.00250591
2 *1081:A 6.20637e-05
3 *130:9 0.00256798
4 *130:9 *131:17 0
5 *130:9 *132:9 0
6 *130:9 *135:9 0
7 *130:9 *152:13 0
8 *130:9 *154:13 0.00014451
9 *130:9 *157:13 0.000369508
10 *130:9 *216:20 0.0026868
11 *130:9 *244:16 0.00145419
12 *130:9 *315:12 0.00155968
13 *130:9 *315:18 0
14 *1076:A *1081:A 0.000112198
15 *32:5 *130:9 0
16 *110:17 *1081:A 0.000112198
17 *128:7 *130:9 0
18 *129:9 *130:9 0
*RES
1 N4END[13] *130:9 49.6228 
2 *130:9 *1081:A 40.7519 
*END

*D_NET *131 0.0111321
*CONN
*P N4END[14] I
*I *1080:A I *D sg13g2_buf_1
*CAP
1 N4END[14] 0.00239256
2 *1080:A 0
3 *131:23 0.000187232
4 *131:17 0.00257979
5 *131:17 *143:17 0
6 *131:17 *145:17 0
7 *131:17 *146:19 0
8 *131:17 *154:13 0.000173344
9 *131:17 *156:21 0.000818934
10 *131:17 *157:13 0.000369743
11 *131:17 *161:10 0.000395588
12 *131:17 *188:10 0.000388834
13 *131:17 *214:20 0
14 *131:17 *235:12 0.000178206
15 *131:17 *238:8 0.00092268
16 *131:17 *268:8 0.000766131
17 *131:17 *269:18 0
18 *131:17 *276:8 0.000393554
19 *131:17 *277:18 0
20 *131:17 *278:12 0
21 *131:17 *279:12 0
22 *131:17 *280:8 0
23 *131:17 *284:10 0.000448012
24 *131:17 *287:16 0.000127853
25 *131:17 *299:18 0.000337683
26 *131:17 *318:38 0
27 *131:23 *191:16 7.81195e-05
28 *131:23 *240:18 0
29 *24:37 *131:17 0.000392598
30 *109:9 *131:17 0
31 *117:9 *131:17 0
32 *117:27 *131:17 0.000181192
33 *130:9 *131:17 0
*RES
1 N4END[14] *131:17 48.6443 
2 *131:17 *131:23 41.4008 
3 *131:23 *1080:A 40 
*END

*D_NET *132 0.00912357
*CONN
*P N4END[15] I
*I *1079:A I *D sg13g2_buf_1
*CAP
1 N4END[15] 0.00113317
2 *1079:A 0
3 *132:21 0.00122705
4 *132:15 0.00136503
5 *132:9 0.00127116
6 *132:9 *138:19 0.00023292
7 *132:9 *144:13 0.000337402
8 *132:9 *154:13 0
9 *132:9 *156:21 0.0001122
10 *132:9 *317:24 0.000820659
11 *132:15 *138:19 0
12 *132:21 S2BEGb[6] 0
13 *132:21 S4BEG[1] 0.000240332
14 *132:21 *1168:A 0.000503392
15 *132:21 *216:20 0
16 *132:21 *235:30 0.000502224
17 *132:21 *240:8 0
18 *132:21 *244:16 0
19 *132:21 *272:10 0
20 *132:21 *311:24 0
21 *117:9 *132:9 0.000660516
22 *118:13 *132:9 0
23 *118:13 *132:21 0.000717521
24 *125:9 *132:9 0
25 *130:9 *132:9 0
*RES
1 N4END[15] *132:9 32.6587 
2 *132:9 *132:15 41.1845 
3 *132:15 *132:21 33.3385 
4 *132:21 *1079:A 20 
*END

*D_NET *133 0.0235681
*CONN
*P N4END[1] I
*I *1093:A I *D sg13g2_buf_1
*CAP
1 N4END[1] 0.00160556
2 *1093:A 0
3 *133:25 0.00114481
4 *133:13 0.00354858
5 *133:7 0.00400934
6 *133:7 *134:7 0
7 *133:13 *134:13 0.00478019
8 *133:25 SS4BEG[11] 0
9 *133:25 *1193:A 0
10 *133:25 *134:21 0.000272671
11 *133:25 *244:16 0.000144568
12 *133:25 *318:56 0
13 *8:9 *133:13 0
14 *80:21 *133:13 0.00348614
15 *81:29 *133:13 0.00457619
16 *116:9 *133:7 0
17 *117:9 *133:7 0
18 *126:9 *133:7 0
*RES
1 N4END[1] *133:7 33.3591 
2 *133:7 *133:13 39.9846 
3 *133:13 *133:25 30.5266 
4 *133:25 *1093:A 20 
*END

*D_NET *134 0.026205
*CONN
*P N4END[2] I
*I *1092:A I *D sg13g2_buf_1
*CAP
1 N4END[2] 0.00147111
2 *1092:A 0
3 *134:21 0.00111259
4 *134:13 0.00272766
5 *134:7 0.00308618
6 *134:7 *135:9 0
7 *134:7 *314:8 0.00146727
8 *134:13 *314:18 0.00809964
9 *134:21 *1114:A 0.000272718
10 *134:21 *136:15 0
11 *134:21 *205:10 8.00842e-05
12 *134:21 *220:24 0.000181695
13 *77:25 *134:13 0.00265316
14 *80:21 *134:13 0
15 *133:7 *134:7 0
16 *133:13 *134:13 0.00478019
17 *133:25 *134:21 0.000272671
*RES
1 N4END[2] *134:7 33.1428 
2 *134:7 *134:13 38.316 
3 *134:13 *134:21 49.8159 
4 *134:21 *1092:A 40 
*END

*D_NET *135 0.0165441
*CONN
*P N4END[3] I
*I *1091:A I *D sg13g2_buf_1
*CAP
1 N4END[3] 0.00305532
2 *1091:A 0
3 *135:41 4.86499e-05
4 *135:31 0.00136275
5 *135:15 0.00161843
6 *135:9 0.00335966
7 *135:9 *136:7 0
8 *135:9 *139:13 0
9 *135:9 *314:8 0.000724496
10 *135:9 *315:12 0.000828154
11 *135:15 S2BEG[1] 0
12 *135:15 *1171:A 7.9657e-05
13 *135:15 *1172:A 0
14 *135:31 *138:25 0.0010309
15 *135:31 *281:8 0.000658248
16 *135:31 *293:12 0.000340789
17 *135:31 *294:8 0.000338482
18 *135:31 *298:8 0.00034042
19 *135:31 *311:24 0.00224821
20 *135:31 *317:24 0.000391514
21 *135:41 SS4BEG[5] 4.77425e-05
22 *135:41 *1204:A 1.54008e-05
23 *135:41 *306:12 2.76208e-05
24 *135:41 *317:24 2.76208e-05
25 *1007:A *135:15 0
26 *32:5 *135:9 0
27 *123:13 *135:9 0
28 *130:9 *135:9 0
29 *134:7 *135:9 0
*RES
1 N4END[3] *135:9 45.853 
2 *135:9 *135:15 42.4823 
3 *135:15 *135:31 38.9211 
4 *135:31 *135:41 40.5768 
5 *135:41 *1091:A 20 
*END

*D_NET *136 0.0227966
*CONN
*P N4END[4] I
*I *1090:A I *D sg13g2_buf_1
*CAP
1 N4END[4] 0.00212586
2 *1090:A 0
3 *136:15 0.00173502
4 *136:9 0.00430225
5 *136:7 0.00469309
6 *136:7 *137:7 0
7 *136:7 *262:12 0.000499448
8 *136:7 *314:8 0
9 *136:9 *137:9 0
10 *136:9 *222:8 0.00359469
11 *136:9 *224:8 0
12 *136:9 *258:12 0.0014615
13 *136:9 *258:14 0
14 *136:15 SS4BEG[8] 0
15 *136:15 *1215:A 0.000272718
16 *136:15 *205:10 8.00842e-05
17 *136:15 *249:14 0
18 *14:9 *136:9 0.00403192
19 *134:21 *136:15 0
20 *135:9 *136:7 0
*RES
1 N4END[4] *136:7 37.2525 
2 *136:7 *136:9 36.1942 
3 *136:9 *136:15 34.729 
4 *136:15 *1090:A 20 
*END

*D_NET *137 0.0212178
*CONN
*P N4END[5] I
*I *1089:A I *D sg13g2_buf_1
*CAP
1 N4END[5] 0.00210576
2 *1089:A 0
3 *137:13 0.00114574
4 *137:9 0.00285732
5 *137:7 0.00381734
6 *137:7 *138:9 0
7 *137:7 *150:13 0.000144542
8 *137:9 *215:10 0
9 *137:9 *222:8 0.00268734
10 *137:9 *308:10 0.00263389
11 *137:13 S4BEG[15] 1.54008e-05
12 *137:13 *1189:A 0
13 *137:13 *248:14 0
14 *137:13 *249:14 0
15 *137:13 *305:16 4.77425e-05
16 *11:15 *137:9 0
17 *12:5 *137:9 0.00183722
18 *14:9 *137:9 0.00392553
19 *68:21 *137:13 0
20 *136:7 *137:7 0
21 *136:9 *137:9 0
*RES
1 N4END[5] *137:7 36.8199 
2 *137:7 *137:9 31.4974 
3 *137:9 *137:13 30.0528 
4 *137:13 *1089:A 20 
*END

*D_NET *138 0.016969
*CONN
*P N4END[6] I
*I *1088:A I *D sg13g2_buf_1
*CAP
1 N4END[6] 0.00188407
2 *1088:A 0
3 *138:25 0.00119161
4 *138:19 0.00202391
5 *138:9 0.00271636
6 *138:9 *139:7 0
7 *138:9 *150:13 0.000144542
8 *138:19 *311:24 0.000555727
9 *138:19 *317:24 0
10 *138:25 SS4BEG[1] 8.00842e-05
11 *138:25 *281:8 0.000658248
12 *138:25 *298:8 0.000340507
13 *138:25 *302:12 0.000552415
14 *138:25 *305:16 8.00842e-05
15 *138:25 *311:24 0
16 *138:25 *317:24 0.00242824
17 *3:5 *138:9 0.00103458
18 *5:5 *138:9 0
19 *106:17 *138:9 0.000175693
20 *118:13 *138:19 0
21 *118:21 *138:25 0
22 *123:13 *138:9 0
23 *128:13 *138:9 0.00183912
24 *132:9 *138:19 0.00023292
25 *132:15 *138:19 0
26 *135:31 *138:25 0.0010309
27 *137:7 *138:9 0
*RES
1 N4END[6] *138:9 40.0129 
2 *138:9 *138:19 47.9104 
3 *138:19 *138:25 37.4482 
4 *138:25 *1088:A 20 
*END

*D_NET *139 0.01447
*CONN
*P N4END[7] I
*I *1087:A I *D sg13g2_buf_1
*CAP
1 N4END[7] 0.00103334
2 *1087:A 0
3 *139:21 0.000256079
4 *139:13 0.00252187
5 *139:7 0.00329914
6 *139:7 *140:9 0
7 *139:7 *151:13 0.000240404
8 *139:13 *216:24 0.00182946
9 *139:13 *243:10 0.00182817
10 *139:13 *245:10 0
11 *139:13 *315:12 0
12 *139:21 S4BEG[12] 0.000143673
13 *139:21 *1191:A 0
14 *139:21 *244:16 0
15 *139:21 *315:18 0.000395177
16 *106:17 *139:7 0.000175693
17 *123:13 *139:13 0.00274694
18 *128:13 *139:13 0
19 *135:9 *139:13 0
20 *138:9 *139:7 0
*RES
1 N4END[7] *139:7 28.3842 
2 *139:7 *139:13 48.0469 
3 *139:13 *139:21 42.8016 
4 *139:21 *1087:A 20 
*END

*D_NET *140 0.00918124
*CONN
*P N4END[8] I
*I *1086:A I *D sg13g2_buf_1
*CAP
1 N4END[8] 0.000934535
2 *1086:A 0
3 *140:21 0.000496051
4 *140:13 0.00295806
5 *140:9 0.00339654
6 *140:9 *141:11 0
7 *140:9 *151:13 0.000240377
8 *140:9 *153:13 0
9 *140:9 *309:8 0
10 *140:9 *311:8 0.000369823
11 *140:13 *313:18 0
12 *140:21 *235:30 0
13 *140:21 *240:8 0.000444233
14 *140:21 *244:16 0
15 *140:21 *301:8 0.000341619
16 *29:17 *140:13 0
17 *33:15 *140:13 0
18 *128:7 *140:9 0
19 *139:7 *140:9 0
*RES
1 N4END[8] *140:9 48.1679 
2 *140:9 *140:13 43.587 
3 *140:13 *140:21 45.459 
4 *140:21 *1086:A 40 
*END

*D_NET *141 0.0102131
*CONN
*P N4END[9] I
*I *1085:A I *D sg13g2_buf_1
*CAP
1 N4END[9] 0.000485656
2 *1085:A 0
3 *141:23 0
4 *141:19 0.00253299
5 *141:11 0.00301865
6 *141:11 *313:14 0
7 *141:19 *220:16 0.00228726
8 *141:19 *241:16 0.0018406
9 *2:9 *141:11 0
10 *113:19 *141:19 0
11 *114:19 *141:11 4.79507e-05
12 *114:19 *141:19 0
13 *117:15 *141:19 0
14 *127:9 *141:11 0
15 *128:7 *141:11 0
16 *140:9 *141:11 0
*RES
1 N4END[9] *141:11 44.5938 
2 *141:11 *141:19 48.4589 
3 *141:19 *141:23 40 
4 *141:23 *1085:A 40 
*END

*D_NET *142 0.00466762
*CONN
*P NN4END[0] I
*I *1110:A I *D sg13g2_buf_1
*CAP
1 NN4END[0] 0.00069988
2 *1110:A 0
3 *142:11 0.00069988
4 *142:11 *144:13 0.00030506
5 *142:11 *149:11 0.00134359
6 *142:11 *318:8 0.00030506
7 *24:13 *142:11 0.000232418
8 *28:5 *142:11 0
9 *122:13 *142:11 0.00108173
*RES
1 NN4END[0] *142:11 30.3515 
2 *142:11 *1110:A 40 
*END

*D_NET *143 0.00320099
*CONN
*P NN4END[10] I
*I *1100:A I *D sg13g2_buf_1
*CAP
1 NN4END[10] 0.000871277
2 *1100:A 0
3 *143:17 0.000871277
4 *143:17 *145:17 0.000282126
5 *143:17 *152:13 0.000289002
6 *143:17 *154:13 0.000498158
7 *143:17 *156:21 0.000101518
8 *143:17 *157:13 0
9 *143:17 *218:10 0
10 *143:17 *273:10 0.000143204
11 *1064:A *143:17 0.000144429
12 *131:17 *143:17 0
*RES
1 NN4END[10] *143:17 48.9519 
2 *143:17 *1100:A 20 
*END

*D_NET *144 0.00386684
*CONN
*P NN4END[11] I
*I *1099:A I *D sg13g2_buf_1
*CAP
1 NN4END[11] 0.000695007
2 *1099:A 0
3 *144:13 0.000695007
4 *144:13 *155:13 0.000811293
5 *144:13 *157:13 0.00102308
6 *144:13 *273:10 0
7 *144:13 *318:18 0
8 *119:23 *144:13 0
9 *132:9 *144:13 0.000337402
10 *142:11 *144:13 0.00030506
*RES
1 NN4END[11] *144:13 48.8683 
2 *144:13 *1099:A 20 
*END

*D_NET *145 0.00289963
*CONN
*P NN4END[12] I
*I *1098:A I *D sg13g2_buf_1
*CAP
1 NN4END[12] 0.000763595
2 *1098:A 0
3 *145:17 0.000763595
4 *145:17 *146:19 0.000112771
5 *145:17 *154:13 7.9225e-05
6 *145:17 *218:10 0.000439262
7 *145:17 *269:10 0
8 *145:17 *270:10 0.000208035
9 *145:17 *276:8 7.49633e-05
10 *145:17 *317:8 0
11 *1067:A *145:17 0.000176062
12 *131:17 *145:17 0
13 *143:17 *145:17 0.000282126
*RES
1 NN4END[12] *145:17 48.3327 
2 *145:17 *1098:A 20 
*END

*D_NET *146 0.0029424
*CONN
*P NN4END[13] I
*I *1097:A I *D sg13g2_buf_1
*CAP
1 NN4END[13] 0.000649285
2 *1097:A 0
3 *146:19 0.000649285
4 *146:19 *1096:A 0
5 *146:19 *1166:A 4.77425e-05
6 *146:19 *158:14 0.000353876
7 *146:19 *268:8 0.000451401
8 *146:19 *316:14 0
9 *146:19 *317:24 0.000501973
10 *1067:A *146:19 0.000176062
11 *131:17 *146:19 0
12 *145:17 *146:19 0.000112771
*RES
1 NN4END[13] *146:19 47.9413 
2 *146:19 *1097:A 20 
*END

*D_NET *147 0.00213651
*CONN
*P NN4END[14] I
*I *1096:A I *D sg13g2_buf_1
*CAP
1 NN4END[14] 0.000787151
2 *1096:A 0.000787151
3 *1096:A S1BEG[1] 0
4 *1096:A S1BEG[2] 0
5 *1096:A *1167:A 0.000209384
6 *1096:A *1169:A 0.000112426
7 *1096:A *148:11 0
8 *1096:A *307:10 0.000240404
9 *120:17 *1096:A 0
10 *146:19 *1096:A 0
*RES
1 NN4END[14] *1096:A 27.2203 
*END

*D_NET *148 0.00147788
*CONN
*P NN4END[15] I
*I *1095:A I *D sg13g2_buf_1
*CAP
1 NN4END[15] 0.000344819
2 *1095:A 0
3 *148:11 0.000344819
4 *148:11 S1BEG[1] 0.000143351
5 *148:11 *1169:A 4.77425e-05
6 *148:11 *271:10 0.000128039
7 *148:11 *276:8 0.000180985
8 *148:11 *277:10 0
9 *148:11 *307:10 0.000240377
10 *1069:A *148:11 4.77425e-05
11 *1096:A *148:11 0
*RES
1 NN4END[15] *148:11 43.8213 
2 *148:11 *1095:A 20 
*END

*D_NET *149 0.00412384
*CONN
*P NN4END[1] I
*I *1109:A I *D sg13g2_buf_1
*CAP
1 NN4END[1] 0.000772559
2 *1109:A 0
3 *149:11 0.000772559
4 *149:11 *152:13 0
5 *149:11 *218:10 7.52149e-05
6 *149:11 *219:8 7.52149e-05
7 *149:11 *313:8 0.000603392
8 *149:11 *318:8 0.00030506
9 *1060:A *149:11 0.000176252
10 *28:5 *149:11 0
11 *142:11 *149:11 0.00134359
*RES
1 NN4END[1] *149:11 49.7541 
2 *149:11 *1109:A 20 
*END

*D_NET *150 0.00422005
*CONN
*P NN4END[2] I
*I *1108:A I *D sg13g2_buf_1
*CAP
1 NN4END[2] 0.000635754
2 *1108:A 0
3 *150:13 0.000635754
4 *1060:A *150:13 4.68848e-05
5 *106:17 *150:13 0.00124221
6 *107:9 *150:13 0
7 *108:9 *150:13 0.00129524
8 *122:13 *150:13 7.51285e-05
9 *137:7 *150:13 0.000144542
10 *138:9 *150:13 0.000144542
*RES
1 NN4END[2] *150:13 49.3627 
2 *150:13 *1108:A 20 
*END

*D_NET *151 0.00396903
*CONN
*P NN4END[3] I
*I *1107:A I *D sg13g2_buf_1
*CAP
1 NN4END[3] 0.000611582
2 *1107:A 0
3 *151:13 0.000611582
4 *151:13 *153:13 0.00102724
5 *107:9 *151:13 0.00123784
6 *139:7 *151:13 0.000240404
7 *140:9 *151:13 0.000240377
*RES
1 NN4END[3] *151:13 48.8683 
2 *151:13 *1107:A 20 
*END

*D_NET *152 0.00327701
*CONN
*P NN4END[4] I
*I *1106:A I *D sg13g2_buf_1
*CAP
1 NN4END[4] 0.000856329
2 *1106:A 0
3 *152:13 0.000856329
4 *152:13 *154:13 0
5 *152:13 *218:10 0.000394566
6 *152:13 *219:8 7.34081e-05
7 *1061:A *152:13 0.000208035
8 *28:5 *152:13 0.000390749
9 *128:7 *152:13 0.00020859
10 *130:9 *152:13 0
11 *143:17 *152:13 0.000289002
12 *149:11 *152:13 0
*RES
1 NN4END[4] *152:13 49.0187 
2 *152:13 *1106:A 20 
*END

*D_NET *153 0.00348593
*CONN
*P NN4END[5] I
*I *1105:A I *D sg13g2_buf_1
*CAP
1 NN4END[5] 0.000717271
2 *1105:A 0
3 *153:13 0.000717271
4 *153:13 *155:13 0.00102415
5 *119:9 *153:13 0
6 *119:23 *153:13 0
7 *121:23 *153:13 0
8 *140:9 *153:13 0
9 *151:13 *153:13 0.00102724
*RES
1 NN4END[5] *153:13 48.8683 
2 *153:13 *1105:A 20 
*END

*D_NET *154 0.00357203
*CONN
*P NN4END[6] I
*I *1104:A I *D sg13g2_buf_1
*CAP
1 NN4END[6] 0.000795866
2 *1104:A 0
3 *154:13 0.000795866
4 *154:13 *156:21 0.000713473
5 *154:13 *271:10 8.00842e-05
6 *1062:A *154:13 0.000112426
7 *28:5 *154:13 0.000179079
8 *109:9 *154:13 0
9 *130:9 *154:13 0.00014451
10 *131:17 *154:13 0.000173344
11 *132:9 *154:13 0
12 *143:17 *154:13 0.000498158
13 *145:17 *154:13 7.9225e-05
14 *152:13 *154:13 0
*RES
1 NN4END[6] *154:13 49.1155 
2 *154:13 *1104:A 20 
*END

*D_NET *155 0.00359327
*CONN
*P NN4END[7] I
*I *1103:A I *D sg13g2_buf_1
*CAP
1 NN4END[7] 0.000702535
2 *1103:A 0
3 *155:13 0.000702535
4 *155:13 *156:21 4.77425e-05
5 *119:23 *155:13 0
6 *128:7 *155:13 0.000305015
7 *144:13 *155:13 0.000811293
8 *153:13 *155:13 0.00102415
*RES
1 NN4END[7] *155:13 48.8683 
2 *155:13 *1103:A 20 
*END

*D_NET *156 0.00362492
*CONN
*P NN4END[8] I
*I *1102:A I *D sg13g2_buf_1
*CAP
1 NN4END[8] 0.00080327
2 *1102:A 0
3 *156:21 0.00080327
4 *156:21 *157:13 0
5 *156:21 *271:10 8.00842e-05
6 *1064:A *156:21 0.000144429
7 *131:17 *156:21 0.000818934
8 *132:9 *156:21 0.0001122
9 *143:17 *156:21 0.000101518
10 *154:13 *156:21 0.000713473
11 *155:13 *156:21 4.77425e-05
*RES
1 NN4END[8] *156:21 49.5275 
2 *156:21 *1102:A 20 
*END

*D_NET *157 0.00399921
*CONN
*P NN4END[9] I
*I *1101:A I *D sg13g2_buf_1
*CAP
1 NN4END[9] 0.000658445
2 *1101:A 0
3 *157:13 0.000658445
4 *157:13 *318:18 0.000919997
5 *130:9 *157:13 0.000369508
6 *131:17 *157:13 0.000369743
7 *143:17 *157:13 0
8 *144:13 *157:13 0.00102308
9 *156:21 *157:13 0
*RES
1 NN4END[9] *157:13 48.8683 
2 *157:13 *1101:A 20 
*END

*D_NET *158 0.00212656
*CONN
*P S1BEG[0] O
*I *1166:X O *D sg13g2_buf_1
*CAP
1 S1BEG[0] 0.000119384
2 *1166:X 0.000622993
3 *158:14 0.000742377
4 *158:14 *1167:A 0
5 *158:14 *273:10 0
6 *158:14 *307:10 0.000287935
7 *158:14 *318:18 0
8 *146:19 *158:14 0.000353876
*RES
1 *1166:X *158:14 45.8813 
2 *158:14 S1BEG[0] 21.03 
*END

*D_NET *159 0.00217525
*CONN
*P S1BEG[1] O
*I *1167:X O *D sg13g2_buf_1
*CAP
1 S1BEG[1] 0.000768202
2 *1167:X 0.000768202
3 S1BEG[1] S1BEG[2] 0
4 S1BEG[1] *1169:A 0.000208491
5 S1BEG[1] *161:10 0.000111466
6 S1BEG[1] *165:14 4.77083e-05
7 S1BEG[1] *279:12 8.00842e-05
8 *1069:A S1BEG[1] 4.77425e-05
9 *1096:A S1BEG[1] 0
10 *148:11 S1BEG[1] 0.000143351
*RES
1 *1167:X S1BEG[1] 27.999 
*END

*D_NET *160 0.00175046
*CONN
*P S1BEG[2] O
*I *1168:X O *D sg13g2_buf_1
*CAP
1 S1BEG[2] 0.000734079
2 *1168:X 0.000734079
3 S1BEG[2] S2BEG[0] 0
4 S1BEG[2] *1172:A 0.000106718
5 S1BEG[2] *161:10 0
6 S1BEG[2] *165:14 0.00017558
7 S1BEG[2] *166:10 0
8 S1BEG[2] *279:12 0
9 S1BEG[1] S1BEG[2] 0
10 *1096:A S1BEG[2] 0
*RES
1 *1168:X S1BEG[2] 26.5714 
*END

*D_NET *161 0.00183804
*CONN
*P S1BEG[3] O
*I *1169:X O *D sg13g2_buf_1
*CAP
1 S1BEG[3] 7.55133e-05
2 *1169:X 0.000209154
3 *161:16 0.000456337
4 *161:10 0.000589978
5 S1BEG[3] S2BEG[0] 0
6 *161:10 *278:12 0
7 S1BEG[1] *161:10 0.000111466
8 S1BEG[2] *161:10 0
9 *24:29 *161:16 0
10 *116:23 *161:16 0
11 *131:17 *161:10 0.000395588
*RES
1 *1169:X *161:10 42.5853 
2 *161:10 *161:16 43.1312 
3 *161:16 S1BEG[3] 20.5974 
*END

*D_NET *162 0.00203336
*CONN
*P S2BEG[0] O
*I *1170:X O *D sg13g2_buf_1
*CAP
1 S2BEG[0] 0.000713026
2 *1170:X 0.000713026
3 S2BEG[0] S2BEG[1] 0
4 S2BEG[0] *1176:A 0.000176179
5 S2BEG[0] *166:10 0.000207922
6 S1BEG[2] S2BEG[0] 0
7 S1BEG[3] S2BEG[0] 0
8 *118:13 S2BEG[0] 7.86681e-05
9 *118:21 S2BEG[0] 0.00014454
*RES
1 *1170:X S2BEG[0] 26.5714 
*END

*D_NET *163 0.00200107
*CONN
*P S2BEG[1] O
*I *1171:X O *D sg13g2_buf_1
*CAP
1 S2BEG[1] 0.000752385
2 *1171:X 0.000752385
3 S2BEG[1] S2BEG[2] 0
4 S2BEG[1] *1171:A 0
5 S2BEG[1] *1176:A 0.000176179
6 S2BEG[1] *167:10 0.00017558
7 S2BEG[0] S2BEG[1] 0
8 *118:21 S2BEG[1] 0.00014454
9 *135:15 S2BEG[1] 0
*RES
1 *1171:X S2BEG[1] 26.5714 
*END

*D_NET *164 0.00167116
*CONN
*P S2BEG[2] O
*I *1172:X O *D sg13g2_buf_1
*CAP
1 S2BEG[2] 0.000521384
2 *1172:X 0.000124667
3 *164:8 0.000646051
4 S2BEG[2] *1171:A 0
5 S2BEG[2] *167:10 0.00017558
6 *164:8 *278:12 0.000128353
7 *164:8 *280:8 7.51285e-05
8 S2BEG[1] S2BEG[2] 0
9 *117:27 *164:8 0
*RES
1 *1172:X *164:8 41.339 
2 *164:8 S2BEG[2] 24.2745 
*END

*D_NET *165 0.00187395
*CONN
*P S2BEG[3] O
*I *1174:X O *D sg13g2_buf_1
*CAP
1 S2BEG[3] 0.000104056
2 *1174:X 0.000435934
3 *165:14 0.000539991
4 *165:14 *166:10 0.000393272
5 *165:14 *218:26 0
6 *165:14 *273:10 0.000177404
7 *165:14 *279:12 0
8 *165:14 *307:10 0
9 *165:14 *318:30 0
10 S1BEG[1] *165:14 4.77083e-05
11 S1BEG[2] *165:14 0.00017558
*RES
1 *1174:X *165:14 44.6453 
2 *165:14 S2BEG[3] 20.8137 
*END

*D_NET *166 0.00175376
*CONN
*P S2BEG[4] O
*I *1175:X O *D sg13g2_buf_1
*CAP
1 S2BEG[4] 0.000128042
2 *1175:X 0.000304196
3 *166:10 0.000432237
4 S2BEG[4] S2BEG[5] 0
5 *166:10 *167:10 0.000288087
6 *166:10 *273:10 0
7 S1BEG[2] *166:10 0
8 S2BEG[0] *166:10 0.000207922
9 *165:14 *166:10 0.000393272
*RES
1 *1175:X *166:10 43.7286 
2 *166:10 S2BEG[4] 21.03 
*END

*D_NET *167 0.00160133
*CONN
*P S2BEG[5] O
*I *1176:X O *D sg13g2_buf_1
*CAP
1 S2BEG[5] 0.000154014
2 *1176:X 0.000236179
3 *167:10 0.000390193
4 S2BEG[5] S2BEG[6] 0
5 *167:10 *273:10 0.000181695
6 *167:10 *307:22 0
7 S2BEG[1] *167:10 0.00017558
8 S2BEG[2] *167:10 0.00017558
9 S2BEG[4] S2BEG[5] 0
10 *166:10 *167:10 0.000288087
*RES
1 *1176:X *167:10 43.0179 
2 *167:10 S2BEG[5] 21.2463 
*END

*D_NET *168 0.00111927
*CONN
*P S2BEG[6] O
*I *1177:X O *D sg13g2_buf_1
*CAP
1 S2BEG[6] 0.00029323
2 *1177:X 0.000114453
3 *168:8 0.000407684
4 S2BEG[6] S2BEG[7] 0
5 S2BEG[6] *1171:A 0
6 S2BEG[6] *223:10 1.54008e-05
7 *168:8 *316:28 0.000288502
8 S2BEG[5] S2BEG[6] 0
9 *1072:A *168:8 0
*RES
1 *1177:X *168:8 41.339 
2 *168:8 S2BEG[6] 22.3278 
*END

*D_NET *169 0.00111521
*CONN
*P S2BEG[7] O
*I *1178:X O *D sg13g2_buf_1
*CAP
1 S2BEG[7] 0.000557606
2 *1178:X 0.000557606
3 S2BEG[7] S2BEGb[0] 0
4 S2BEG[7] *1171:A 0
5 S2BEG[6] S2BEG[7] 0
*RES
1 *1178:X S2BEG[7] 24.6247 
*END

*D_NET *170 0.00116996
*CONN
*P S2BEGb[0] O
*I *1179:X O *D sg13g2_buf_1
*CAP
1 S2BEGb[0] 0.000584982
2 *1179:X 0.000584982
3 S2BEGb[0] S2BEGb[1] 0
4 S2BEG[7] S2BEGb[0] 0
*RES
1 *1179:X S2BEGb[0] 24.6247 
*END

*D_NET *171 0.00123205
*CONN
*P S2BEGb[1] O
*I *1180:X O *D sg13g2_buf_1
*CAP
1 S2BEGb[1] 0.000616024
2 *1180:X 0.000616024
3 S2BEGb[1] S2BEGb[2] 0
4 S2BEGb[1] *1180:A 0
5 S2BEGb[1] *318:30 0
6 S2BEGb[0] S2BEGb[1] 0
*RES
1 *1180:X S2BEGb[1] 25.1191 
*END

*D_NET *172 0.00170426
*CONN
*P S2BEGb[2] O
*I *1181:X O *D sg13g2_buf_1
*CAP
1 S2BEGb[2] 0.000252494
2 *1181:X 0.000196727
3 *172:8 0.000449221
4 S2BEGb[2] *318:30 0.000305521
5 *172:8 *307:22 0
6 *172:8 *316:28 0.000500302
7 S2BEGb[1] S2BEGb[2] 0
8 *78:25 *172:8 0
*RES
1 *1181:X *172:8 42.3278 
2 *172:8 S2BEGb[2] 22.3278 
*END

*D_NET *173 0.00203037
*CONN
*P S2BEGb[3] O
*I *1182:X O *D sg13g2_buf_1
*CAP
1 S2BEGb[3] 0.000128408
2 *1182:X 0.000350842
3 *173:10 0.00047925
4 S2BEGb[3] S2BEGb[4] 0
5 S2BEGb[3] S2BEGb[5] 0
6 S2BEGb[3] *318:30 0.00014514
7 *173:10 S4BEG[0] 0.000175693
8 *173:10 S4BEG[1] 0.000175693
9 *173:10 *175:10 0.000394151
10 *173:10 *177:10 0.000181192
11 *173:10 *307:22 0
*RES
1 *1182:X *173:10 44.0067 
2 *173:10 S2BEGb[3] 21.2463 
*END

*D_NET *174 0.0023645
*CONN
*P S2BEGb[4] O
*I *1183:X O *D sg13g2_buf_1
*CAP
1 S2BEGb[4] 0.000102455
2 *1183:X 0.000367148
3 *174:10 0.000469603
4 S2BEGb[4] S2BEGb[5] 0
5 *174:10 S4BEG[2] 8.00842e-05
6 *174:10 S4BEG[3] 0.000240377
7 *174:10 *177:10 0.00039332
8 *174:10 *218:26 0.000711511
9 S2BEGb[3] S2BEGb[4] 0
*RES
1 *1183:X *174:10 44.9337 
2 *174:10 S2BEGb[4] 20.8137 
*END

*D_NET *175 0.00262907
*CONN
*P S2BEGb[5] O
*I *1185:X O *D sg13g2_buf_1
*CAP
1 S2BEGb[5] 0.000173336
2 *1185:X 0.000279798
3 *175:10 0.000453134
4 S2BEGb[5] S2BEGb[6] 0
5 S2BEGb[5] *318:30 0
6 *175:10 S4BEG[4] 0.000143351
7 *175:10 S4BEG[5] 7.9225e-05
8 *175:10 *186:10 0.000287256
9 *175:10 *307:22 0.000818821
10 S2BEGb[3] S2BEGb[5] 0
11 S2BEGb[4] S2BEGb[5] 0
12 *173:10 *175:10 0.000394151
*RES
1 *1185:X *175:10 44.7792 
2 *175:10 S2BEGb[5] 21.4626 
*END

*D_NET *176 0.00195202
*CONN
*P S2BEGb[6] O
*I *1186:X O *D sg13g2_buf_1
*CAP
1 S2BEGb[6] 0.000858956
2 *1186:X 0.000858956
3 S2BEGb[6] S2BEGb[7] 0
4 S2BEGb[6] *1181:A 0.000123139
5 S2BEGb[6] *284:10 0.000110965
6 S2BEGb[5] S2BEGb[6] 0
7 *1041:A S2BEGb[6] 0
8 *132:21 S2BEGb[6] 0
*RES
1 *1186:X S2BEGb[6] 27.3086 
*END

*D_NET *177 0.00236228
*CONN
*P S2BEGb[7] O
*I *1187:X O *D sg13g2_buf_1
*CAP
1 S2BEGb[7] 0.000129036
2 *1187:X 0.000427104
3 *177:10 0.000556139
4 S2BEGb[7] S4BEG[0] 0
5 *177:10 S4BEG[7] 0.000175693
6 *177:10 *186:10 0.000499799
7 *177:10 *218:26 0
8 S2BEGb[6] S2BEGb[7] 0
9 *173:10 *177:10 0.000181192
10 *174:10 *177:10 0.00039332
*RES
1 *1187:X *177:10 45.2118 
2 *177:10 S2BEGb[7] 21.03 
*END

*D_NET *178 0.00237563
*CONN
*P S4BEG[0] O
*I *1188:X O *D sg13g2_buf_1
*CAP
1 S4BEG[0] 0.000264029
2 *1188:X 0.000374372
3 *178:8 0.000638401
4 S4BEG[0] S4BEG[1] 0
5 *178:8 *189:12 0
6 *178:8 *307:30 0
7 *178:8 *316:28 0.000923138
8 S2BEGb[7] S4BEG[0] 0
9 *78:25 *178:8 0
10 *173:10 S4BEG[0] 0.000175693
*RES
1 *1188:X *178:8 44.3054 
2 *178:8 S4BEG[0] 22.3278 
*END

*D_NET *179 0.00263905
*CONN
*P S4BEG[10] O
*I *1189:X O *D sg13g2_buf_1
*CAP
1 S4BEG[10] 0.00096061
2 *1189:X 0.00096061
3 S4BEG[10] *1198:A 0.000208035
4 S4BEG[10] *1199:A 0
5 S4BEG[10] *1200:A 7.98484e-05
6 S4BEG[10] *186:10 0.00017558
7 S4BEG[10] *188:10 0.00011101
8 S4BEG[10] *307:30 0.000143351
9 *128:13 S4BEG[10] 0
*RES
1 *1189:X S4BEG[10] 28.5181 
*END

*D_NET *180 0.00338607
*CONN
*P S4BEG[11] O
*I *1190:X O *D sg13g2_buf_1
*CAP
1 S4BEG[11] 0.000479185
2 *1190:X 0.000174884
3 *180:8 0.000654069
4 S4BEG[11] S4BEG[12] 0
5 S4BEG[11] *186:10 0.00017558
6 S4BEG[11] *188:10 0.00011101
7 S4BEG[11] *218:26 0.000240408
8 *180:8 *214:20 0.000817575
9 *180:8 *220:24 0.000340043
10 *180:8 *317:24 0.00039332
*RES
1 *1190:X *180:8 43.811 
2 *180:8 S4BEG[11] 24.2745 
*END

*D_NET *181 0.00254009
*CONN
*P S4BEG[12] O
*I *1191:X O *D sg13g2_buf_1
*CAP
1 S4BEG[12] 0.001022
2 *1191:X 0.001022
3 S4BEG[12] S4BEG[13] 0
4 S4BEG[12] *1189:A 0
5 S4BEG[12] *1199:A 0
6 S4BEG[12] *218:26 0.000240569
7 S4BEG[12] *304:12 0.000111854
8 S4BEG[11] S4BEG[12] 0
9 *139:21 S4BEG[12] 0.000143673
*RES
1 *1191:X S4BEG[12] 28.5181 
*END

*D_NET *182 0.00259947
*CONN
*P S4BEG[13] O
*I *1192:X O *D sg13g2_buf_1
*CAP
1 S4BEG[13] 0.000839564
2 *1192:X 0.000257878
3 *182:10 0.00109744
4 S4BEG[13] S4BEG[14] 0
5 S4BEG[13] S4BEG[15] 0
6 S4BEG[13] *303:10 0.000143307
7 *182:10 *184:10 0.000181192
8 *182:10 *235:30 0
9 *182:10 *305:16 8.00842e-05
10 S4BEG[12] S4BEG[13] 0
*RES
1 *1192:X *182:10 42.369 
2 *182:10 S4BEG[13] 26.6538 
*END

*D_NET *183 0.00334046
*CONN
*P S4BEG[14] O
*I *1193:X O *D sg13g2_buf_1
*CAP
1 S4BEG[14] 0.000306196
2 *1193:X 0.000230077
3 *183:8 0.000536273
4 S4BEG[14] S4BEG[15] 0
5 *183:8 *218:30 0.00113452
6 *183:8 *307:38 0.00113339
7 S4BEG[13] S4BEG[14] 0
*RES
1 *1193:X *183:8 45.2942 
2 *183:8 S4BEG[14] 22.3278 
*END

*D_NET *184 0.00295475
*CONN
*P S4BEG[15] O
*I *1194:X O *D sg13g2_buf_1
*CAP
1 S4BEG[15] 0.000776795
2 *1194:X 0.000193384
3 *184:10 0.00097018
4 S4BEG[15] *1202:A 0.000240404
5 S4BEG[15] *191:10 7.92265e-05
6 S4BEG[15] *302:12 0
7 S4BEG[15] *305:16 0
8 *184:10 *235:30 0
9 *184:10 *305:8 0.00012816
10 *184:10 *313:26 0
11 S4BEG[13] S4BEG[15] 0
12 S4BEG[14] S4BEG[15] 0
13 *1084:A S4BEG[15] 0.000370006
14 *137:13 S4BEG[15] 1.54008e-05
15 *182:10 *184:10 0.000181192
*RES
1 *1194:X *184:10 42.1527 
2 *184:10 S4BEG[15] 26.8701 
*END

*D_NET *185 0.00203424
*CONN
*P S4BEG[1] O
*I *1196:X O *D sg13g2_buf_1
*CAP
1 S4BEG[1] 0.000753007
2 *1196:X 0.000753007
3 S4BEG[1] S4BEG[2] 0
4 S4BEG[1] *1182:A 0.000112198
5 S4BEG[1] *1196:A 0
6 S4BEG[1] *285:12 0
7 S4BEG[1] *287:16 0
8 S4BEG[0] S4BEG[1] 0
9 *1076:A S4BEG[1] 0
10 *132:21 S4BEG[1] 0.000240332
11 *173:10 S4BEG[1] 0.000175693
*RES
1 *1196:X S4BEG[1] 27.0658 
*END

*D_NET *186 0.00293777
*CONN
*P S4BEG[2] O
*I *1197:X O *D sg13g2_buf_1
*CAP
1 S4BEG[2] 0.000144304
2 *1197:X 0.000321071
3 *186:10 0.000465375
4 S4BEG[2] S4BEG[3] 0
5 *186:10 *193:10 0.000181192
6 *186:10 *218:26 0
7 S4BEG[10] *186:10 0.00017558
8 S4BEG[11] *186:10 0.00017558
9 S4BEG[1] S4BEG[2] 0
10 *78:25 *186:10 0.000607524
11 *174:10 S4BEG[2] 8.00842e-05
12 *175:10 *186:10 0.000287256
13 *177:10 *186:10 0.000499799
*RES
1 *1197:X *186:10 45.4899 
2 *186:10 S4BEG[2] 21.2463 
*END

*D_NET *187 0.00298054
*CONN
*P S4BEG[3] O
*I *1198:X O *D sg13g2_buf_1
*CAP
1 S4BEG[3] 0.000317211
2 *1198:X 0.000279759
3 *187:10 0.00059697
4 S4BEG[3] S4BEG[4] 0
5 *187:10 *1188:A 0.000208035
6 *187:10 *189:12 0.000240377
7 *187:10 *240:18 0.000233843
8 *187:10 *285:12 7.51285e-05
9 *187:10 *287:16 0.00018211
10 *187:10 *299:18 0
11 *187:10 *316:28 0.000606728
12 S4BEG[2] S4BEG[3] 0
13 *174:10 S4BEG[3] 0.000240377
*RES
1 *1198:X *187:10 44.4393 
2 *187:10 S4BEG[3] 22.7604 
*END

*D_NET *188 0.00300139
*CONN
*P S4BEG[4] O
*I *1199:X O *D sg13g2_buf_1
*CAP
1 S4BEG[4] 0.000425865
2 *1199:X 0.000281638
3 *188:10 0.000707503
4 S4BEG[4] S4BEG[5] 0
5 S4BEG[4] *299:18 7.98567e-05
6 *188:10 *191:10 0.000391435
7 *188:10 *300:8 0.00012816
8 *188:10 *318:38 0.000232728
9 S4BEG[10] *188:10 0.00011101
10 S4BEG[11] *188:10 0.00011101
11 S4BEG[3] S4BEG[4] 0
12 *131:17 *188:10 0.000388834
13 *175:10 S4BEG[4] 0.000143351
*RES
1 *1199:X *188:10 44.0685 
2 *188:10 S4BEG[4] 23.6256 
*END

*D_NET *189 0.00247413
*CONN
*P S4BEG[5] O
*I *1200:X O *D sg13g2_buf_1
*CAP
1 S4BEG[5] 0.000261511
2 *1200:X 0.000647794
3 *189:12 0.000909305
4 S4BEG[5] S4BEG[7] 0
5 *189:12 *1187:A 4.77425e-05
6 *189:12 *1198:A 0
7 *189:12 *1200:A 0
8 *189:12 *299:18 0
9 *189:12 *307:30 0.000288174
10 S4BEG[4] S4BEG[5] 0
11 *175:10 S4BEG[5] 7.9225e-05
12 *178:8 *189:12 0
13 *187:10 *189:12 0.000240377
*RES
1 *1200:X *189:12 46.1182 
2 *189:12 S4BEG[5] 22.2454 
*END

*D_NET *190 0.00319507
*CONN
*P S4BEG[6] O
*I *1201:X O *D sg13g2_buf_1
*CAP
1 S4BEG[6] 1.99435e-05
2 *1201:X 0.000572677
3 *190:12 0.00059262
4 S4BEG[6] S4BEG[7] 0
5 *190:12 SS4BEG[0] 0.000177225
6 *190:12 SS4BEG[1] 0.000305175
7 *190:12 *192:12 0.000920653
8 *190:12 *193:10 0
9 *190:12 *218:26 0.00060678
*RES
1 *1201:X *190:12 47.6632 
2 *190:12 S4BEG[6] 20.1648 
*END

*D_NET *191 0.00346688
*CONN
*P S4BEG[7] O
*I *1202:X O *D sg13g2_buf_1
*CAP
1 S4BEG[7] 0.000222117
2 *1202:X 0.000231621
3 *191:16 0.000451282
4 *191:10 0.000460786
5 S4BEG[7] S4BEG[8] 0
6 S4BEG[7] S4BEG[9] 0
7 *191:10 *214:20 0.000816118
8 *191:10 *302:12 7.92265e-05
9 *191:10 *318:56 0.000340288
10 *191:16 *240:18 0.000140972
11 S4BEG[15] *191:10 7.92265e-05
12 S4BEG[5] S4BEG[7] 0
13 S4BEG[6] S4BEG[7] 0
14 *131:23 *191:16 7.81195e-05
15 *177:10 S4BEG[7] 0.000175693
16 *188:10 *191:10 0.000391435
*RES
1 *1202:X *191:10 44.3466 
2 *191:10 *191:16 41.8334 
3 *191:16 S4BEG[7] 21.4603 
*END

*D_NET *192 0.00267309
*CONN
*P S4BEG[8] O
*I *1203:X O *D sg13g2_buf_1
*CAP
1 S4BEG[8] 2.06135e-05
2 *1203:X 0.000655275
3 *192:12 0.000675888
4 *192:12 SS4BEG[2] 8.00842e-05
5 *192:12 SS4BEG[3] 0.00030506
6 S4BEG[7] S4BEG[8] 0
7 *68:13 *192:12 1.55212e-05
8 *190:12 *192:12 0.000920653
*RES
1 *1203:X *192:12 47.6632 
2 *192:12 S4BEG[8] 20.1648 
*END

*D_NET *193 0.00322019
*CONN
*P S4BEG[9] O
*I *1204:X O *D sg13g2_buf_1
*CAP
1 S4BEG[9] 0.000119442
2 *1204:X 0.000588067
3 *193:10 0.000707509
4 *193:10 SS4BEG[4] 0.000208035
5 *193:10 SS4BEG[5] 0.000208035
6 *193:10 *202:10 0.000287256
7 S4BEG[7] S4BEG[9] 0
8 *78:25 *193:10 0.000920653
9 *186:10 *193:10 0.000181192
10 *190:12 *193:10 0
*RES
1 *1204:X *193:10 47.1894 
2 *193:10 S4BEG[9] 21.03 
*END

*D_NET *194 0.00333528
*CONN
*P SS4BEG[0] O
*I *1205:X O *D sg13g2_buf_1
*CAP
1 SS4BEG[0] 0.000136195
2 *1205:X 0.000440478
3 *194:10 0.000576674
4 *194:10 SS4BEG[11] 0.000143351
5 *194:10 SS4BEG[9] 0.00011101
6 *194:10 *195:10 7.51285e-05
7 *1084:A SS4BEG[0] 0.000144883
8 *1094:A *194:10 0.00113701
9 *78:25 *194:10 0.00039332
10 *190:12 SS4BEG[0] 0.000177225
*RES
1 *1205:X *194:10 46.2624 
2 *194:10 SS4BEG[0] 21.4626 
*END

*D_NET *195 0.00225374
*CONN
*P SS4BEG[10] O
*I *1207:X O *D sg13g2_buf_1
*CAP
1 SS4BEG[10] 0.000158243
2 *1207:X 0.000486728
3 *195:10 0.000644971
4 SS4BEG[10] SS4BEG[11] 0
5 SS4BEG[10] SS4BEG[9] 0
6 *195:10 *207:10 0.000711511
7 *77:15 *195:10 0.000177157
8 *79:7 *195:10 0
9 *194:10 *195:10 7.51285e-05
*RES
1 *1207:X *195:10 45.4899 
2 *195:10 SS4BEG[10] 21.2463 
*END

*D_NET *196 0.00231748
*CONN
*P SS4BEG[11] O
*I *1208:X O *D sg13g2_buf_1
*CAP
1 SS4BEG[11] 0.0008954
2 *1208:X 0.0008954
3 SS4BEG[11] SS4BEG[12] 0
4 SS4BEG[11] *204:10 4.77425e-05
5 SS4BEG[11] *206:10 0.000111685
6 SS4BEG[11] *296:18 0
7 SS4BEG[11] *307:38 8.0039e-05
8 SS4BEG[11] *318:56 0.000143865
9 SS4BEG[10] SS4BEG[11] 0
10 *133:25 SS4BEG[11] 0
11 *194:10 SS4BEG[11] 0.000143351
*RES
1 *1208:X SS4BEG[11] 28.137 
*END

*D_NET *197 0.00242288
*CONN
*P SS4BEG[12] O
*I *1209:X O *D sg13g2_buf_1
*CAP
1 SS4BEG[12] 0.000394264
2 *1209:X 0.000265864
3 *197:10 0.000660129
4 SS4BEG[12] SS4BEG[13] 0
5 SS4BEG[12] *202:10 0.000240331
6 SS4BEG[12] *296:18 4.77425e-05
7 SS4BEG[12] *307:38 4.77425e-05
8 SS4BEG[12] *316:28 0
9 *197:10 *209:10 0.000233845
10 *197:10 *210:9 0.000175886
11 *197:10 *240:24 0
12 *197:10 *296:10 0.000181192
13 SS4BEG[11] SS4BEG[12] 0
14 *66:9 *197:10 0.000175886
*RES
1 *1209:X *197:10 43.2651 
2 *197:10 SS4BEG[12] 23.6462 
*END

*D_NET *198 0.00254521
*CONN
*P SS4BEG[13] O
*I *1210:X O *D sg13g2_buf_1
*CAP
1 SS4BEG[13] 0.000254177
2 *1210:X 0.000199939
3 *198:8 0.000454116
4 SS4BEG[13] SS4BEG[14] 0
5 SS4BEG[13] *202:10 0.000240377
6 SS4BEG[13] *316:28 7.92265e-05
7 *198:8 *218:30 0.000499383
8 *198:8 *240:24 0.00081799
9 SS4BEG[12] SS4BEG[13] 0
*RES
1 *1210:X *198:8 43.811 
2 *198:8 SS4BEG[13] 22.3278 
*END

*D_NET *199 0.0019413
*CONN
*P SS4BEG[14] O
*I *1211:X O *D sg13g2_buf_1
*CAP
1 SS4BEG[14] 0.000754541
2 *1211:X 0.000754541
3 SS4BEG[14] SS4BEG[15] 0
4 SS4BEG[14] *209:10 0.000143544
5 SS4BEG[14] *210:9 0
6 SS4BEG[14] *296:10 0.000112426
7 SS4BEG[14] *296:18 0
8 SS4BEG[14] *316:28 0.000176252
9 SS4BEG[13] SS4BEG[14] 0
*RES
1 *1211:X SS4BEG[14] 26.5714 
*END

*D_NET *200 0.00194876
*CONN
*P SS4BEG[15] O
*I *1212:X O *D sg13g2_buf_1
*CAP
1 SS4BEG[15] 0.000490496
2 *1212:X 0.000214412
3 *200:8 0.000704908
4 SS4BEG[15] *209:10 0.000143544
5 SS4BEG[15] *210:9 0
6 SS4BEG[15] *296:10 0.000112426
7 *200:8 *214:20 0
8 *200:8 *220:24 7.51285e-05
9 *200:8 *235:30 0
10 SS4BEG[14] SS4BEG[15] 0
11 *1094:A SS4BEG[15] 0.000207845
*RES
1 *1212:X *200:8 41.8334 
2 *200:8 SS4BEG[15] 24.2745 
*END

*D_NET *201 0.00324032
*CONN
*P SS4BEG[1] O
*I *1213:X O *D sg13g2_buf_1
*CAP
1 SS4BEG[1] 0.000644794
2 *1213:X 0.000115907
3 *201:10 0.000760701
4 SS4BEG[1] SS4BEG[2] 0
5 SS4BEG[1] *1192:A 0.00011101
6 SS4BEG[1] *1201:A 8.00842e-05
7 SS4BEG[1] *306:12 4.77425e-05
8 *201:10 *235:30 0.000394248
9 *201:10 *311:24 0.000395371
10 *68:21 SS4BEG[1] 0.000305202
11 *138:25 SS4BEG[1] 8.00842e-05
12 *190:12 SS4BEG[1] 0.000305175
*RES
1 *1213:X *201:10 42.1527 
2 *201:10 SS4BEG[1] 26.0049 
*END

*D_NET *202 0.00358633
*CONN
*P SS4BEG[2] O
*I *1214:X O *D sg13g2_buf_1
*CAP
1 SS4BEG[2] 8.34484e-05
2 *1214:X 0.000406685
3 *202:10 0.000490133
4 *202:10 *207:10 0.000605447
5 SS4BEG[12] *202:10 0.000240331
6 SS4BEG[13] *202:10 0.000240377
7 SS4BEG[1] SS4BEG[2] 0
8 *68:13 *202:10 0.00012816
9 *68:21 SS4BEG[2] 4.77425e-05
10 *78:13 *202:10 0.00097667
11 *192:12 SS4BEG[2] 8.00842e-05
12 *193:10 *202:10 0.000287256
*RES
1 *1214:X *202:10 46.9113 
2 *202:10 SS4BEG[2] 20.8137 
*END

*D_NET *203 0.00308548
*CONN
*P SS4BEG[3] O
*I *1215:X O *D sg13g2_buf_1
*CAP
1 SS4BEG[3] 0.000863589
2 *1215:X 5.46456e-05
3 *203:8 0.000918235
4 SS4BEG[3] SS4BEG[4] 0
5 SS4BEG[3] SS4BEG[5] 0
6 SS4BEG[3] *1190:A 0.000207876
7 SS4BEG[3] *1194:A 4.77425e-05
8 SS4BEG[3] *293:12 0
9 *203:8 *219:28 0.000287728
10 *203:8 *313:26 0.000288174
11 *68:21 SS4BEG[3] 0
12 *78:13 SS4BEG[3] 0.000112426
13 *192:12 SS4BEG[3] 0.00030506
*RES
1 *1215:X *203:8 41.339 
2 *203:8 SS4BEG[3] 27.9928 
*END

*D_NET *204 0.00253686
*CONN
*P SS4BEG[4] O
*I *1216:X O *D sg13g2_buf_1
*CAP
1 SS4BEG[4] 0.000366654
2 *1216:X 0.000512611
3 *204:10 0.000879266
4 SS4BEG[4] SS4BEG[5] 0
5 *204:10 SS4BEG[9] 4.77425e-05
6 *204:10 *206:10 0
7 *204:10 *209:10 7.51285e-05
8 *204:10 *240:24 0
9 *204:10 *292:10 0.000287256
10 SS4BEG[11] *204:10 4.77425e-05
11 SS4BEG[3] SS4BEG[4] 0
12 *78:13 SS4BEG[4] 0.000112426
13 *193:10 SS4BEG[4] 0.000208035
*RES
1 *1216:X *204:10 44.5011 
2 *204:10 SS4BEG[4] 23.193 
*END

*D_NET *205 0.00288121
*CONN
*P SS4BEG[5] O
*I *1114:X O *D sg13g2_buf_1
*CAP
1 SS4BEG[5] 0.000870815
2 *1114:X 0.000140687
3 *205:10 0.0010115
4 SS4BEG[5] SS4BEG[6] 0
5 SS4BEG[5] *1204:A 0.000208035
6 *205:10 *219:28 0.000234224
7 SS4BEG[3] SS4BEG[5] 0
8 SS4BEG[4] SS4BEG[5] 0
9 *134:21 *205:10 8.00842e-05
10 *135:41 SS4BEG[5] 4.77425e-05
11 *136:15 *205:10 8.00842e-05
12 *193:10 SS4BEG[5] 0.000208035
*RES
1 *1114:X *205:10 41.6274 
2 *205:10 SS4BEG[5] 27.8074 
*END

*D_NET *206 0.0028333
*CONN
*P SS4BEG[6] O
*I *1115:X O *D sg13g2_buf_1
*CAP
1 SS4BEG[6] 0.000434397
2 *1115:X 0.000292386
3 *206:10 0.000726784
4 SS4BEG[6] SS4BEG[7] 0
5 SS4BEG[6] SS4BEG[8] 0
6 SS4BEG[6] *1204:A 0.000112198
7 SS4BEG[6] *292:10 4.77425e-05
8 *206:10 *209:10 0.000286965
9 *206:10 *214:20 2.87256e-05
10 *206:10 *292:10 7.51285e-05
11 *206:10 *296:18 0.00011101
12 *206:10 *318:56 0.000606279
13 SS4BEG[11] *206:10 0.000111685
14 SS4BEG[5] SS4BEG[6] 0
15 *204:10 *206:10 0
*RES
1 *1115:X *206:10 44.0685 
2 *206:10 SS4BEG[6] 23.6256 
*END

*D_NET *207 0.00295572
*CONN
*P SS4BEG[7] O
*I *1116:X O *D sg13g2_buf_1
*CAP
1 SS4BEG[7] 0.000130322
2 *1116:X 0.000480234
3 *207:10 0.000610556
4 SS4BEG[7] SS4BEG[8] 0
5 *207:10 *210:9 0.000208825
6 SS4BEG[6] SS4BEG[7] 0
7 *66:9 *207:10 0.000208825
8 *195:10 *207:10 0.000711511
9 *202:10 *207:10 0.000605447
*RES
1 *1116:X *207:10 46.2006 
2 *207:10 SS4BEG[7] 21.03 
*END

*D_NET *208 0.00247119
*CONN
*P SS4BEG[8] O
*I *1117:X O *D sg13g2_buf_1
*CAP
1 SS4BEG[8] 0.000740528
2 *1117:X 0.000234608
3 *208:10 0.000975137
4 SS4BEG[8] SS4BEG[9] 0
5 SS4BEG[8] *1215:A 7.98567e-05
6 SS4BEG[8] *292:10 4.77425e-05
7 *208:10 *220:24 0
8 *208:10 *311:24 0.00039332
9 SS4BEG[6] SS4BEG[8] 0
10 SS4BEG[7] SS4BEG[8] 0
11 *136:15 SS4BEG[8] 0
*RES
1 *1117:X *208:10 42.5853 
2 *208:10 SS4BEG[8] 26.2727 
*END

*D_NET *209 0.00255107
*CONN
*P SS4BEG[9] O
*I *1118:X O *D sg13g2_buf_1
*CAP
1 SS4BEG[9] 0.000446986
2 *1118:X 0.000267618
3 *209:10 0.000714604
4 SS4BEG[9] *1193:A 8.00842e-05
5 *209:10 *214:20 0
6 SS4BEG[10] SS4BEG[9] 0
7 SS4BEG[14] *209:10 0.000143544
8 SS4BEG[15] *209:10 0.000143544
9 SS4BEG[8] SS4BEG[9] 0
10 *194:10 SS4BEG[9] 0.00011101
11 *197:10 *209:10 0.000233845
12 *204:10 SS4BEG[9] 4.77425e-05
13 *204:10 *209:10 7.51285e-05
14 *206:10 *209:10 0.000286965
*RES
1 *1118:X *209:10 43.296 
2 *209:10 SS4BEG[9] 24.1097 
*END

*D_NET *210 0.00984497
*CONN
*P UserCLK I
*I *1111:A I *D sg13g2_buf_1
*CAP
1 UserCLK 0.00272399
2 *1111:A 0
3 *210:9 0.00272399
4 *210:9 *247:8 0.000288917
5 *210:9 *253:8 0
6 *210:9 *275:10 0.00343532
7 *210:9 *313:26 8.01995e-05
8 SS4BEG[14] *210:9 0
9 SS4BEG[15] *210:9 0
10 *1094:A *210:9 0.000207845
11 *66:9 *210:9 0
12 *197:10 *210:9 0.000175886
13 *207:10 *210:9 0.000208825
*RES
1 UserCLK *210:9 48.4177 
2 *210:9 *1111:A 40 
*END

*D_NET *211 0.000607011
*CONN
*P UserCLKo O
*I *1119:X O *D sg13g2_buf_1
*CAP
1 UserCLKo 0.000303506
2 *1119:X 0.000303506
*RES
1 *1119:X UserCLKo 23.1106 
*END

*D_NET *214 0.0174003
*CONN
*I *1112:A I *D sg13g2_buf_1
*I *1007:X O *D sg13g2_buf_1
*CAP
1 *1112:A 0
2 *1007:X 2.63207e-05
3 *214:26 0.00146694
4 *214:20 0.00403771
5 *214:8 0.00259709
6 *214:20 *220:24 0.0010239
7 *214:20 *235:30 0
8 *214:20 *280:8 0
9 *214:20 *290:8 0.000817397
10 *214:20 *317:24 0
11 *214:20 *318:38 0.00129507
12 *214:20 *318:56 0.000446352
13 *214:26 *239:34 0.00274723
14 *214:26 *240:24 0
15 FrameData_O[2] *214:26 8.01116e-05
16 *69:11 *214:20 0
17 *74:11 *214:26 0.00119974
18 *131:17 *214:20 0
19 *180:8 *214:20 0.000817575
20 *191:10 *214:20 0.000816118
21 *200:8 *214:20 0
22 *206:10 *214:20 2.87256e-05
23 *209:10 *214:20 0
*RES
1 *1007:X *214:8 40.3193 
2 *214:8 *214:20 30.6837 
3 *214:20 *214:26 42.8248 
4 *214:26 *1112:A 20 
*END

*D_NET *215 0.0130179
*CONN
*I *1113:A I *D sg13g2_buf_1
*I *1025:X O *D sg13g2_buf_1
*CAP
1 *1113:A 0
2 *1025:X 0
3 *215:14 0.00324076
4 *215:10 0.00466101
5 *215:6 0.00142026
6 *215:10 *308:10 0
7 *215:14 *1206:A 0
8 *215:14 *222:8 0
9 *215:14 *308:10 0
10 FrameData_O[17] *215:14 0
11 FrameData_O[18] *215:14 0
12 *72:9 *215:14 0
13 *73:9 *215:14 0
14 *83:13 *215:10 0
15 *83:13 *215:14 0
16 *85:11 *215:10 0.00369591
17 *85:11 *215:14 0
18 *110:9 *215:10 0
19 *112:19 *215:10 0
20 *137:9 *215:10 0
*RES
1 *1025:X *215:6 40 
2 *215:6 *215:10 20.1674 
3 *215:10 *215:14 34.5359 
4 *215:14 *1113:A 40 
*END

*D_NET *216 0.0148393
*CONN
*I *1114:A I *D sg13g2_buf_1
*I *1100:X O *D sg13g2_buf_1
*CAP
1 *1114:A 0.000201522
2 *1100:X 0.000234993
3 *216:24 0.00123976
4 *216:20 0.00203958
5 *216:8 0.00123633
6 *216:8 *270:10 0
7 *216:20 *231:8 0
8 *216:20 *244:16 7.49043e-05
9 *216:20 *272:10 0
10 *216:20 *274:8 0.00029006
11 *216:24 *243:10 0
12 *216:24 *245:10 0.00358823
13 *1041:A *216:20 0
14 *3:17 *216:20 0
15 *32:5 *216:20 0.00114496
16 *130:9 *216:20 0.0026868
17 *132:21 *216:20 0
18 *134:21 *1114:A 0.000272718
19 *139:13 *216:24 0.00182946
*RES
1 *1100:X *216:8 42.0497 
2 *216:8 *216:20 35.347 
3 *216:20 *216:24 36.6654 
4 *216:24 *1114:A 41.8334 
*END

*D_NET *217 0.0118757
*CONN
*I *1115:A I *D sg13g2_buf_1
*I *1101:X O *D sg13g2_buf_1
*CAP
1 *1115:A 0
2 *1101:X 0
3 *217:22 0.000139979
4 *217:16 0.00297948
5 *217:10 0.0028395
6 *217:6 0
7 *217:16 *220:16 0
8 *217:16 *223:20 0
9 *217:16 *238:28 0.000381838
10 *217:16 *241:16 0
11 *217:16 *312:12 0.000877591
12 *217:16 *318:44 0.000611607
13 *77:15 *217:22 0
14 *114:19 *217:16 0
15 *114:25 *217:16 0.00267357
16 *116:23 *217:16 0.0013721
17 *126:15 *217:16 0
18 *126:23 *217:16 0
*RES
1 *1101:X *217:6 40 
2 *217:6 *217:10 40 
3 *217:10 *217:16 34.1445 
4 *217:16 *217:22 41.4008 
5 *217:22 *1115:A 40 
*END

*D_NET *218 0.0161148
*CONN
*I *1116:A I *D sg13g2_buf_1
*I *1102:X O *D sg13g2_buf_1
*CAP
1 *1116:A 8.35233e-05
2 *1102:X 0.000418718
3 *218:30 0.000789791
4 *218:26 0.00242611
5 *218:16 0.00210052
6 *218:10 0.000799401
7 *218:10 *269:10 0.00075653
8 *218:26 *318:18 0.0010256
9 *218:26 *318:30 0.00118699
10 *218:30 *307:38 0
11 *218:30 *316:28 0.00192899
12 S4BEG[11] *218:26 0.000240408
13 S4BEG[12] *218:26 0.000240569
14 *66:9 *1116:A 0.000144305
15 *77:15 *1116:A 0.000112155
16 *122:13 *218:10 0
17 *124:19 *218:16 0
18 *143:17 *218:10 0
19 *145:17 *218:10 0.000439262
20 *149:11 *218:10 7.52149e-05
21 *152:13 *218:10 0.000394566
22 *165:14 *218:26 0
23 *174:10 *218:26 0.000711511
24 *177:10 *218:26 0
25 *183:8 *218:30 0.00113452
26 *186:10 *218:26 0
27 *190:12 *218:26 0.00060678
28 *198:8 *218:30 0.000499383
*RES
1 *1102:X *218:10 45.7371 
2 *218:10 *218:16 43.1312 
3 *218:16 *218:26 41.6403 
4 *218:26 *218:30 30.9798 
5 *218:30 *1116:A 40.9682 
*END

*D_NET *219 0.014875
*CONN
*I *1117:A I *D sg13g2_buf_1
*I *1103:X O *D sg13g2_buf_1
*CAP
1 *1117:A 0
2 *1103:X 1.70972e-05
3 *219:28 0.000414385
4 *219:22 0.00254814
5 *219:14 0.00257961
6 *219:8 0.000462958
7 *219:14 *310:12 0.000207841
8 *219:14 *313:14 0
9 *219:22 *310:18 0.0015117
10 *219:22 *313:18 0.00486056
11 *219:28 *244:24 7.51285e-05
12 *219:28 *313:26 0
13 *28:11 *219:14 0
14 *32:13 *219:22 0.00152699
15 *149:11 *219:8 7.52149e-05
16 *152:13 *219:8 7.34081e-05
17 *203:8 *219:28 0.000287728
18 *205:10 *219:28 0.000234224
*RES
1 *1103:X *219:8 40.3502 
2 *219:8 *219:14 43.9964 
3 *219:14 *219:22 49.6949 
4 *219:22 *219:28 44.3054 
5 *219:28 *1117:A 20 
*END

*D_NET *220 0.0107755
*CONN
*I *1118:A I *D sg13g2_buf_1
*I *1104:X O *D sg13g2_buf_1
*CAP
1 *1118:A 0
2 *1104:X 0
3 *220:24 0.000572663
4 *220:16 0.00318379
5 *220:10 0.00261113
6 *220:6 0
7 *220:16 *318:44 0
8 *220:24 *306:12 0.000499936
9 *220:24 *311:24 0
10 *220:24 *317:24 0
11 *114:19 *220:16 0
12 *114:25 *220:16 0
13 *134:21 *220:24 0.000181695
14 *141:19 *220:16 0.00228726
15 *180:8 *220:24 0.000340043
16 *200:8 *220:24 7.51285e-05
17 *208:10 *220:24 0
18 *214:20 *220:24 0.0010239
19 *217:16 *220:16 0
*RES
1 *1104:X *220:6 40 
2 *220:6 *220:10 40 
3 *220:10 *220:16 47.1199 
4 *220:16 *220:24 48.3327 
5 *220:24 *1118:A 20 
*END

*D_NET *221 0.024585
*CONN
*I *1119:A I *D sg13g2_buf_1
*I *1111:X O *D sg13g2_buf_1
*CAP
1 *1119:A 0.000331831
2 *1111:X 0.000965714
3 *221:10 0.00325988
4 *221:8 0.00389377
5 *221:8 *247:12 0
6 *221:8 *259:8 0
7 *221:10 *225:12 0
8 *221:10 *229:8 0
9 *221:10 *261:16 0.00558015
10 *1039:A *221:8 0
11 *18:9 *221:10 0.0105536
12 *19:5 *221:10 0
*RES
1 *1111:X *221:8 48.755 
2 *221:8 *221:10 53.7454 
3 *221:10 *1119:A 43.3475 
*END

*D_NET *222 0.0161984
*CONN
*I *1120:A I *D sg13g2_buf_1
*I *1026:X O *D sg13g2_buf_1
*CAP
1 *1120:A 0.000192309
2 *1026:X 0
3 *222:8 0.00495818
4 *222:6 0.00476587
5 *1120:A *1122:A 0
6 *222:8 *1206:A 0
7 *222:8 *224:8 0
8 *222:8 *308:10 0
9 FrameData_O[19] *1120:A 0
10 FrameData_O[20] *1120:A 0
11 FrameData_O[20] *222:8 0
12 FrameData_O[21] *1120:A 0
13 *136:9 *222:8 0.00359469
14 *137:9 *222:8 0.00268734
15 *215:14 *222:8 0
*RES
1 *1026:X *222:6 40 
2 *222:6 *222:8 52.7566 
3 *222:8 *1120:A 41.6171 
*END

*D_NET *223 0.0168117
*CONN
*I *1121:A I *D sg13g2_buf_1
*I *1008:X O *D sg13g2_buf_1
*CAP
1 *1121:A 0
2 *1008:X 0.000495025
3 *223:24 0
4 *223:20 0.00368847
5 *223:14 0.00368847
6 *223:10 0.000495025
7 *223:10 *1171:A 0
8 *223:10 *235:12 0.000287256
9 *223:10 *238:8 0
10 *223:10 *285:12 0.000235305
11 *223:10 *316:28 0.00134955
12 *223:20 *238:28 0.00508959
13 *223:20 *312:20 0
14 S2BEG[6] *223:10 1.54008e-05
15 *24:37 *223:10 0
16 *126:23 *223:20 0.00146758
17 *217:16 *223:20 0
*RES
1 *1008:X *223:10 46.8186 
2 *223:10 *223:14 40 
3 *223:14 *223:20 44.5269 
4 *223:20 *223:24 40 
5 *223:24 *1121:A 40 
*END

*D_NET *224 0.00992551
*CONN
*I *1122:A I *D sg13g2_buf_1
*I *1027:X O *D sg13g2_buf_1
*CAP
1 *1122:A 6.96935e-05
2 *1027:X 0
3 *224:8 0.00451455
4 *224:6 0.00444486
5 *1122:A *257:12 0
6 *224:8 *228:12 0
7 *224:8 *258:12 0
8 *224:8 *259:10 0.000661057
9 *224:8 *260:16 0.000235345
10 *1120:A *1122:A 0
11 *136:9 *224:8 0
12 *222:8 *224:8 0
*RES
1 *1027:X *224:6 40 
2 *224:6 *224:8 52.2622 
3 *224:8 *1122:A 40.7519 
*END

*D_NET *225 0.0182088
*CONN
*I *1123:A I *D sg13g2_buf_1
*I *1028:X O *D sg13g2_buf_1
*CAP
1 *1123:A 0
2 *1028:X 0.000151582
3 *225:12 0.00334862
4 *225:10 0.0035002
5 *225:10 *226:8 0
6 *225:10 *228:10 0
7 *225:12 *226:10 0.0109731
8 *225:12 *227:8 0
9 *225:12 *229:8 0
10 FrameData_O[22] *225:12 0
11 FrameData_O[24] *225:12 0
12 *1026:A *225:10 0
13 *20:13 *225:12 0.000235228
14 *221:10 *225:12 0
*RES
1 *1028:X *225:10 41.5038 
2 *225:10 *225:12 54.2398 
3 *225:12 *1123:A 40 
*END

*D_NET *226 0.0263653
*CONN
*I *1124:A I *D sg13g2_buf_1
*I *1029:X O *D sg13g2_buf_1
*CAP
1 *1124:A 5.80551e-05
2 *1029:X 0.000110509
3 *226:10 0.00198682
4 *226:8 0.00203928
5 *1124:A *1126:A 4.77425e-05
6 *226:8 *228:10 0
7 *226:8 *261:10 0.000176511
8 *226:10 *227:8 0.0109732
9 *1026:A *226:8 0
10 *225:10 *226:8 0
11 *225:12 *226:10 0.0109731
*RES
1 *1029:X *226:8 41.1845 
2 *226:8 *226:10 50.779 
3 *226:10 *1124:A 40.6695 
*END

*D_NET *227 0.0276023
*CONN
*I *1125:A I *D sg13g2_buf_1
*I *1030:X O *D sg13g2_buf_1
*CAP
1 *1125:A 0.000332939
2 *1030:X 0
3 *227:8 0.00258505
4 *227:6 0.00225211
5 *1125:A *1126:A 0
6 *1125:A *1127:A 0.000112656
7 *227:8 *228:12 0.0113309
8 FrameData_O[22] *1125:A 1.54008e-05
9 FrameData_O[22] *227:8 0
10 FrameData_O[23] *1125:A 0
11 FrameData_O[24] *1125:A 0
12 FrameData_O[25] *1125:A 0
13 *1026:A *227:8 0
14 *225:12 *227:8 0
15 *226:10 *227:8 0.0109732
*RES
1 *1030:X *227:6 40 
2 *227:6 *227:8 53.7454 
3 *227:8 *1125:A 43.1518 
*END

*D_NET *228 0.018481
*CONN
*I *1126:A I *D sg13g2_buf_1
*I *1031:X O *D sg13g2_buf_1
*CAP
1 *1126:A 0.000328812
2 *1031:X 6.7827e-05
3 *228:12 0.00337611
4 *228:10 0.00311513
5 *1126:A *1127:A 0
6 *1126:A *1128:A 0
7 *1126:A *257:12 0
8 *228:12 *259:10 0
9 FrameData_O[22] *1126:A 4.75166e-05
10 FrameData_O[24] *1126:A 0.000144842
11 *1026:A *228:10 2.20736e-05
12 *1124:A *1126:A 4.77425e-05
13 *1125:A *1126:A 0
14 *224:8 *228:12 0
15 *225:10 *228:10 0
16 *226:8 *228:10 0
17 *227:8 *228:12 0.0113309
*RES
1 *1031:X *228:10 40.6695 
2 *228:10 *228:12 52.015 
3 *228:12 *1126:A 43.2651 
*END

*D_NET *229 0.0184056
*CONN
*I *1127:A I *D sg13g2_buf_1
*I *1032:X O *D sg13g2_buf_1
*CAP
1 *1127:A 0.000262077
2 *1032:X 0
3 *229:8 0.00350985
4 *229:6 0.00324777
5 *1127:A *1128:A 0
6 *229:8 *230:12 0.0110814
7 *229:8 *233:10 0
8 *229:8 *261:16 0
9 FrameData_O[24] *1127:A 1.54008e-05
10 FrameData_O[25] *1127:A 0
11 FrameData_O[26] *1127:A 0.000176511
12 FrameData_O[27] *229:8 0
13 *1125:A *1127:A 0.000112656
14 *1126:A *1127:A 0
15 *221:10 *229:8 0
16 *225:12 *229:8 0
*RES
1 *1032:X *229:6 40 
2 *229:6 *229:8 53.4982 
3 *229:8 *1127:A 42.7357 
*END

*D_NET *230 0.0266225
*CONN
*I *1128:A I *D sg13g2_buf_1
*I *1033:X O *D sg13g2_buf_1
*CAP
1 *1128:A 0.000279968
2 *1033:X 6.94927e-05
3 *230:12 0.00224058
4 *230:10 0.0020301
5 *230:10 *1165:A 0
6 *230:12 *233:10 0.010921
7 FrameData_O[26] *1128:A 0
8 FrameData_O[27] *230:12 0
9 FrameData_O[28] *1128:A 0
10 FrameData_O[30] *1128:A 0
11 *1126:A *1128:A 0
12 *1127:A *1128:A 0
13 *229:8 *230:12 0.0110814
*RES
1 *1033:X *230:10 40.6695 
2 *230:10 *230:12 51.2734 
3 *230:12 *1128:A 42.6162 
*END

*D_NET *231 0.0223472
*CONN
*I *1129:A I *D sg13g2_buf_1
*I *1017:X O *D sg13g2_buf_1
*CAP
1 *1129:A 5.59067e-05
2 *1017:X 0.000227825
3 *231:10 0.00309539
4 *231:8 0.00326731
5 *231:10 *1143:A 0
6 *231:10 *242:14 0
7 *231:10 *244:24 0
8 *231:10 *245:10 0.0112303
9 *231:10 *255:10 0
10 *231:10 *257:12 0.00258689
11 FrameData_O[10] *1129:A 0
12 FrameData_O[11] *231:10 0
13 *3:17 *231:8 0
14 *67:9 *231:10 0
15 *128:13 *231:10 0.00188358
16 *216:20 *231:8 0
*RES
1 *1017:X *231:8 41.8334 
2 *231:8 *231:10 53.4982 
3 *231:10 *1129:A 40.5356 
*END

*D_NET *232 0.0219679
*CONN
*I *1130:A I *D sg13g2_buf_1
*I *1034:X O *D sg13g2_buf_1
*CAP
1 *1130:A 5.41173e-05
2 *1034:X 0
3 *232:8 0.00356163
4 *232:6 0.00350752
5 *232:8 *233:10 0
6 *232:8 *234:10 0.0109032
7 *232:8 *236:10 0
8 *232:8 *237:12 0.00386128
9 FrameData_O[28] *1130:A 8.02269e-05
10 FrameData_O[29] *232:8 0
11 FrameData_O[30] *1130:A 0
12 *22:9 *232:8 0
*RES
1 *1034:X *232:6 40 
2 *232:6 *232:8 52.7566 
3 *232:8 *1130:A 40.5356 
*END

*D_NET *233 0.0263849
*CONN
*I *1131:A I *D sg13g2_buf_1
*I *1035:X O *D sg13g2_buf_1
*CAP
1 *1131:A 2.41961e-05
2 *1035:X 0.000178912
3 *233:10 0.00206643
4 *233:8 0.00222115
5 *233:8 *1165:A 0
6 *233:8 *236:8 0
7 *233:10 *236:10 0.0109732
8 *1032:A *233:8 0
9 *229:8 *233:10 0
10 *230:12 *233:10 0.010921
11 *232:8 *233:10 0
*RES
1 *1035:X *233:8 41.6171 
2 *233:8 *233:10 51.7678 
3 *233:10 *1131:A 40.3193 
*END

*D_NET *234 0.0176934
*CONN
*I *1132:A I *D sg13g2_buf_1
*I *1036:X O *D sg13g2_buf_1
*CAP
1 *1132:A 7.58792e-05
2 *1036:X 2.44042e-05
3 *234:10 0.0033707
4 *234:8 0.00331922
5 *1132:A *257:12 0
6 *234:10 *1154:A 0
7 *234:10 *236:10 0
8 *19:5 *234:10 0
9 *21:9 *234:10 0
10 *232:8 *234:10 0.0109032
*RES
1 *1036:X *234:8 40.3193 
2 *234:8 *234:10 52.015 
3 *234:10 *1132:A 40.7519 
*END

*D_NET *235 0.0161993
*CONN
*I *1133:A I *D sg13g2_buf_1
*I *1009:X O *D sg13g2_buf_1
*CAP
1 *1133:A 0.000137749
2 *1009:X 0.000162621
3 *235:30 0.00423387
4 *235:20 0.00447392
5 *235:12 0.00054042
6 *235:12 *238:8 0.000234329
7 *235:20 *241:12 0.000174614
8 *235:30 *240:8 0
9 *235:30 *244:24 0
10 *235:30 *304:12 0.000446352
11 *235:30 *310:30 0.000707667
12 *235:30 *311:24 0.00350382
13 *27:21 *235:20 0
14 *70:9 *235:30 0
15 *114:25 *235:20 0.000207035
16 *115:21 *235:20 1.4965e-05
17 *131:17 *235:12 0.000178206
18 *132:21 *235:30 0.000502224
19 *140:21 *235:30 0
20 *182:10 *235:30 0
21 *184:10 *235:30 0
22 *200:8 *235:30 0
23 *201:10 *235:30 0.000394248
24 *214:20 *235:30 0
25 *223:10 *235:12 0.000287256
*RES
1 *1009:X *235:12 42.5029 
2 *235:12 *235:20 43.4814 
3 *235:20 *235:30 48.9044 
4 *235:30 *1133:A 41.4008 
*END

*D_NET *236 0.0189241
*CONN
*I *1134:A I *D sg13g2_buf_1
*I *1037:X O *D sg13g2_buf_1
*CAP
1 *1134:A 0
2 *1037:X 0.000150008
3 *236:10 0.00314689
4 *236:8 0.0032969
5 *236:10 *1154:A 0.00135711
6 *236:10 *261:16 0
7 *19:5 *236:10 0
8 *232:8 *236:10 0
9 *233:8 *236:8 0
10 *233:10 *236:10 0.0109732
11 *234:10 *236:10 0
*RES
1 *1037:X *236:8 41.4008 
2 *236:8 *236:10 52.7566 
3 *236:10 *1134:A 40 
*END

*D_NET *237 0.0118034
*CONN
*I *1135:A I *D sg13g2_buf_1
*I *1038:X O *D sg13g2_buf_1
*CAP
1 *1135:A 0
2 *1038:X 0
3 *237:12 0.00397104
4 *237:6 0.00397104
5 *232:8 *237:12 0.00386128
*RES
1 *1038:X *237:6 40 
2 *237:6 *237:12 46.5045 
3 *237:12 *1135:A 40 
*END

*D_NET *238 0.0154889
*CONN
*I *1136:A I *D sg13g2_buf_1
*I *1010:X O *D sg13g2_buf_1
*CAP
1 *1136:A 0
2 *1010:X 0.000287271
3 *238:32 0
4 *238:28 0.00393278
5 *238:18 0.00402611
6 *238:8 0.000380606
7 *238:8 *285:12 0.00023373
8 *238:28 *241:16 0
9 *238:28 *241:20 0
10 *131:17 *238:8 0.00092268
11 *217:16 *238:28 0.000381838
12 *223:10 *238:8 0
13 *223:20 *238:28 0.00508959
14 *235:12 *238:8 0.000234329
*RES
1 *1010:X *238:8 44.3054 
2 *238:8 *238:18 41.0197 
3 *238:18 *238:28 46.4324 
4 *238:28 *238:32 40 
5 *238:32 *1136:A 40 
*END

*D_NET *239 0.0126144
*CONN
*I *1137:A I *D sg13g2_buf_1
*I *1011:X O *D sg13g2_buf_1
*CAP
1 *1137:A 0
2 *1011:X 0
3 *239:34 0.00108077
4 *239:28 0.00138492
5 *239:22 0.00363902
6 *239:16 0.00344389
7 *239:6 0.000109016
8 *239:16 *310:18 4.45217e-05
9 *239:22 *241:16 0
10 *239:22 *241:20 0
11 *239:22 *310:18 5.40758e-05
12 *239:34 *240:24 0
13 FrameData_O[3] *239:34 0
14 FrameData_O[5] *239:34 0
15 *27:21 *239:16 0.000110966
16 *113:19 *239:16 0
17 *113:19 *239:22 0
18 *214:26 *239:34 0.00274723
*RES
1 *1011:X *239:6 40 
2 *239:6 *239:16 41.2772 
3 *239:16 *239:22 37.2551 
4 *239:22 *239:28 43.3475 
5 *239:28 *239:34 35.0071 
6 *239:34 *1137:A 20 
*END

*D_NET *240 0.0150029
*CONN
*I *1138:A I *D sg13g2_buf_1
*I *1012:X O *D sg13g2_buf_1
*CAP
1 *1138:A 0.00026944
2 *1012:X 0.0002555
3 *240:24 0.00399601
4 *240:18 0.00433149
5 *240:8 0.000860429
6 *240:8 *244:16 0.000976944
7 *240:18 *299:18 0.000285371
8 *240:18 *316:28 0
9 *240:18 *318:38 4.6693e-05
10 *240:24 *296:10 0
11 *240:24 *299:18 0
12 *240:24 *303:10 0
13 *240:24 *305:16 0.000393736
14 *240:24 *307:38 0.00192808
15 *240:24 *316:28 2.21831e-05
16 *240:24 *318:56 0
17 FrameData_O[1] *240:24 0
18 FrameData_O[2] *1138:A 0
19 FrameData_O[2] *240:24 0
20 FrameData_O[3] *1138:A 0
21 FrameData_O[4] *1138:A 0
22 *69:11 *240:24 0
23 *74:11 *240:24 0
24 *131:23 *240:18 0
25 *132:21 *240:8 0
26 *140:21 *240:8 0.000444233
27 *187:10 *240:18 0.000233843
28 *191:16 *240:18 0.000140972
29 *197:10 *240:24 0
30 *198:8 *240:24 0.00081799
31 *204:10 *240:24 0
32 *214:26 *240:24 0
33 *235:30 *240:8 0
34 *239:34 *240:24 0
*RES
1 *1012:X *240:8 44.5526 
2 *240:8 *240:18 45.871 
3 *240:18 *240:24 42.7965 
4 *240:24 *1138:A 42.6162 
*END

*D_NET *241 0.010164
*CONN
*I *1139:A I *D sg13g2_buf_1
*I *1013:X O *D sg13g2_buf_1
*CAP
1 *1139:A 0
2 *1013:X 0
3 *241:24 0
4 *241:20 0.00188824
5 *241:16 0.00382169
6 *241:12 0.00218617
7 *241:6 0.000252709
8 *27:21 *241:12 0
9 *113:19 *241:16 0
10 *141:19 *241:16 0.0018406
11 *217:16 *241:16 0
12 *235:20 *241:12 0.000174614
13 *238:28 *241:16 0
14 *238:28 *241:20 0
15 *239:22 *241:16 0
16 *239:22 *241:20 0
*RES
1 *1013:X *241:6 40 
2 *241:6 *241:12 42.266 
3 *241:12 *241:16 26.4401 
4 *241:16 *241:20 44.2668 
5 *241:20 *241:24 40 
6 *241:24 *1139:A 20 
*END

*D_NET *242 0.0145845
*CONN
*I *1140:A I *D sg13g2_buf_1
*I *1018:X O *D sg13g2_buf_1
*CAP
1 *1140:A 0
2 *1018:X 0.000202386
3 *242:14 0.00279173
4 *242:12 0.00448059
5 *242:8 0.00189125
6 *242:12 *309:14 0.00428006
7 *242:14 *255:10 0
8 *242:14 *257:12 0
9 *242:14 *264:10 0
10 *242:14 *309:14 0
11 *3:17 *242:8 0.000111685
12 *5:5 *242:12 0
13 *79:13 *242:12 0
14 *79:13 *242:14 0.000826832
15 *82:9 *242:12 0
16 *231:10 *242:14 0
*RES
1 *1018:X *242:8 41.8334 
2 *242:8 *242:12 20.1674 
3 *242:12 *242:14 33.0115 
4 *242:14 *1140:A 40 
*END

*D_NET *243 0.0141017
*CONN
*I *1141:A I *D sg13g2_buf_1
*I *1014:X O *D sg13g2_buf_1
*CAP
1 *1141:A 0.000126569
2 *1014:X 0
3 *243:12 0.00320455
4 *243:10 0.00443421
5 *243:6 0.00135623
6 *243:10 *245:10 0
7 *243:10 *296:18 0
8 *243:10 *315:18 0.00306994
9 *243:12 *1143:A 0
10 *243:12 *244:24 0
11 *243:12 *245:10 0
12 *243:12 *296:18 8.2066e-05
13 *243:12 *313:26 0
14 *75:13 *243:12 0
15 *76:13 *243:12 0
16 *139:13 *243:10 0.00182817
17 *216:24 *243:10 0
*RES
1 *1014:X *243:6 40 
2 *243:6 *243:10 18.437 
3 *243:10 *243:12 33.0115 
4 *243:12 *1141:A 41.1845 
*END

*D_NET *244 0.0154503
*CONN
*I *1142:A I *D sg13g2_buf_1
*I *1015:X O *D sg13g2_buf_1
*CAP
1 *1142:A 0
2 *1015:X 0
3 *244:24 0.00324643
4 *244:18 0.00324643
5 *244:16 0.00129155
6 *244:6 0.00129155
7 *244:16 *296:18 0.000819651
8 *244:16 *301:8 0.000395066
9 *244:16 *305:8 0.000181695
10 *244:16 *313:26 0.00124557
11 *244:16 *315:18 0
12 *244:24 *310:30 0.000134343
13 *244:24 *313:26 0
14 FrameData_O[7] *244:24 0
15 FrameData_O[9] *244:24 0
16 *70:9 *244:24 0.000872267
17 *75:13 *244:24 0
18 *130:9 *244:16 0.00145419
19 *132:21 *244:16 0
20 *133:25 *244:16 0.000144568
21 *139:21 *244:16 0
22 *140:21 *244:16 0
23 *216:20 *244:16 7.49043e-05
24 *219:28 *244:24 7.51285e-05
25 *231:10 *244:24 0
26 *235:30 *244:24 0
27 *240:8 *244:16 0.000976944
28 *243:12 *244:24 0
*RES
1 *1015:X *244:6 40 
2 *244:6 *244:16 39.2919 
3 *244:16 *244:18 20 
4 *244:18 *244:24 35.1333 
5 *244:24 *1142:A 40 
*END

*D_NET *245 0.0226697
*CONN
*I *1143:A I *D sg13g2_buf_1
*I *1016:X O *D sg13g2_buf_1
*CAP
1 *1143:A 8.58914e-05
2 *1016:X 5.08741e-05
3 *245:10 0.00318086
4 *245:8 0.00314584
5 *1007:A *245:8 8.00842e-05
6 *76:13 *245:10 0.00130755
7 *128:13 *245:10 0
8 *139:13 *245:10 0
9 *216:24 *245:10 0.00358823
10 *231:10 *1143:A 0
11 *231:10 *245:10 0.0112303
12 *243:10 *245:10 0
13 *243:12 *1143:A 0
14 *243:12 *245:10 0
*RES
1 *1016:X *245:8 40.5356 
2 *245:8 *245:10 53.2819 
3 *245:10 *1143:A 40.8858 
*END

*D_NET *246 0.0105758
*CONN
*I *1144:A I *D sg13g2_buf_1
*I *1039:X O *D sg13g2_buf_1
*CAP
1 *1144:A 0
2 *1039:X 0
3 *246:22 0.000685892
4 *246:14 0.00455583
5 *246:12 0.00443005
6 *246:6 0.000560108
7 *16:13 *246:14 0
8 *21:7 *246:22 0
9 *22:7 *246:22 0.000343884
*RES
1 *1039:X *246:6 40 
2 *246:6 *246:12 45.7268 
3 *246:12 *246:14 46.3294 
4 *246:14 *246:22 47.9619 
5 *246:22 *1144:A 40 
*END

*D_NET *247 0.00330517
*CONN
*I *1145:A I *D sg13g2_buf_1
*I *1049:X O *D sg13g2_buf_1
*CAP
1 *1145:A 0
2 *1049:X 5.10283e-05
3 *247:12 0.00131239
4 *247:8 0.00136342
5 *247:8 *253:8 0.000289417
6 *210:9 *247:8 0.000288917
7 *221:8 *247:12 0
*RES
1 *1049:X *247:8 41.339 
2 *247:8 *247:12 31.9995 
3 *247:12 *1145:A 20 
*END

*D_NET *248 0.00412798
*CONN
*I *1146:A I *D sg13g2_buf_1
*I *1050:X O *D sg13g2_buf_1
*CAP
1 *1146:A 0
2 *1050:X 0.000496691
3 *248:14 0.00120942
4 *248:10 0.00170612
5 *248:10 *275:10 0.000715748
6 *248:10 *314:18 0
7 *137:13 *248:14 0
*RES
1 *1050:X *248:10 45.15 
2 *248:10 *248:14 31.3506 
3 *248:14 *1146:A 20 
*END

*D_NET *249 0.0047242
*CONN
*I *1147:A I *D sg13g2_buf_1
*I *1051:X O *D sg13g2_buf_1
*CAP
1 *1147:A 0
2 *1051:X 0.000742242
3 *249:14 0.00118598
4 *249:10 0.00192823
5 *249:10 *275:10 0
6 *249:10 *314:18 0.00086775
7 *1051:A *249:10 0
8 *136:15 *249:14 0
9 *137:13 *249:14 0
*RES
1 *1051:X *249:10 47.2512 
2 *249:10 *249:14 31.1343 
3 *249:14 *1147:A 20 
*END

*D_NET *250 0.00447062
*CONN
*I *1148:A I *D sg13g2_buf_1
*I *1052:X O *D sg13g2_buf_1
*CAP
1 *1148:A 0
2 *1052:X 0.000330661
3 *250:14 0.0010724
4 *250:10 0.00140306
5 *77:25 *250:10 0.000453045
6 *80:15 *250:10 0.000937042
7 *81:19 *250:10 0.000274413
*RES
1 *1052:X *250:10 45.15 
2 *250:10 *250:14 30.2691 
3 *250:14 *1148:A 20 
*END

*D_NET *251 0.00394994
*CONN
*I *1149:A I *D sg13g2_buf_1
*I *1053:X O *D sg13g2_buf_1
*CAP
1 *1149:A 0
2 *1053:X 0.000327895
3 *251:14 0.00113344
4 *251:10 0.00146133
5 *251:10 *275:10 0.000447597
6 *72:9 *251:10 0
7 *83:7 *251:14 0.000306067
8 *84:7 *251:14 0.00027361
9 *85:7 *251:10 0
10 *85:7 *251:14 0
*RES
1 *1053:X *251:10 43.914 
2 *251:10 *251:14 31.3506 
3 *251:14 *1149:A 20 
*END

*D_NET *252 0.00199848
*CONN
*I *1150:A I *D sg13g2_buf_1
*I *1054:X O *D sg13g2_buf_1
*CAP
1 *1150:A 0.000999241
2 *1054:X 0.000999241
3 *73:9 *1150:A 0
*RES
1 *1054:X *1150:A 49.6408 
*END

*D_NET *253 0.0197085
*CONN
*I *1151:A I *D sg13g2_buf_1
*I *1019:X O *D sg13g2_buf_1
*CAP
1 *1151:A 0.000152789
2 *1019:X 0
3 *253:8 0.00408311
4 *253:6 0.00393032
5 *253:8 *1173:A 0
6 *253:8 *264:10 0.0112528
7 *253:8 *275:10 0
8 FrameData_O[13] *1151:A 0
9 *210:9 *253:8 0
10 *247:8 *253:8 0.000289417
*RES
1 *1019:X *253:6 40 
2 *253:6 *253:8 52.7566 
3 *253:8 *1151:A 41.5038 
*END

*D_NET *254 0.00190746
*CONN
*I *1152:A I *D sg13g2_buf_1
*I *1055:X O *D sg13g2_buf_1
*CAP
1 *1152:A 0.000953731
2 *1055:X 0.000953731
*RES
1 *1055:X *1152:A 49.5687 
*END

*D_NET *255 0.00395563
*CONN
*I *1153:A I *D sg13g2_buf_1
*I *1056:X O *D sg13g2_buf_1
*CAP
1 *1153:A 0
2 *1056:X 0.000500327
3 *255:14 0.00147749
4 *255:10 0.00197782
5 *255:10 *257:12 0
6 *255:14 *256:8 0
7 *1057:A *255:10 0
8 *1057:A *255:14 0
9 *231:10 *255:10 0
10 *242:14 *255:10 0
*RES
1 *1056:X *255:10 44.841 
2 *255:10 *255:14 34.5951 
3 *255:14 *1153:A 20 
*END

*D_NET *256 0.00409128
*CONN
*I *1154:A I *D sg13g2_buf_1
*I *1057:X O *D sg13g2_buf_1
*CAP
1 *1154:A 0.000585165
2 *1057:X 0.000781921
3 *256:8 0.00136709
4 *234:10 *1154:A 0
5 *236:10 *1154:A 0.00135711
6 *255:14 *256:8 0
*RES
1 *1057:X *256:8 47.6735 
2 *256:8 *1154:A 47.9001 
*END

*D_NET *257 0.0070662
*CONN
*I *1155:A I *D sg13g2_buf_1
*I *1058:X O *D sg13g2_buf_1
*CAP
1 *1155:A 0
2 *1058:X 0
3 *257:12 0.00223966
4 *257:6 0.00223966
5 *257:12 *1162:A 0
6 FrameData_O[30] *257:12 0
7 *1122:A *257:12 0
8 *1126:A *257:12 0
9 *1132:A *257:12 0
10 *231:10 *257:12 0.00258689
11 *242:14 *257:12 0
12 *255:10 *257:12 0
*RES
1 *1058:X *257:6 40 
2 *257:6 *257:12 46.9963 
3 *257:12 *1155:A 20 
*END

*D_NET *258 0.0170003
*CONN
*I *1156:A I *D sg13g2_buf_1
*I *1040:X O *D sg13g2_buf_1
*CAP
1 *1156:A 0.000691036
2 *1040:X 0.000641667
3 *258:14 0.00368861
4 *258:12 0.00363924
5 *258:12 *259:8 0.000369076
6 *258:12 *260:16 0.000988935
7 *258:12 *261:10 0
8 *258:14 *260:16 0.00552028
9 *14:9 *258:14 0
10 *15:9 *258:14 0
11 *136:9 *258:12 0.0014615
12 *136:9 *258:14 0
13 *224:8 *258:12 0
*RES
1 *1040:X *258:12 49.579 
2 *258:12 *258:14 35.2054 
3 *258:14 *1156:A 46.592 
*END

*D_NET *259 0.0166973
*CONN
*I *1157:A I *D sg13g2_buf_1
*I *1041:X O *D sg13g2_buf_1
*CAP
1 *1157:A 0.000626369
2 *1041:X 0.000963509
3 *259:10 0.00400691
4 *259:8 0.00434405
5 *259:8 *260:10 0
6 *259:10 *260:16 0.00558155
7 *1026:A *259:10 0
8 *1039:A *259:8 0
9 *1040:A *259:8 0.00014476
10 *15:9 *259:10 0
11 *221:8 *259:8 0
12 *224:8 *259:10 0.000661057
13 *228:12 *259:10 0
14 *258:12 *259:8 0.000369076
*RES
1 *1041:X *259:8 48.9713 
2 *259:8 *259:10 37.183 
3 *259:10 *1157:A 46.1594 
*END

*D_NET *260 0.0181902
*CONN
*I *1158:A I *D sg13g2_buf_1
*I *1042:X O *D sg13g2_buf_1
*CAP
1 *1158:A 0.000649809
2 *1042:X 0.000804354
3 *260:16 0.00200743
4 *260:10 0.00216197
5 *260:10 *261:10 0
6 *260:10 *308:8 0.000240569
7 *1019:A *260:10 0
8 *1023:A *260:10 0
9 *80:21 *260:10 0
10 *224:8 *260:16 0.000235345
11 *258:12 *260:16 0.000988935
12 *258:14 *260:16 0.00552028
13 *259:8 *260:10 0
14 *259:10 *260:16 0.00558155
*RES
1 *1042:X *260:10 45.9926 
2 *260:10 *260:16 30.6837 
3 *260:16 *1158:A 46.3757 
*END

*D_NET *261 0.0118999
*CONN
*I *1159:A I *D sg13g2_buf_1
*I *1043:X O *D sg13g2_buf_1
*CAP
1 *1159:A 0
2 *1043:X 0.000662362
3 *261:16 0.0020952
4 *261:10 0.00275756
5 *261:10 *1165:A 0.000628084
6 *1026:A *261:10 0
7 *19:5 *261:16 0
8 *221:10 *261:16 0.00558015
9 *226:8 *261:10 0.000176511
10 *229:8 *261:16 0
11 *236:10 *261:16 0
12 *258:12 *261:10 0
13 *260:10 *261:10 0
*RES
1 *1043:X *261:10 46.5096 
2 *261:10 *261:16 48.943 
3 *261:16 *1159:A 20 
*END

*D_NET *262 0.00812891
*CONN
*I *1160:A I *D sg13g2_buf_1
*I *1044:X O *D sg13g2_buf_1
*CAP
1 *1160:A 0
2 *1044:X 0
3 *262:12 0.00210477
4 *262:6 0.00210477
5 *8:9 *262:12 0.00341992
6 *10:5 *262:12 0
7 *83:13 *262:12 0
8 *84:21 *262:12 0
9 *136:7 *262:12 0.000499448
*RES
1 *1044:X *262:6 40 
2 *262:6 *262:12 45.9457 
3 *262:12 *1160:A 20 
*END

*D_NET *263 0.00415929
*CONN
*I *1161:A I *D sg13g2_buf_1
*I *1045:X O *D sg13g2_buf_1
*CAP
1 *1161:A 0
2 *1045:X 9.69981e-05
3 *263:12 0.00142616
4 *263:8 0.00152316
5 *263:8 *309:14 0.000556738
6 *6:5 *263:8 0.000556238
*RES
1 *1045:X *263:8 42.575 
2 *263:8 *263:12 33.081 
3 *263:12 *1161:A 20 
*END

*D_NET *264 0.0213255
*CONN
*I *1162:A I *D sg13g2_buf_1
*I *1020:X O *D sg13g2_buf_1
*CAP
1 *1162:A 8.32763e-05
2 *1020:X 2.4294e-05
3 *264:10 0.00311339
4 *264:8 0.0030544
5 *264:10 *275:10 0
6 *66:9 *264:10 0.00378169
7 *111:13 *264:8 1.5595e-05
8 *111:13 *264:10 0
9 *242:14 *264:10 0
10 *253:8 *264:10 0.0112528
11 *257:12 *1162:A 0
*RES
1 *1020:X *264:8 40.3193 
2 *264:8 *264:10 52.7566 
3 *264:10 *1162:A 40.7519 
*END

*D_NET *265 0.00278513
*CONN
*I *1163:A I *D sg13g2_buf_1
*I *1046:X O *D sg13g2_buf_1
*CAP
1 *1163:A 0.000434521
2 *1046:X 0.00060712
3 *265:10 0.00104164
4 *12:13 *265:10 0.000466959
5 *17:9 *265:10 0.000234891
*RES
1 *1046:X *265:10 46.1697 
2 *265:10 *1163:A 44.2127 
*END

*D_NET *266 0.00225651
*CONN
*I *1164:A I *D sg13g2_buf_1
*I *1047:X O *D sg13g2_buf_1
*CAP
1 *1164:A 0
2 *1047:X 0.00112825
3 *266:10 0.00112825
*RES
1 *1047:X *266:10 30.6296 
2 *266:10 *1164:A 20 
*END

*D_NET *267 0.0023246
*CONN
*I *1165:A I *D sg13g2_buf_1
*I *1048:X O *D sg13g2_buf_1
*CAP
1 *1165:A 0.000840528
2 *1048:X 0.000840528
3 *1033:A *1165:A 0
4 *1038:A *1165:A 1.54556e-05
5 *230:10 *1165:A 0
6 *233:8 *1165:A 0
7 *261:10 *1165:A 0.000628084
*RES
1 *1048:X *1165:A 48.7859 
*END

*D_NET *268 0.00176625
*CONN
*I *1166:A I *D sg13g2_buf_1
*I *1059:X O *D sg13g2_buf_1
*CAP
1 *1166:A 3.01005e-05
2 *1059:X 0.000220385
3 *268:8 0.000250486
4 *268:8 *317:24 0
5 *117:9 *268:8 0
6 *131:17 *268:8 0.000766131
7 *146:19 *1166:A 4.77425e-05
8 *146:19 *268:8 0.000451401
*RES
1 *1059:X *268:8 43.5638 
2 *268:8 *1166:A 40.3193 
*END

*D_NET *269 0.00332517
*CONN
*I *1167:A I *D sg13g2_buf_1
*I *1060:X O *D sg13g2_buf_1
*CAP
1 *1167:A 0.000141844
2 *1060:X 0.000393813
3 *269:18 0.000272133
4 *269:10 0.000524102
5 *269:10 *271:10 0.000653205
6 *269:10 *276:8 0.000231988
7 *269:18 *276:8 0.000126773
8 *1060:A *269:10 0
9 *1096:A *1167:A 0.000209384
10 *120:17 *1167:A 1.54008e-05
11 *122:13 *269:10 0
12 *131:17 *269:18 0
13 *145:17 *269:10 0
14 *158:14 *1167:A 0
15 *218:10 *269:10 0.00075653
*RES
1 *1060:X *269:10 45.3663 
2 *269:10 *269:18 41.133 
3 *269:18 *1167:A 41.4008 
*END

*D_NET *270 0.0037371
*CONN
*I *1168:A I *D sg13g2_buf_1
*I *1061:X O *D sg13g2_buf_1
*CAP
1 *1168:A 0.000610115
2 *1061:X 0.00040306
3 *270:10 0.00101318
4 *1168:A *272:10 0
5 *1063:A *270:10 0
6 *32:5 *1168:A 0
7 *116:9 *1168:A 0.000126275
8 *118:13 *1168:A 0
9 *120:9 *1168:A 0.000873049
10 *132:21 *1168:A 0.000503392
11 *145:17 *270:10 0.000208035
12 *216:8 *270:10 0
*RES
1 *1061:X *270:10 43.6977 
2 *270:10 *1168:A 47.313 
*END

*D_NET *271 0.00297358
*CONN
*I *1169:A I *D sg13g2_buf_1
*I *1062:X O *D sg13g2_buf_1
*CAP
1 *1169:A 0.00024866
2 *1062:X 0.000298024
3 *271:10 0.000546684
4 *271:10 *277:10 0.000234103
5 *271:10 *316:14 0
6 S1BEG[1] *1169:A 0.000208491
7 *1096:A *1169:A 0.000112426
8 *122:13 *271:10 0.000336034
9 *148:11 *1169:A 4.77425e-05
10 *148:11 *271:10 0.000128039
11 *154:13 *271:10 8.00842e-05
12 *156:21 *271:10 8.00842e-05
13 *269:10 *271:10 0.000653205
*RES
1 *1062:X *271:10 44.5938 
2 *271:10 *1169:A 42.7501 
*END

*D_NET *272 0.00202917
*CONN
*I *1170:A I *D sg13g2_buf_1
*I *1063:X O *D sg13g2_buf_1
*CAP
1 *1170:A 0
2 *1063:X 0.000727062
3 *272:10 0.000727062
4 *272:10 *274:8 0.000288115
5 *1063:A *272:10 0
6 *1168:A *272:10 0
7 *32:5 *272:10 0.00028693
8 *120:17 *272:10 0
9 *132:21 *272:10 0
10 *216:20 *272:10 0
*RES
1 *1063:X *272:10 46.6641 
2 *272:10 *1170:A 40 
*END

*D_NET *273 0.00480612
*CONN
*I *1171:A I *D sg13g2_buf_1
*I *1064:X O *D sg13g2_buf_1
*CAP
1 *1171:A 0.000680806
2 *1064:X 0.000743439
3 *273:10 0.00142425
4 *273:10 *307:22 0.000548665
5 *273:10 *316:14 4.74036e-05
6 *273:10 *318:18 0
7 S2BEG[1] *1171:A 0
8 S2BEG[2] *1171:A 0
9 S2BEG[6] *1171:A 0
10 S2BEG[7] *1171:A 0
11 *1007:A *1171:A 1.53556e-05
12 *1072:A *273:10 0
13 *119:23 *273:10 0.000764242
14 *135:15 *1171:A 7.9657e-05
15 *143:17 *273:10 0.000143204
16 *144:13 *273:10 0
17 *158:14 *273:10 0
18 *165:14 *273:10 0.000177404
19 *166:10 *273:10 0
20 *167:10 *273:10 0.000181695
21 *223:10 *1171:A 0
*RES
1 *1064:X *273:10 48.7344 
2 *273:10 *1171:A 45.9637 
*END

*D_NET *274 0.0014902
*CONN
*I *1172:A I *D sg13g2_buf_1
*I *1065:X O *D sg13g2_buf_1
*CAP
1 *1172:A 0.000326037
2 *1065:X 5.31758e-05
3 *274:8 0.000379212
4 S1BEG[2] *1172:A 0.000106718
5 *118:13 *1172:A 4.68848e-05
6 *135:15 *1172:A 0
7 *216:20 *274:8 0.00029006
8 *272:10 *274:8 0.000288115
*RES
1 *1065:X *274:8 41.339 
2 *274:8 *1172:A 42.8737 
*END

*D_NET *275 0.0154809
*CONN
*I *1173:A I *D sg13g2_buf_1
*I *1021:X O *D sg13g2_buf_1
*CAP
1 *1173:A 0.000195633
2 *1021:X 6.01465e-05
3 *275:10 0.00450839
4 *275:8 0.00437291
5 *275:10 *314:18 0.00161701
6 FrameData_O[15] *1173:A 0
7 *1007:A *275:8 0
8 *2:17 *275:10 0.00012816
9 *72:9 *275:10 0
10 *84:21 *275:10 0
11 *111:13 *275:10 0
12 *210:9 *275:10 0.00343532
13 *248:10 *275:10 0.000715748
14 *249:10 *275:10 0
15 *251:10 *275:10 0.000447597
16 *253:8 *1173:A 0
17 *253:8 *275:10 0
18 *264:10 *275:10 0
*RES
1 *1021:X *275:8 40.5356 
2 *275:8 *275:10 53.5291 
3 *275:10 *1173:A 41.8746 
*END

*D_NET *276 0.00171065
*CONN
*I *1174:A I *D sg13g2_buf_1
*I *1066:X O *D sg13g2_buf_1
*CAP
1 *1174:A 3.47831e-05
2 *1066:X 0.000226502
3 *276:8 0.000261285
4 *276:8 *277:18 0.000179814
5 *131:17 *276:8 0.000393554
6 *145:17 *276:8 7.49633e-05
7 *148:11 *276:8 0.000180985
8 *269:10 *276:8 0.000231988
9 *269:18 *276:8 0.000126773
*RES
1 *1066:X *276:8 43.5638 
2 *276:8 *1174:A 40.3193 
*END

*D_NET *277 0.00170083
*CONN
*I *1175:A I *D sg13g2_buf_1
*I *1067:X O *D sg13g2_buf_1
*CAP
1 *1175:A 0
2 *1067:X 0.000227546
3 *277:18 0.000209642
4 *277:10 0.000437188
5 *277:10 *316:14 0
6 *277:18 *279:12 0.000339303
7 *119:31 *277:10 2.6842e-05
8 *119:31 *277:18 4.63914e-05
9 *131:17 *277:18 0
10 *148:11 *277:10 0
11 *271:10 *277:10 0.000234103
12 *276:8 *277:18 0.000179814
*RES
1 *1067:X *277:10 42.1527 
2 *277:10 *277:18 42.369 
3 *277:18 *1175:A 40 
*END

*D_NET *278 0.00114221
*CONN
*I *1176:A I *D sg13g2_buf_1
*I *1068:X O *D sg13g2_buf_1
*CAP
1 *1176:A 9.93079e-05
2 *1068:X 0.000167381
3 *278:12 0.000266689
4 S2BEG[0] *1176:A 0.000176179
5 S2BEG[1] *1176:A 0.000176179
6 *117:27 *278:12 0.00012812
7 *131:17 *278:12 0
8 *161:10 *278:12 0
9 *164:8 *278:12 0.000128353
*RES
1 *1068:X *278:12 42.0085 
2 *278:12 *1176:A 41.1845 
*END

*D_NET *279 0.00166609
*CONN
*I *1177:A I *D sg13g2_buf_1
*I *1069:X O *D sg13g2_buf_1
*CAP
1 *1177:A 0
2 *1069:X 0.0003217
3 *279:12 0.0003217
4 *279:12 *316:28 0.000603299
5 S1BEG[1] *279:12 8.00842e-05
6 S1BEG[2] *279:12 0
7 *131:17 *279:12 0
8 *165:14 *279:12 0
9 *277:18 *279:12 0.000339303
*RES
1 *1069:X *279:12 44.4187 
2 *279:12 *1177:A 40 
*END

*D_NET *280 0.000845569
*CONN
*I *1178:A I *D sg13g2_buf_1
*I *1070:X O *D sg13g2_buf_1
*CAP
1 *1178:A 3.43728e-05
2 *1070:X 0.000286508
3 *280:8 0.000320881
4 *280:8 *317:24 0
5 *117:27 *280:8 0.00012868
6 *131:17 *280:8 0
7 *164:8 *280:8 7.51285e-05
8 *214:20 *280:8 0
*RES
1 *1070:X *280:8 42.575 
2 *280:8 *1178:A 40.3193 
*END

*D_NET *281 0.00173289
*CONN
*I *1179:A I *D sg13g2_buf_1
*I *1071:X O *D sg13g2_buf_1
*CAP
1 *1179:A 8.05581e-05
2 *1071:X 0.00012764
3 *281:8 0.000208198
4 *1179:A *1180:A 0
5 *135:31 *281:8 0.000658248
6 *138:25 *281:8 0.000658248
*RES
1 *1071:X *281:8 43.0694 
2 *281:8 *1179:A 40.7519 
*END

*D_NET *282 0.000466534
*CONN
*I *1180:A I *D sg13g2_buf_1
*I *1072:X O *D sg13g2_buf_1
*CAP
1 *1180:A 0.000233267
2 *1072:X 0.000233267
3 *1180:A *318:30 0
4 S2BEGb[1] *1180:A 0
5 *1041:A *1180:A 0
6 *1179:A *1180:A 0
*RES
1 *1072:X *1180:A 42.1012 
*END

*D_NET *283 0.000342116
*CONN
*I *1181:A I *D sg13g2_buf_1
*I *1073:X O *D sg13g2_buf_1
*CAP
1 *1181:A 0.000109488
2 *1073:X 0.000109488
3 *1181:A *285:12 0
4 S2BEGb[6] *1181:A 0.000123139
*RES
1 *1073:X *1181:A 41.4111 
*END

*D_NET *284 0.00159641
*CONN
*I *1182:A I *D sg13g2_buf_1
*I *1074:X O *D sg13g2_buf_1
*CAP
1 *1182:A 7.2659e-05
2 *1074:X 0.000166159
3 *284:10 0.000238818
4 *284:10 *285:12 0
5 *284:10 *318:38 0.000447597
6 S2BEGb[6] *284:10 0.000110965
7 S4BEG[1] *1182:A 0.000112198
8 *131:17 *284:10 0.000448012
*RES
1 *1074:X *284:10 42.8325 
2 *284:10 *1182:A 40.7519 
*END

*D_NET *285 0.00126029
*CONN
*I *1183:A I *D sg13g2_buf_1
*I *1075:X O *D sg13g2_buf_1
*CAP
1 *1183:A 0
2 *1075:X 0.000320313
3 *285:12 0.000320313
4 *285:12 *287:16 7.5496e-05
5 *285:12 *316:28 0
6 S4BEG[1] *285:12 0
7 *1181:A *285:12 0
8 *187:10 *285:12 7.51285e-05
9 *223:10 *285:12 0.000235305
10 *238:8 *285:12 0.00023373
11 *284:10 *285:12 0
*RES
1 *1075:X *285:12 43.5844 
2 *285:12 *1183:A 40 
*END

*D_NET *286 0.0178961
*CONN
*I *1184:A I *D sg13g2_buf_1
*I *1022:X O *D sg13g2_buf_1
*CAP
1 *1184:A 0
2 *1022:X 0.00017713
3 *286:22 4.99352e-05
4 *286:16 0.00306466
5 *286:14 0.00301472
6 *286:10 0.00017713
7 *286:16 *297:12 0.0113644
8 *286:22 *297:18 0
9 *10:13 *286:16 0
10 *83:13 *286:10 0
11 *84:21 *286:10 4.81157e-05
*RES
1 *1022:X *286:10 41.6583 
2 *286:10 *286:14 40 
3 *286:14 *286:16 52.5094 
4 *286:16 *286:22 40.5356 
5 *286:22 *1184:A 40 
*END

*D_NET *287 0.00107599
*CONN
*I *1185:A I *D sg13g2_buf_1
*I *1076:X O *D sg13g2_buf_1
*CAP
1 *1185:A 0
2 *1076:X 0.000280729
3 *287:16 0.000280729
4 *287:16 *299:18 0.000129078
5 S4BEG[1] *287:16 0
6 *1076:A *287:16 0
7 *131:17 *287:16 0.000127853
8 *187:10 *287:16 0.00018211
9 *285:12 *287:16 7.5496e-05
*RES
1 *1076:X *287:16 43.296 
2 *287:16 *1185:A 40 
*END

*D_NET *288 0.000154926
*CONN
*I *1186:A I *D sg13g2_buf_1
*I *1077:X O *D sg13g2_buf_1
*CAP
1 *1186:A 7.7463e-05
2 *1077:X 7.7463e-05
3 *1041:A *1186:A 0
4 *1077:A *1186:A 0
*RES
1 *1077:X *1186:A 40.9167 
*END

*D_NET *289 0.000608082
*CONN
*I *1187:A I *D sg13g2_buf_1
*I *1078:X O *D sg13g2_buf_1
*CAP
1 *1187:A 0.00028017
2 *1078:X 0.00028017
3 *1187:A *299:18 0
4 *189:12 *1187:A 4.77425e-05
*RES
1 *1078:X *1187:A 42.9046 
*END

*D_NET *290 0.00252864
*CONN
*I *1188:A I *D sg13g2_buf_1
*I *1079:X O *D sg13g2_buf_1
*CAP
1 *1188:A 0.000162124
2 *1079:X 0.000189983
3 *290:8 0.000352107
4 *1188:A *1198:A 0.000143351
5 *290:8 *317:24 0.000655638
6 *187:10 *1188:A 0.000208035
7 *214:20 *290:8 0.000817397
*RES
1 *1079:X *290:8 43.811 
2 *290:8 *1188:A 41.751 
*END

*D_NET *291 0.000985529
*CONN
*I *1189:A I *D sg13g2_buf_1
*I *1089:X O *D sg13g2_buf_1
*CAP
1 *1189:A 0.000388409
2 *1089:X 0.000388409
3 *1189:A *1191:A 0.00020871
4 S4BEG[12] *1189:A 0
5 *137:13 *1189:A 0
*RES
1 *1089:X *1189:A 44.0582 
*END

*D_NET *292 0.00131251
*CONN
*I *1190:A I *D sg13g2_buf_1
*I *1090:X O *D sg13g2_buf_1
*CAP
1 *1190:A 0.00014018
2 *1090:X 0.000159333
3 *292:10 0.000299513
4 *1190:A *293:12 4.77425e-05
5 *292:10 *318:56 0
6 SS4BEG[3] *1190:A 0.000207876
7 SS4BEG[6] *292:10 4.77425e-05
8 SS4BEG[8] *292:10 4.77425e-05
9 *204:10 *292:10 0.000287256
10 *206:10 *292:10 7.51285e-05
*RES
1 *1090:X *292:10 41.9055 
2 *292:10 *1190:A 41.4008 
*END

*D_NET *293 0.00296299
*CONN
*I *1191:A I *D sg13g2_buf_1
*I *1091:X O *D sg13g2_buf_1
*CAP
1 *1191:A 0.000403065
2 *1091:X 0.000306941
3 *293:12 0.000710006
4 *293:12 *294:8 0.000287256
5 *293:12 *311:24 0.000658479
6 SS4BEG[3] *293:12 0
7 *1189:A *1191:A 0.00020871
8 *1190:A *293:12 4.77425e-05
9 *135:31 *293:12 0.000340789
10 *139:21 *1191:A 0
*RES
1 *1091:X *293:12 44.6041 
2 *293:12 *1191:A 43.4814 
*END

*D_NET *294 0.00181627
*CONN
*I *1192:A I *D sg13g2_buf_1
*I *1092:X O *D sg13g2_buf_1
*CAP
1 *1192:A 0.000152784
2 *1092:X 0.000176024
3 *294:8 0.000328808
4 *294:8 *311:24 0
5 *294:8 *317:24 0.000181716
6 SS4BEG[1] *1192:A 0.00011101
7 *68:21 *1192:A 0.000240187
8 *135:31 *294:8 0.000338482
9 *293:12 *294:8 0.000287256
*RES
1 *1092:X *294:8 42.575 
2 *294:8 *1192:A 41.6171 
*END

*D_NET *295 0.000510887
*CONN
*I *1193:A I *D sg13g2_buf_1
*I *1093:X O *D sg13g2_buf_1
*CAP
1 *1193:A 0.000215401
2 *1093:X 0.000215401
3 SS4BEG[9] *1193:A 8.00842e-05
4 *133:25 *1193:A 0
*RES
1 *1093:X *1193:A 41.9982 
*END

*D_NET *296 0.00429604
*CONN
*I *1194:A I *D sg13g2_buf_1
*I *1094:X O *D sg13g2_buf_1
*CAP
1 *1194:A 0.000110109
2 *1094:X 0.000136174
3 *296:18 0.00108892
4 *296:10 0.00111499
5 *296:18 *1208:A 8.01118e-05
6 *296:18 *313:26 0
7 *296:18 *315:18 0.000236081
8 *296:18 *316:28 1.54008e-05
9 SS4BEG[11] *296:18 0
10 SS4BEG[12] *296:18 4.77425e-05
11 SS4BEG[14] *296:10 0.000112426
12 SS4BEG[14] *296:18 0
13 SS4BEG[15] *296:10 0.000112426
14 SS4BEG[3] *1194:A 4.77425e-05
15 *197:10 *296:10 0.000181192
16 *206:10 *296:18 0.00011101
17 *240:24 *296:10 0
18 *243:10 *296:18 0
19 *243:12 *296:18 8.2066e-05
20 *244:16 *296:18 0.000819651
*RES
1 *1094:X *296:10 41.5965 
2 *296:10 *296:18 49.2918 
3 *296:18 *1194:A 40.9682 
*END

*D_NET *297 0.0177736
*CONN
*I *1195:A I *D sg13g2_buf_1
*I *1023:X O *D sg13g2_buf_1
*CAP
1 *1195:A 0
2 *1023:X 0
3 *297:18 6.99962e-05
4 *297:12 0.0032046
5 *297:10 0.0031346
6 *297:6 0
7 *10:13 *297:12 0
8 *31:19 *297:12 0
9 *286:16 *297:12 0.0113644
10 *286:22 *297:18 0
*RES
1 *1023:X *297:6 40 
2 *297:6 *297:10 40 
3 *297:10 *297:12 53.7454 
4 *297:12 *297:18 40.7519 
5 *297:18 *1195:A 40 
*END

*D_NET *298 0.00136978
*CONN
*I *1196:A I *D sg13g2_buf_1
*I *1080:X O *D sg13g2_buf_1
*CAP
1 *1196:A 0.000158751
2 *1080:X 6.56768e-05
3 *298:8 0.000224427
4 S4BEG[1] *1196:A 0
5 *1076:A *1196:A 0.000239996
6 *1077:A *1196:A 0
7 *135:31 *298:8 0.00034042
8 *138:25 *298:8 0.000340507
*RES
1 *1080:X *298:8 41.5862 
2 *298:8 *1196:A 41.6171 
*END

*D_NET *299 0.00272638
*CONN
*I *1197:A I *D sg13g2_buf_1
*I *1081:X O *D sg13g2_buf_1
*CAP
1 *1197:A 0
2 *1081:X 0.000698925
3 *299:18 0.000698925
4 *299:18 *300:8 0.000234224
5 S4BEG[4] *299:18 7.98567e-05
6 *1187:A *299:18 0
7 *110:17 *299:18 0.000262317
8 *131:17 *299:18 0.000337683
9 *187:10 *299:18 0
10 *189:12 *299:18 0
11 *240:18 *299:18 0.000285371
12 *240:24 *299:18 0
13 *287:16 *299:18 0.000129078
*RES
1 *1081:X *299:18 47.8177 
2 *299:18 *1197:A 40 
*END

*D_NET *300 0.00129816
*CONN
*I *1198:A I *D sg13g2_buf_1
*I *1082:X O *D sg13g2_buf_1
*CAP
1 *1198:A 0.000126129
2 *1082:X 0.000101986
3 *300:8 0.000228115
4 *300:8 *318:56 0.00012816
5 S4BEG[10] *1198:A 0.000208035
6 *1188:A *1198:A 0.000143351
7 *188:10 *300:8 0.00012816
8 *189:12 *1198:A 0
9 *299:18 *300:8 0.000234224
*RES
1 *1082:X *300:8 41.5862 
2 *300:8 *1198:A 41.4008 
*END

*D_NET *301 0.0016838
*CONN
*I *1199:A I *D sg13g2_buf_1
*I *1083:X O *D sg13g2_buf_1
*CAP
1 *1199:A 0.000337657
2 *1083:X 7.99005e-05
3 *301:8 0.000417558
4 *1199:A *304:12 0.000111999
5 S4BEG[10] *1199:A 0
6 S4BEG[12] *1199:A 0
7 *140:21 *301:8 0.000341619
8 *244:16 *301:8 0.000395066
*RES
1 *1083:X *301:8 41.8334 
2 *301:8 *1199:A 42.8325 
*END

*D_NET *302 0.00233912
*CONN
*I *1200:A I *D sg13g2_buf_1
*I *1084:X O *D sg13g2_buf_1
*CAP
1 *1200:A 0.000281867
2 *1084:X 0.00046027
3 *302:12 0.000742137
4 *302:12 *303:10 0.000143351
5 *302:12 *317:24 0
6 S4BEG[10] *1200:A 7.98484e-05
7 S4BEG[15] *302:12 0
8 *110:17 *1200:A 0
9 *138:25 *302:12 0.000552415
10 *189:12 *1200:A 0
11 *191:10 *302:12 7.92265e-05
*RES
1 *1084:X *302:12 44.7586 
2 *302:12 *1200:A 42.5029 
*END

*D_NET *303 0.00134055
*CONN
*I *1201:A I *D sg13g2_buf_1
*I *1085:X O *D sg13g2_buf_1
*CAP
1 *1201:A 4.37077e-05
2 *1085:X 0.000312558
3 *303:10 0.000356266
4 *303:10 *318:56 0.000181192
5 S4BEG[13] *303:10 0.000143307
6 SS4BEG[1] *1201:A 8.00842e-05
7 *68:21 *1201:A 8.00842e-05
8 *240:24 *303:10 0
9 *302:12 *303:10 0.000143351
*RES
1 *1085:X *303:10 43.0488 
2 *303:10 *1201:A 40.5356 
*END

*D_NET *304 0.0019427
*CONN
*I *1202:A I *D sg13g2_buf_1
*I *1086:X O *D sg13g2_buf_1
*CAP
1 *1202:A 0.000138023
2 *1086:X 0.000257836
3 *304:12 0.000395859
4 *1202:A *305:16 0.000240377
5 S4BEG[12] *304:12 0.000111854
6 S4BEG[15] *1202:A 0.000240404
7 *1199:A *304:12 0.000111999
8 *235:30 *304:12 0.000446352
*RES
1 *1086:X *304:12 43.1518 
2 *304:12 *1202:A 41.6171 
*END

*D_NET *305 0.00269652
*CONN
*I *1203:A I *D sg13g2_buf_1
*I *1087:X O *D sg13g2_buf_1
*CAP
1 *1203:A 0
2 *1087:X 9.70813e-05
3 *305:16 0.000629997
4 *305:8 0.000727079
5 *305:8 *313:26 7.51285e-05
6 S4BEG[15] *305:16 0
7 *1084:A *305:16 1.53556e-05
8 *1202:A *305:16 0.000240377
9 *137:13 *305:16 4.77425e-05
10 *138:25 *305:16 8.00842e-05
11 *182:10 *305:16 8.00842e-05
12 *184:10 *305:8 0.00012816
13 *240:24 *305:16 0.000393736
14 *244:16 *305:8 0.000181695
*RES
1 *1087:X *305:8 41.339 
2 *305:8 *305:16 46.0461 
3 *305:16 *1203:A 40 
*END

*D_NET *306 0.00209439
*CONN
*I *1204:A I *D sg13g2_buf_1
*I *1088:X O *D sg13g2_buf_1
*CAP
1 *1204:A 0.000221153
2 *1088:X 0.000149767
3 *306:12 0.00037092
4 *306:12 *317:24 0.000393872
5 SS4BEG[1] *306:12 4.77425e-05
6 SS4BEG[5] *1204:A 0.000208035
7 SS4BEG[6] *1204:A 0.000112198
8 *68:21 *306:12 4.77425e-05
9 *135:41 *1204:A 1.54008e-05
10 *135:41 *306:12 2.76208e-05
11 *220:24 *306:12 0.000499936
*RES
1 *1088:X *306:12 42.7552 
2 *306:12 *1204:A 42.2866 
*END

*D_NET *307 0.0125877
*CONN
*I *1205:A I *D sg13g2_buf_1
*I *1095:X O *D sg13g2_buf_1
*CAP
1 *1205:A 0
2 *1095:X 0.000394049
3 *307:38 0.000598094
4 *307:30 0.000803732
5 *307:22 0.000905487
6 *307:16 0.00080868
7 *307:10 0.00050288
8 *307:10 *318:18 0
9 *307:30 *316:28 2.20966e-05
10 *307:38 *316:28 2.20966e-05
11 S4BEG[10] *307:30 0.000143351
12 SS4BEG[11] *307:38 8.0039e-05
13 SS4BEG[12] *307:38 4.77425e-05
14 *1072:A *307:22 0.00145237
15 *1096:A *307:10 0.000240404
16 *78:25 *307:22 0.00087277
17 *78:25 *307:30 0.000448428
18 *148:11 *307:10 0.000240377
19 *158:14 *307:10 0.000287935
20 *165:14 *307:10 0
21 *167:10 *307:22 0
22 *172:8 *307:22 0
23 *173:10 *307:22 0
24 *175:10 *307:22 0.000818821
25 *178:8 *307:30 0
26 *183:8 *307:38 0.00113339
27 *189:12 *307:30 0.000288174
28 *218:30 *307:38 0
29 *240:24 *307:38 0.00192808
30 *273:10 *307:22 0.000548665
*RES
1 *1095:X *307:10 43.9449 
2 *307:10 *307:16 40.9682 
3 *307:16 *307:22 31.8244 
4 *307:22 *307:30 43.0488 
5 *307:30 *307:38 49.5378 
6 *307:38 *1205:A 20 
*END

*D_NET *308 0.0181302
*CONN
*I *1206:A I *D sg13g2_buf_1
*I *1024:X O *D sg13g2_buf_1
*CAP
1 *1206:A 8.5048e-05
2 *1024:X 0.000164728
3 *308:10 0.00455899
4 *308:8 0.00463867
5 *1026:A *308:8 0
6 *73:9 *308:10 0.000664857
7 *85:11 *308:10 0.00514349
8 *137:9 *308:10 0.00263389
9 *215:10 *308:10 0
10 *215:14 *1206:A 0
11 *215:14 *308:10 0
12 *222:8 *1206:A 0
13 *222:8 *308:10 0
14 *260:10 *308:8 0.000240569
*RES
1 *1024:X *308:8 41.6171 
2 *308:8 *308:10 51.0571 
3 *308:10 *1206:A 40.8858 
*END

*D_NET *309 0.0215748
*CONN
*I *1207:A I *D sg13g2_buf_1
*I *1105:X O *D sg13g2_buf_1
*CAP
1 *1207:A 0.000786667
2 *1105:X 0.000771946
3 *309:14 0.00377306
4 *309:8 0.00375834
5 *1207:A *1212:A 0.000983401
6 *309:8 *311:8 0
7 *1051:A *1207:A 0
8 *4:13 *309:14 0.000930738
9 *6:5 *309:14 0.00232579
10 *66:9 *309:14 0
11 *77:15 *1207:A 0.000112346
12 *77:21 *1207:A 0.000919026
13 *79:7 *1207:A 0
14 *111:13 *309:14 0.00145931
15 *128:7 *309:8 0.000917339
16 *140:9 *309:8 0
17 *242:12 *309:14 0.00428006
18 *242:14 *309:14 0
19 *263:8 *309:14 0.000556738
*RES
1 *1105:X *309:8 47.8898 
2 *309:8 *309:14 38.8413 
3 *309:14 *1207:A 48.6726 
*END

*D_NET *310 0.0114195
*CONN
*I *1208:A I *D sg13g2_buf_1
*I *1106:X O *D sg13g2_buf_1
*CAP
1 *1208:A 4.96112e-05
2 *1106:X 0
3 *310:30 0.000423322
4 *310:18 0.00339245
5 *310:12 0.00315217
6 *310:6 0.000133435
7 *1208:A *313:26 0
8 *310:12 *313:14 0
9 *310:18 *311:16 0
10 *32:13 *310:18 0.00152821
11 *113:19 *310:18 0
12 *219:14 *310:12 0.000207841
13 *219:22 *310:18 0.0015117
14 *235:30 *310:30 0.000707667
15 *239:16 *310:18 4.45217e-05
16 *239:22 *310:18 5.40758e-05
17 *244:24 *310:30 0.000134343
18 *296:18 *1208:A 8.01118e-05
*RES
1 *1106:X *310:6 40 
2 *310:6 *310:12 41.4008 
3 *310:12 *310:18 31.4253 
4 *310:18 *310:30 44.5526 
5 *310:30 *1208:A 40.5356 
*END

*D_NET *311 0.0170561
*CONN
*I *1209:A I *D sg13g2_buf_1
*I *1107:X O *D sg13g2_buf_1
*CAP
1 *1209:A 9.74031e-05
2 *1107:X 0.000238838
3 *311:24 0.00206878
4 *311:16 0.00268748
5 *311:12 0.000716103
6 *311:8 0.000238838
7 *311:16 *312:12 0
8 *311:16 *313:18 0
9 *1051:A *1209:A 0.000176203
10 *66:9 *1209:A 0.000176203
11 *113:19 *311:16 0.00227522
12 *118:13 *311:24 0.00012816
13 *118:21 *311:24 0.00012816
14 *132:21 *311:24 0
15 *135:31 *311:24 0.00224821
16 *138:19 *311:24 0.000555727
17 *138:25 *311:24 0
18 *140:9 *311:8 0.000369823
19 *201:10 *311:24 0.000395371
20 *208:10 *311:24 0.00039332
21 *220:24 *311:24 0
22 *235:30 *311:24 0.00350382
23 *293:12 *311:24 0.000658479
24 *294:8 *311:24 0
25 *309:8 *311:8 0
26 *310:18 *311:16 0
*RES
1 *1107:X *311:8 42.4823 
2 *311:8 *311:12 40 
3 *311:12 *311:16 30.9798 
4 *311:16 *311:24 48.2117 
5 *311:24 *1209:A 41.1845 
*END

*D_NET *312 0.0136534
*CONN
*I *1210:A I *D sg13g2_buf_1
*I *1108:X O *D sg13g2_buf_1
*CAP
1 *1210:A 0
2 *1108:X 0
3 *312:26 9.99866e-05
4 *312:20 0.00272183
5 *312:18 0.00278358
6 *312:12 0.000634677
7 *312:6 0.000472948
8 *114:19 *312:12 0.00141178
9 *115:21 *312:20 0.0029264
10 *116:15 *312:18 7.78179e-05
11 *126:15 *312:12 0
12 *126:15 *312:20 0
13 *126:23 *312:20 0.00164681
14 *127:13 *312:20 0
15 *129:13 *312:20 0
16 *217:16 *312:12 0.000877591
17 *223:20 *312:20 0
18 *311:16 *312:12 0
*RES
1 *1108:X *312:6 40 
2 *312:6 *312:12 48.0134 
3 *312:12 *312:18 41.1845 
4 *312:18 *312:20 33.7222 
5 *312:20 *312:26 40.7519 
6 *312:26 *1210:A 40 
*END

*D_NET *313 0.014454
*CONN
*I *1211:A I *D sg13g2_buf_1
*I *1109:X O *D sg13g2_buf_1
*CAP
1 *1211:A 0
2 *1109:X 0.000259696
3 *313:26 0.000723049
4 *313:18 0.00289689
5 *313:14 0.00264439
6 *313:8 0.000730251
7 *1208:A *313:26 0
8 *28:5 *313:8 0
9 *114:19 *313:14 4.6693e-05
10 *140:13 *313:18 0
11 *141:11 *313:14 0
12 *149:11 *313:8 0.000603392
13 *184:10 *313:26 0
14 *203:8 *313:26 0.000288174
15 *210:9 *313:26 8.01995e-05
16 *219:14 *313:14 0
17 *219:22 *313:18 0.00486056
18 *219:28 *313:26 0
19 *243:12 *313:26 0
20 *244:16 *313:26 0.00124557
21 *244:24 *313:26 0
22 *296:18 *313:26 0
23 *305:8 *313:26 7.51285e-05
24 *310:12 *313:14 0
25 *311:16 *313:18 0
*RES
1 *1109:X *313:8 42.8222 
2 *313:8 *313:14 44.2127 
3 *313:14 *313:18 49.0254 
4 *313:18 *313:26 48.549 
5 *313:26 *1211:A 20 
*END

*D_NET *314 0.0272041
*CONN
*I *1212:A I *D sg13g2_buf_1
*I *1110:X O *D sg13g2_buf_1
*CAP
1 *1212:A 0.000865195
2 *1110:X 0.000877282
3 *314:18 0.00320782
4 *314:8 0.0032199
5 *1207:A *1212:A 0.000983401
6 *2:17 *314:18 0.00371232
7 *7:5 *314:18 0
8 *77:21 *1212:A 0
9 *77:25 *314:18 0.000675632
10 *79:7 *1212:A 0.000886375
11 *80:15 *1212:A 0
12 *134:7 *314:8 0.00146727
13 *134:13 *314:18 0.00809964
14 *135:9 *314:8 0.000724496
15 *136:7 *314:8 0
16 *248:10 *314:18 0
17 *249:10 *314:18 0.00086775
18 *275:10 *314:18 0.00161701
*RES
1 *1110:X *314:8 49.8365 
2 *314:8 *314:18 43.6823 
3 *314:18 *1212:A 48.9713 
*END

*D_NET *315 0.00955826
*CONN
*I *1213:A I *D sg13g2_buf_1
*I *1096:X O *D sg13g2_buf_1
*CAP
1 *1213:A 0
2 *1096:X 0.00054255
3 *315:18 0.00119207
4 *315:12 0.00173462
5 *130:9 *315:12 0.00155968
6 *130:9 *315:18 0
7 *135:9 *315:12 0.000828154
8 *139:13 *315:12 0
9 *139:21 *315:18 0.000395177
10 *243:10 *315:18 0.00306994
11 *244:16 *315:18 0
12 *296:18 *315:18 0.000236081
*RES
1 *1096:X *315:12 48.1267 
2 *315:12 *315:18 34.8235 
3 *315:18 *1213:A 20 
*END

*D_NET *316 0.0134471
*CONN
*I *1214:A I *D sg13g2_buf_1
*I *1097:X O *D sg13g2_buf_1
*CAP
1 *1214:A 0
2 *1097:X 0.00085283
3 *316:28 0.00164101
4 *316:14 0.00249384
5 SS4BEG[12] *316:28 0
6 SS4BEG[13] *316:28 7.92265e-05
7 SS4BEG[14] *316:28 0.000176252
8 *1066:A *316:14 8.00842e-05
9 *1072:A *316:28 0
10 *1094:A *316:28 0.00150602
11 *13:31 *316:28 0
12 *24:37 *316:28 0
13 *78:25 *316:28 0
14 *119:23 *316:14 0
15 *121:23 *316:14 0.000288155
16 *122:13 *316:14 0
17 *146:19 *316:14 0
18 *168:8 *316:28 0.000288502
19 *172:8 *316:28 0.000500302
20 *178:8 *316:28 0.000923138
21 *187:10 *316:28 0.000606728
22 *218:30 *316:28 0.00192899
23 *223:10 *316:28 0.00134955
24 *240:18 *316:28 0
25 *240:24 *316:28 2.21831e-05
26 *271:10 *316:14 0
27 *273:10 *316:14 4.74036e-05
28 *277:10 *316:14 0
29 *279:12 *316:28 0.000603299
30 *285:12 *316:28 0
31 *296:18 *316:28 1.54008e-05
32 *307:30 *316:28 2.20966e-05
33 *307:38 *316:28 2.20966e-05
*RES
1 *1097:X *316:14 47.3348 
2 *316:14 *316:28 46.3268 
3 *316:28 *1214:A 20 
*END

*D_NET *317 0.0119236
*CONN
*I *1215:A I *D sg13g2_buf_1
*I *1098:X O *D sg13g2_buf_1
*CAP
1 *1215:A 0.000182058
2 *1098:X 6.10057e-05
3 *317:24 0.0023531
4 *317:8 0.00223204
5 SS4BEG[8] *1215:A 7.98567e-05
6 *117:27 *317:24 0.000447708
7 *120:17 *317:24 0.000500531
8 *132:9 *317:24 0.000820659
9 *135:31 *317:24 0.000391514
10 *135:41 *317:24 2.76208e-05
11 *136:15 *1215:A 0.000272718
12 *138:19 *317:24 0
13 *138:25 *317:24 0.00242824
14 *145:17 *317:8 0
15 *146:19 *317:24 0.000501973
16 *180:8 *317:24 0.00039332
17 *214:20 *317:24 0
18 *220:24 *317:24 0
19 *268:8 *317:24 0
20 *280:8 *317:24 0
21 *290:8 *317:24 0.000655638
22 *294:8 *317:24 0.000181716
23 *302:12 *317:24 0
24 *306:12 *317:24 0.000393872
*RES
1 *1098:X *317:8 40.5356 
2 *317:8 *317:24 48.5001 
3 *317:24 *1215:A 21.8334 
*END

*D_NET *318 0.0160162
*CONN
*I *1216:A I *D sg13g2_buf_1
*I *1099:X O *D sg13g2_buf_1
*CAP
1 *1216:A 0
2 *1099:X 0.000173448
3 *318:56 0.000824739
4 *318:44 0.00103165
5 *318:38 0.000648035
6 *318:30 0.00128635
7 *318:18 0.00164393
8 *318:8 0.000972153
9 S2BEGb[1] *318:30 0
10 S2BEGb[2] *318:30 0.000305521
11 S2BEGb[3] *318:30 0.00014514
12 S2BEGb[5] *318:30 0
13 SS4BEG[11] *318:56 0.000143865
14 *1180:A *318:30 0
15 *124:13 *318:18 0.000762737
16 *131:17 *318:38 0
17 *133:25 *318:56 0
18 *142:11 *318:8 0.00030506
19 *144:13 *318:18 0
20 *149:11 *318:8 0.00030506
21 *157:13 *318:18 0.000919997
22 *158:14 *318:18 0
23 *165:14 *318:30 0
24 *188:10 *318:38 0.000232728
25 *191:10 *318:56 0.000340288
26 *206:10 *318:56 0.000606279
27 *214:20 *318:38 0.00129507
28 *214:20 *318:56 0.000446352
29 *217:16 *318:44 0.000611607
30 *218:26 *318:18 0.0010256
31 *218:26 *318:30 0.00118699
32 *220:16 *318:44 0
33 *240:18 *318:38 4.6693e-05
34 *240:24 *318:56 0
35 *273:10 *318:18 0
36 *284:10 *318:38 0.000447597
37 *292:10 *318:56 0
38 *300:8 *318:56 0.00012816
39 *303:10 *318:56 0.000181192
40 *307:10 *318:18 0
*RES
1 *1099:X *318:8 42.0497 
2 *318:8 *318:18 30.7326 
3 *318:18 *318:30 49.5584 
4 *318:30 *318:38 46.3551 
5 *318:38 *318:44 42.8222 
6 *318:44 *318:56 49.4039 
7 *318:56 *1216:A 20 
*END
