*SPEF "ieee 1481-1999"
*DESIGN "S_CPU_IF"
*DATE "10:31:38 Wednesday August 13, 2025"
*VENDOR "The OpenROAD Project"
*PROGRAM "OpenROAD"
*VERSION "341650e72dad0dc8571822ff8c5d9c5e365327f7"
*DESIGN_FLOW "NAME_SCOPE LOCAL" "PIN_CAP NONE"
*DIVIDER /
*DELIMITER :
*BUS_DELIMITER []
*T_UNIT 1 NS
*C_UNIT 1 PF
*R_UNIT 1 OHM
*L_UNIT 1 HENRY

*NAME_MAP
*1 net236
*2 FrameData[0]
*3 FrameData[10]
*4 FrameData[11]
*5 FrameData[12]
*6 FrameData[13]
*7 FrameData[14]
*8 FrameData[15]
*9 FrameData[16]
*10 FrameData[17]
*11 FrameData[18]
*12 FrameData[19]
*13 FrameData[1]
*14 FrameData[20]
*15 FrameData[21]
*16 FrameData[22]
*17 FrameData[23]
*18 FrameData[24]
*19 FrameData[25]
*20 FrameData[26]
*21 FrameData[27]
*22 FrameData[28]
*23 FrameData[29]
*24 FrameData[2]
*25 FrameData[30]
*26 FrameData[31]
*27 FrameData[3]
*28 FrameData[4]
*29 FrameData[5]
*30 FrameData[6]
*31 FrameData[7]
*32 FrameData[8]
*33 FrameData[9]
*34 FrameData_O[0]
*35 FrameData_O[10]
*36 FrameData_O[11]
*37 FrameData_O[12]
*38 FrameData_O[13]
*39 FrameData_O[14]
*40 FrameData_O[15]
*41 FrameData_O[16]
*42 FrameData_O[17]
*43 FrameData_O[18]
*44 FrameData_O[19]
*45 FrameData_O[1]
*46 FrameData_O[20]
*47 FrameData_O[21]
*48 FrameData_O[22]
*49 FrameData_O[23]
*50 FrameData_O[24]
*51 FrameData_O[25]
*52 FrameData_O[26]
*53 FrameData_O[27]
*54 FrameData_O[28]
*55 FrameData_O[29]
*56 FrameData_O[2]
*57 FrameData_O[30]
*58 FrameData_O[31]
*59 FrameData_O[3]
*60 FrameData_O[4]
*61 FrameData_O[5]
*62 FrameData_O[6]
*63 FrameData_O[7]
*64 FrameData_O[8]
*65 FrameData_O[9]
*66 FrameStrobe[0]
*67 FrameStrobe[10]
*68 FrameStrobe[11]
*69 FrameStrobe[12]
*70 FrameStrobe[13]
*71 FrameStrobe[14]
*72 FrameStrobe[15]
*73 FrameStrobe[16]
*74 FrameStrobe[17]
*75 FrameStrobe[18]
*76 FrameStrobe[19]
*77 FrameStrobe[1]
*78 FrameStrobe[2]
*79 FrameStrobe[3]
*80 FrameStrobe[4]
*81 FrameStrobe[5]
*82 FrameStrobe[6]
*83 FrameStrobe[7]
*84 FrameStrobe[8]
*85 FrameStrobe[9]
*86 FrameStrobe_O[0]
*87 FrameStrobe_O[10]
*88 FrameStrobe_O[11]
*89 FrameStrobe_O[12]
*90 FrameStrobe_O[13]
*91 FrameStrobe_O[14]
*92 FrameStrobe_O[15]
*93 FrameStrobe_O[16]
*94 FrameStrobe_O[17]
*95 FrameStrobe_O[18]
*96 FrameStrobe_O[19]
*97 FrameStrobe_O[1]
*98 FrameStrobe_O[2]
*99 FrameStrobe_O[3]
*100 FrameStrobe_O[4]
*101 FrameStrobe_O[5]
*102 FrameStrobe_O[6]
*103 FrameStrobe_O[7]
*104 FrameStrobe_O[8]
*105 FrameStrobe_O[9]
*106 I_top0
*107 I_top1
*108 I_top10
*109 I_top11
*110 I_top12
*111 I_top13
*112 I_top14
*113 I_top15
*114 I_top2
*115 I_top3
*116 I_top4
*117 I_top5
*118 I_top6
*119 I_top7
*120 I_top8
*121 I_top9
*122 N1BEG[0]
*123 N1BEG[1]
*124 N1BEG[2]
*125 N1BEG[3]
*126 N2BEG[0]
*127 N2BEG[1]
*128 N2BEG[2]
*129 N2BEG[3]
*130 N2BEG[4]
*131 N2BEG[5]
*132 N2BEG[6]
*133 N2BEG[7]
*134 N2BEGb[0]
*135 N2BEGb[1]
*136 N2BEGb[2]
*137 N2BEGb[3]
*138 N2BEGb[4]
*139 N2BEGb[5]
*140 N2BEGb[6]
*141 N2BEGb[7]
*142 N4BEG[0]
*143 N4BEG[10]
*144 N4BEG[11]
*145 N4BEG[12]
*146 N4BEG[13]
*147 N4BEG[14]
*148 N4BEG[15]
*149 N4BEG[1]
*150 N4BEG[2]
*151 N4BEG[3]
*152 N4BEG[4]
*153 N4BEG[5]
*154 N4BEG[6]
*155 N4BEG[7]
*156 N4BEG[8]
*157 N4BEG[9]
*158 NN4BEG[0]
*159 NN4BEG[10]
*160 NN4BEG[11]
*161 NN4BEG[12]
*162 NN4BEG[13]
*163 NN4BEG[14]
*164 NN4BEG[15]
*165 NN4BEG[1]
*166 NN4BEG[2]
*167 NN4BEG[3]
*168 NN4BEG[4]
*169 NN4BEG[5]
*170 NN4BEG[6]
*171 NN4BEG[7]
*172 NN4BEG[8]
*173 NN4BEG[9]
*174 O_top0
*175 O_top1
*176 O_top10
*177 O_top11
*178 O_top12
*179 O_top13
*180 O_top14
*181 O_top15
*182 O_top2
*183 O_top3
*184 O_top4
*185 O_top5
*186 O_top6
*187 O_top7
*188 O_top8
*189 O_top9
*190 S1END[0]
*191 S1END[1]
*192 S1END[2]
*193 S1END[3]
*194 S2END[0]
*195 S2END[1]
*196 S2END[2]
*197 S2END[3]
*198 S2END[4]
*199 S2END[5]
*200 S2END[6]
*201 S2END[7]
*202 S2MID[0]
*203 S2MID[1]
*204 S2MID[2]
*205 S2MID[3]
*206 S2MID[4]
*207 S2MID[5]
*208 S2MID[6]
*209 S2MID[7]
*210 S4END[0]
*211 S4END[10]
*212 S4END[11]
*213 S4END[12]
*214 S4END[13]
*215 S4END[14]
*216 S4END[15]
*217 S4END[1]
*218 S4END[2]
*219 S4END[3]
*220 S4END[4]
*221 S4END[5]
*222 S4END[6]
*223 S4END[7]
*224 S4END[8]
*225 S4END[9]
*226 SS4END[0]
*227 SS4END[10]
*228 SS4END[11]
*229 SS4END[12]
*230 SS4END[13]
*231 SS4END[14]
*232 SS4END[15]
*233 SS4END[1]
*234 SS4END[2]
*235 SS4END[3]
*236 SS4END[4]
*237 SS4END[5]
*238 SS4END[6]
*239 SS4END[7]
*240 SS4END[8]
*241 SS4END[9]
*242 UserCLK
*243 UserCLKo
*246 Inst_S_CPU_IF_ConfigMem\.Inst_frame0_bit0\.Q
*247 Inst_S_CPU_IF_ConfigMem\.Inst_frame0_bit1\.Q
*248 Inst_S_CPU_IF_ConfigMem\.Inst_frame0_bit10\.Q
*249 Inst_S_CPU_IF_ConfigMem\.Inst_frame0_bit11\.Q
*250 Inst_S_CPU_IF_ConfigMem\.Inst_frame0_bit12\.Q
*251 Inst_S_CPU_IF_ConfigMem\.Inst_frame0_bit13\.Q
*252 Inst_S_CPU_IF_ConfigMem\.Inst_frame0_bit14\.Q
*253 Inst_S_CPU_IF_ConfigMem\.Inst_frame0_bit15\.Q
*254 Inst_S_CPU_IF_ConfigMem\.Inst_frame0_bit16\.Q
*255 Inst_S_CPU_IF_ConfigMem\.Inst_frame0_bit17\.Q
*256 Inst_S_CPU_IF_ConfigMem\.Inst_frame0_bit18\.Q
*257 Inst_S_CPU_IF_ConfigMem\.Inst_frame0_bit19\.Q
*258 Inst_S_CPU_IF_ConfigMem\.Inst_frame0_bit2\.Q
*259 Inst_S_CPU_IF_ConfigMem\.Inst_frame0_bit20\.Q
*260 Inst_S_CPU_IF_ConfigMem\.Inst_frame0_bit21\.Q
*261 Inst_S_CPU_IF_ConfigMem\.Inst_frame0_bit22\.Q
*262 Inst_S_CPU_IF_ConfigMem\.Inst_frame0_bit23\.Q
*263 Inst_S_CPU_IF_ConfigMem\.Inst_frame0_bit24\.Q
*264 Inst_S_CPU_IF_ConfigMem\.Inst_frame0_bit25\.Q
*265 Inst_S_CPU_IF_ConfigMem\.Inst_frame0_bit26\.Q
*266 Inst_S_CPU_IF_ConfigMem\.Inst_frame0_bit27\.Q
*267 Inst_S_CPU_IF_ConfigMem\.Inst_frame0_bit28\.Q
*268 Inst_S_CPU_IF_ConfigMem\.Inst_frame0_bit29\.Q
*269 Inst_S_CPU_IF_ConfigMem\.Inst_frame0_bit3\.Q
*270 Inst_S_CPU_IF_ConfigMem\.Inst_frame0_bit30\.Q
*271 Inst_S_CPU_IF_ConfigMem\.Inst_frame0_bit31\.Q
*272 Inst_S_CPU_IF_ConfigMem\.Inst_frame0_bit4\.Q
*273 Inst_S_CPU_IF_ConfigMem\.Inst_frame0_bit5\.Q
*274 Inst_S_CPU_IF_ConfigMem\.Inst_frame0_bit6\.Q
*275 Inst_S_CPU_IF_ConfigMem\.Inst_frame0_bit7\.Q
*276 Inst_S_CPU_IF_ConfigMem\.Inst_frame0_bit8\.Q
*277 Inst_S_CPU_IF_ConfigMem\.Inst_frame0_bit9\.Q
*278 Inst_S_CPU_IF_ConfigMem\.Inst_frame1_bit0\.Q
*279 Inst_S_CPU_IF_ConfigMem\.Inst_frame1_bit1\.Q
*280 Inst_S_CPU_IF_ConfigMem\.Inst_frame1_bit10\.Q
*281 Inst_S_CPU_IF_ConfigMem\.Inst_frame1_bit11\.Q
*282 Inst_S_CPU_IF_ConfigMem\.Inst_frame1_bit12\.Q
*283 Inst_S_CPU_IF_ConfigMem\.Inst_frame1_bit13\.Q
*284 Inst_S_CPU_IF_ConfigMem\.Inst_frame1_bit14\.Q
*285 Inst_S_CPU_IF_ConfigMem\.Inst_frame1_bit15\.Q
*286 Inst_S_CPU_IF_ConfigMem\.Inst_frame1_bit16\.Q
*287 Inst_S_CPU_IF_ConfigMem\.Inst_frame1_bit17\.Q
*288 Inst_S_CPU_IF_ConfigMem\.Inst_frame1_bit18\.Q
*289 Inst_S_CPU_IF_ConfigMem\.Inst_frame1_bit19\.Q
*290 Inst_S_CPU_IF_ConfigMem\.Inst_frame1_bit2\.Q
*291 Inst_S_CPU_IF_ConfigMem\.Inst_frame1_bit20\.Q
*292 Inst_S_CPU_IF_ConfigMem\.Inst_frame1_bit21\.Q
*293 Inst_S_CPU_IF_ConfigMem\.Inst_frame1_bit22\.Q
*294 Inst_S_CPU_IF_ConfigMem\.Inst_frame1_bit23\.Q
*295 Inst_S_CPU_IF_ConfigMem\.Inst_frame1_bit24\.Q
*296 Inst_S_CPU_IF_ConfigMem\.Inst_frame1_bit25\.Q
*297 Inst_S_CPU_IF_ConfigMem\.Inst_frame1_bit26\.Q
*298 Inst_S_CPU_IF_ConfigMem\.Inst_frame1_bit27\.Q
*299 Inst_S_CPU_IF_ConfigMem\.Inst_frame1_bit28\.Q
*300 Inst_S_CPU_IF_ConfigMem\.Inst_frame1_bit29\.Q
*301 Inst_S_CPU_IF_ConfigMem\.Inst_frame1_bit3\.Q
*302 Inst_S_CPU_IF_ConfigMem\.Inst_frame1_bit30\.Q
*303 Inst_S_CPU_IF_ConfigMem\.Inst_frame1_bit31\.Q
*304 Inst_S_CPU_IF_ConfigMem\.Inst_frame1_bit4\.Q
*305 Inst_S_CPU_IF_ConfigMem\.Inst_frame1_bit5\.Q
*306 Inst_S_CPU_IF_ConfigMem\.Inst_frame1_bit6\.Q
*307 Inst_S_CPU_IF_ConfigMem\.Inst_frame1_bit7\.Q
*308 Inst_S_CPU_IF_ConfigMem\.Inst_frame1_bit8\.Q
*309 Inst_S_CPU_IF_ConfigMem\.Inst_frame1_bit9\.Q
*310 Inst_S_CPU_IF_ConfigMem\.Inst_frame2_bit10\.Q
*311 Inst_S_CPU_IF_ConfigMem\.Inst_frame2_bit11\.Q
*312 Inst_S_CPU_IF_ConfigMem\.Inst_frame2_bit12\.Q
*313 Inst_S_CPU_IF_ConfigMem\.Inst_frame2_bit13\.Q
*314 Inst_S_CPU_IF_ConfigMem\.Inst_frame2_bit14\.Q
*315 Inst_S_CPU_IF_ConfigMem\.Inst_frame2_bit15\.Q
*316 Inst_S_CPU_IF_ConfigMem\.Inst_frame2_bit16\.Q
*317 Inst_S_CPU_IF_ConfigMem\.Inst_frame2_bit17\.Q
*318 Inst_S_CPU_IF_ConfigMem\.Inst_frame2_bit18\.Q
*319 Inst_S_CPU_IF_ConfigMem\.Inst_frame2_bit19\.Q
*320 Inst_S_CPU_IF_ConfigMem\.Inst_frame2_bit20\.Q
*321 Inst_S_CPU_IF_ConfigMem\.Inst_frame2_bit21\.Q
*322 Inst_S_CPU_IF_ConfigMem\.Inst_frame2_bit22\.Q
*323 Inst_S_CPU_IF_ConfigMem\.Inst_frame2_bit23\.Q
*324 Inst_S_CPU_IF_ConfigMem\.Inst_frame2_bit24\.Q
*325 Inst_S_CPU_IF_ConfigMem\.Inst_frame2_bit25\.Q
*326 Inst_S_CPU_IF_ConfigMem\.Inst_frame2_bit26\.Q
*327 Inst_S_CPU_IF_ConfigMem\.Inst_frame2_bit27\.Q
*328 Inst_S_CPU_IF_ConfigMem\.Inst_frame2_bit28\.Q
*329 Inst_S_CPU_IF_ConfigMem\.Inst_frame2_bit29\.Q
*330 Inst_S_CPU_IF_ConfigMem\.Inst_frame2_bit30\.Q
*331 Inst_S_CPU_IF_ConfigMem\.Inst_frame2_bit31\.Q
*332 Inst_S_CPU_IF_ConfigMem\.Inst_frame2_bit8\.Q
*333 Inst_S_CPU_IF_ConfigMem\.Inst_frame2_bit9\.Q
*334 Inst_S_CPU_IF_switch_matrix\.N1BEG0
*335 Inst_S_CPU_IF_switch_matrix\.N1BEG1
*336 Inst_S_CPU_IF_switch_matrix\.N1BEG2
*337 Inst_S_CPU_IF_switch_matrix\.N1BEG3
*338 Inst_S_CPU_IF_switch_matrix\.N2BEG0
*339 Inst_S_CPU_IF_switch_matrix\.N2BEG1
*340 Inst_S_CPU_IF_switch_matrix\.N2BEG2
*341 Inst_S_CPU_IF_switch_matrix\.N2BEG3
*342 Inst_S_CPU_IF_switch_matrix\.N2BEG4
*343 Inst_S_CPU_IF_switch_matrix\.N2BEG5
*344 Inst_S_CPU_IF_switch_matrix\.N2BEG6
*345 Inst_S_CPU_IF_switch_matrix\.N2BEG7
*346 Inst_S_CPU_IF_switch_matrix\.N2BEGb0
*347 Inst_S_CPU_IF_switch_matrix\.N2BEGb1
*348 Inst_S_CPU_IF_switch_matrix\.N2BEGb2
*349 Inst_S_CPU_IF_switch_matrix\.N2BEGb3
*350 Inst_S_CPU_IF_switch_matrix\.N2BEGb4
*351 Inst_S_CPU_IF_switch_matrix\.N2BEGb5
*352 Inst_S_CPU_IF_switch_matrix\.N2BEGb6
*353 Inst_S_CPU_IF_switch_matrix\.N2BEGb7
*354 Inst_S_CPU_IF_switch_matrix\.N4BEG0
*355 Inst_S_CPU_IF_switch_matrix\.N4BEG1
*356 Inst_S_CPU_IF_switch_matrix\.N4BEG10
*357 Inst_S_CPU_IF_switch_matrix\.N4BEG11
*358 Inst_S_CPU_IF_switch_matrix\.N4BEG12
*359 Inst_S_CPU_IF_switch_matrix\.N4BEG13
*360 Inst_S_CPU_IF_switch_matrix\.N4BEG14
*361 Inst_S_CPU_IF_switch_matrix\.N4BEG15
*362 Inst_S_CPU_IF_switch_matrix\.N4BEG2
*363 Inst_S_CPU_IF_switch_matrix\.N4BEG3
*364 Inst_S_CPU_IF_switch_matrix\.N4BEG4
*365 Inst_S_CPU_IF_switch_matrix\.N4BEG5
*366 Inst_S_CPU_IF_switch_matrix\.N4BEG6
*367 Inst_S_CPU_IF_switch_matrix\.N4BEG7
*368 Inst_S_CPU_IF_switch_matrix\.N4BEG8
*369 Inst_S_CPU_IF_switch_matrix\.N4BEG9
*370 Inst_S_CPU_IF_switch_matrix\.NN4BEG0
*371 Inst_S_CPU_IF_switch_matrix\.NN4BEG1
*372 Inst_S_CPU_IF_switch_matrix\.NN4BEG10
*373 Inst_S_CPU_IF_switch_matrix\.NN4BEG11
*374 Inst_S_CPU_IF_switch_matrix\.NN4BEG12
*375 Inst_S_CPU_IF_switch_matrix\.NN4BEG13
*376 Inst_S_CPU_IF_switch_matrix\.NN4BEG14
*377 Inst_S_CPU_IF_switch_matrix\.NN4BEG15
*378 Inst_S_CPU_IF_switch_matrix\.NN4BEG2
*379 Inst_S_CPU_IF_switch_matrix\.NN4BEG3
*380 Inst_S_CPU_IF_switch_matrix\.NN4BEG4
*381 Inst_S_CPU_IF_switch_matrix\.NN4BEG5
*382 Inst_S_CPU_IF_switch_matrix\.NN4BEG6
*383 Inst_S_CPU_IF_switch_matrix\.NN4BEG7
*384 Inst_S_CPU_IF_switch_matrix\.NN4BEG8
*385 Inst_S_CPU_IF_switch_matrix\.NN4BEG9
*386 net1
*387 net10
*388 net100
*389 net101
*390 net102
*391 net103
*392 net104
*393 net105
*394 net106
*395 net107
*396 net108
*397 net109
*398 net11
*399 net110
*400 net111
*401 net112
*402 net113
*403 net114
*404 net115
*405 net116
*406 net117
*407 net118
*408 net119
*409 net12
*410 net120
*411 net121
*412 net122
*413 net123
*414 net124
*415 net125
*416 net126
*417 net127
*418 net128
*419 net129
*420 net13
*421 net130
*422 net131
*423 net132
*424 net133
*425 net134
*426 net135
*427 net136
*428 net137
*429 net138
*430 net139
*431 net14
*432 net140
*433 net141
*434 net142
*435 net143
*436 net144
*437 net145
*438 net146
*439 net147
*440 net148
*441 net149
*442 net15
*443 net150
*444 net151
*445 net152
*446 net153
*447 net154
*448 net155
*449 net156
*450 net157
*451 net158
*452 net159
*453 net16
*454 net160
*455 net161
*456 net162
*457 net163
*458 net164
*459 net165
*460 net166
*461 net167
*462 net168
*463 net169
*464 net17
*465 net170
*466 net171
*467 net172
*468 net173
*469 net174
*470 net175
*471 net176
*472 net177
*473 net178
*474 net179
*475 net18
*476 net180
*477 net181
*478 net182
*479 net183
*480 net184
*481 net185
*482 net186
*483 net187
*484 net188
*485 net189
*486 net19
*487 net190
*488 net191
*489 net192
*490 net193
*491 net194
*492 net195
*493 net196
*494 net197
*495 net198
*496 net199
*497 net2
*498 net20
*499 net200
*500 net201
*501 net202
*502 net203
*503 net204
*504 net205
*505 net206
*506 net207
*507 net208
*508 net209
*509 net21
*510 net210
*511 net211
*512 net212
*513 net213
*514 net214
*515 net215
*516 net216
*517 net217
*518 net218
*519 net219
*520 net22
*521 net220
*522 net221
*523 net222
*524 net223
*525 net224
*526 net225
*527 net226
*528 net227
*529 net228
*530 net229
*531 net23
*532 net230
*533 net231
*534 net232
*535 net233
*536 net234
*537 net235
*538 net24
*539 net25
*540 net26
*541 net27
*542 net28
*543 net29
*544 net3
*545 net30
*546 net31
*547 net32
*548 net33
*549 net34
*550 net35
*551 net36
*552 net37
*553 net38
*554 net39
*555 net4
*556 net40
*557 net41
*558 net42
*559 net43
*560 net44
*561 net45
*562 net46
*563 net47
*564 net48
*565 net49
*566 net5
*567 net50
*568 net51
*569 net52
*570 net53
*571 net54
*572 net55
*573 net56
*574 net57
*575 net58
*576 net59
*577 net6
*578 net60
*579 net61
*580 net62
*581 net63
*582 net64
*583 net65
*584 net66
*585 net67
*586 net68
*587 net69
*588 net7
*589 net70
*590 net71
*591 net72
*592 net73
*593 net74
*594 net75
*595 net76
*596 net77
*597 net78
*598 net79
*599 net8
*600 net80
*601 net81
*602 net82
*603 net83
*604 net84
*605 net85
*606 net86
*607 net87
*608 net88
*609 net89
*610 net9
*611 net90
*612 net91
*613 net92
*614 net93
*615 net94
*616 net95
*617 net96
*618 net97
*619 net98
*620 net99
*621 FILLER_0_0
*622 FILLER_0_142
*623 FILLER_0_171
*624 FILLER_0_194
*625 FILLER_0_2
*626 FILLER_0_223
*627 FILLER_0_259
*628 FILLER_0_282
*629 FILLER_0_318
*630 FILLER_0_325
*631 FILLER_0_332
*632 FILLER_0_339
*633 FILLER_0_346
*634 FILLER_0_353
*635 FILLER_0_360
*636 FILLER_0_367
*637 FILLER_0_374
*638 FILLER_0_381
*639 FILLER_0_388
*640 FILLER_0_395
*641 FILLER_0_402
*642 FILLER_0_73
*643 FILLER_0_96
*644 FILLER_10_140
*645 FILLER_10_200
*646 FILLER_10_202
*647 FILLER_10_233
*648 FILLER_10_346
*649 FILLER_10_353
*650 FILLER_10_360
*651 FILLER_10_367
*652 FILLER_10_374
*653 FILLER_10_381
*654 FILLER_10_388
*655 FILLER_10_395
*656 FILLER_10_402
*657 FILLER_10_406
*658 FILLER_10_5
*659 FILLER_10_95
*660 FILLER_10_97
*661 FILLER_11_10
*662 FILLER_11_154
*663 FILLER_11_186
*664 FILLER_11_204
*665 FILLER_11_355
*666 FILLER_11_362
*667 FILLER_11_369
*668 FILLER_11_376
*669 FILLER_11_383
*670 FILLER_11_390
*671 FILLER_11_397
*672 FILLER_11_87
*673 FILLER_1_144
*674 FILLER_1_222
*675 FILLER_1_224
*676 FILLER_1_319
*677 FILLER_1_326
*678 FILLER_1_333
*679 FILLER_1_340
*680 FILLER_1_377
*681 FILLER_1_384
*682 FILLER_1_391
*683 FILLER_1_4
*684 FILLER_1_400
*685 FILLER_1_407
*686 FILLER_1_417
*687 FILLER_1_419
*688 FILLER_1_6
*689 FILLER_1_73
*690 FILLER_2_10
*691 FILLER_2_146
*692 FILLER_2_148
*693 FILLER_2_180
*694 FILLER_2_233
*695 FILLER_2_235
*696 FILLER_2_313
*697 FILLER_2_320
*698 FILLER_2_327
*699 FILLER_2_334
*700 FILLER_2_341
*701 FILLER_2_348
*702 FILLER_2_356
*703 FILLER_2_363
*704 FILLER_2_370
*705 FILLER_2_377
*706 FILLER_2_384
*707 FILLER_2_391
*708 FILLER_2_398
*709 FILLER_2_405
*710 FILLER_2_412
*711 FILLER_2_72
*712 FILLER_2_74
*713 FILLER_2_8
*714 FILLER_2_96
*715 FILLER_2_98
*716 FILLER_3_10
*717 FILLER_3_119
*718 FILLER_3_175
*719 FILLER_3_19
*720 FILLER_3_194
*721 FILLER_3_233
*722 FILLER_3_264
*723 FILLER_3_266
*724 FILLER_3_320
*725 FILLER_3_327
*726 FILLER_3_331
*727 FILLER_3_337
*728 FILLER_3_344
*729 FILLER_3_351
*730 FILLER_3_358
*731 FILLER_3_365
*732 FILLER_3_372
*733 FILLER_3_379
*734 FILLER_3_386
*735 FILLER_3_393
*736 FILLER_3_400
*737 FILLER_3_407
*738 FILLER_3_414
*739 FILLER_3_67
*740 FILLER_3_8
*741 FILLER_4_121
*742 FILLER_4_132
*743 FILLER_4_167
*744 FILLER_4_20
*745 FILLER_4_206
*746 FILLER_4_208
*747 FILLER_4_247
*748 FILLER_4_270
*749 FILLER_4_310
*750 FILLER_4_317
*751 FILLER_4_324
*752 FILLER_4_328
*753 FILLER_4_334
*754 FILLER_4_341
*755 FILLER_4_352
*756 FILLER_4_359
*757 FILLER_4_366
*758 FILLER_4_373
*759 FILLER_4_380
*760 FILLER_4_387
*761 FILLER_4_394
*762 FILLER_4_401
*763 FILLER_4_408
*764 FILLER_4_415
*765 FILLER_5_116
*766 FILLER_5_144
*767 FILLER_5_170
*768 FILLER_5_188
*769 FILLER_5_235
*770 FILLER_5_262
*771 FILLER_5_264
*772 FILLER_5_300
*773 FILLER_5_307
*774 FILLER_5_314
*775 FILLER_5_321
*776 FILLER_5_328
*777 FILLER_5_335
*778 FILLER_5_342
*779 FILLER_5_349
*780 FILLER_5_356
*781 FILLER_5_363
*782 FILLER_5_370
*783 FILLER_5_377
*784 FILLER_5_384
*785 FILLER_5_391
*786 FILLER_5_398
*787 FILLER_5_405
*788 FILLER_5_412
*789 FILLER_5_70
*790 FILLER_5_72
*791 FILLER_5_93
*792 FILLER_6_105
*793 FILLER_6_107
*794 FILLER_6_165
*795 FILLER_6_167
*796 FILLER_6_192
*797 FILLER_6_227
*798 FILLER_6_229
*799 FILLER_6_251
*800 FILLER_6_269
*801 FILLER_6_271
*802 FILLER_6_307
*803 FILLER_6_314
*804 FILLER_6_321
*805 FILLER_6_328
*806 FILLER_6_335
*807 FILLER_6_342
*808 FILLER_6_349
*809 FILLER_6_356
*810 FILLER_6_363
*811 FILLER_6_370
*812 FILLER_6_377
*813 FILLER_6_384
*814 FILLER_6_391
*815 FILLER_6_398
*816 FILLER_6_405
*817 FILLER_7_16
*818 FILLER_7_170
*819 FILLER_7_172
*820 FILLER_7_212
*821 FILLER_7_231
*822 FILLER_7_297
*823 FILLER_7_304
*824 FILLER_7_311
*825 FILLER_7_318
*826 FILLER_7_325
*827 FILLER_7_332
*828 FILLER_7_339
*829 FILLER_7_346
*830 FILLER_7_353
*831 FILLER_7_360
*832 FILLER_7_367
*833 FILLER_7_374
*834 FILLER_7_381
*835 FILLER_7_388
*836 FILLER_7_395
*837 FILLER_7_402
*838 FILLER_7_409
*839 FILLER_7_62
*840 FILLER_7_64
*841 FILLER_8_146
*842 FILLER_8_200
*843 FILLER_8_202
*844 FILLER_8_220
*845 FILLER_8_222
*846 FILLER_8_227
*847 FILLER_8_252
*848 FILLER_8_313
*849 FILLER_8_320
*850 FILLER_8_327
*851 FILLER_8_334
*852 FILLER_8_341
*853 FILLER_8_348
*854 FILLER_8_355
*855 FILLER_8_362
*856 FILLER_8_369
*857 FILLER_8_376
*858 FILLER_8_383
*859 FILLER_8_390
*860 FILLER_8_397
*861 FILLER_8_4
*862 FILLER_8_404
*863 FILLER_8_411
*864 FILLER_8_415
*865 FILLER_8_88
*866 FILLER_8_90
*867 FILLER_9_0
*868 FILLER_9_142
*869 FILLER_9_160
*870 FILLER_9_162
*871 FILLER_9_183
*872 FILLER_9_2
*873 FILLER_9_228
*874 FILLER_9_239
*875 FILLER_9_337
*876 FILLER_9_344
*877 FILLER_9_351
*878 FILLER_9_358
*879 FILLER_9_365
*880 FILLER_9_372
*881 FILLER_9_379
*882 FILLER_9_386
*883 FILLER_9_393
*884 FILLER_9_400
*885 FILLER_9_407
*886 FILLER_9_414
*887 FILLER_9_64
*888 FILLER_9_66
*889 FILLER_9_94
*890 S_CPU_IF_222
*891 _000_
*892 _001_
*893 _002_
*894 _003_
*895 _004_
*896 _005_
*897 _006_
*898 _007_
*899 _008_
*900 _009_
*901 _010_
*902 _011_
*903 _012_
*904 _013_
*905 _014_
*906 _015_
*907 _016_
*908 _017_
*909 _018_
*910 _019_
*911 _020_
*912 _021_
*913 _022_
*914 _023_
*915 _024_
*916 _025_
*917 _026_
*918 _027_
*919 _028_
*920 _029_
*921 _030_
*922 _031_
*923 _032_
*924 _033_
*925 _034_
*926 _035_
*927 _036_
*928 _037_
*929 _038_
*930 _039_
*931 _040_
*932 _041_
*933 _042_
*934 _043_
*935 _044_
*936 _045_
*937 _046_
*938 _047_
*939 _048_
*940 _049_
*941 _050_
*942 _051_
*943 _052_
*944 _053_
*945 _054_
*946 _055_
*947 _056_
*948 _057_
*949 _058_
*950 _059_
*951 _060_
*952 _061_
*953 _062_
*954 _063_
*955 _064_
*956 _065_
*957 _066_
*958 _067_
*959 _068_
*960 _069_
*961 _070_
*962 _071_
*963 _072_
*964 _073_
*965 _074_
*966 _075_
*967 _076_
*968 _077_
*969 _078_
*970 _079_
*971 _080_
*972 _081_
*973 _082_
*974 _083_
*975 _084_
*976 _085_
*977 _086_
*978 _087_
*979 _088_
*980 _089_
*981 _090_
*982 _091_
*983 _092_
*984 _093_
*985 _094_
*986 _095_
*987 _096_
*988 _097_
*989 _098_
*990 _099_
*991 _100_
*992 _101_
*993 _102_
*994 _103_
*995 _104_
*996 _105_
*997 _106_
*998 _107_
*999 _108_
*1000 _109_
*1001 _110_
*1002 _111_
*1003 _112_
*1004 _113_
*1005 _114_
*1006 _115_
*1007 _116_
*1008 _117_
*1009 _118_
*1010 _119_
*1011 _120_
*1012 _121_
*1013 _122_
*1014 _123_
*1015 _124_
*1016 _125_
*1017 _126_
*1018 _127_
*1019 _128_
*1020 _129_
*1021 _130_
*1022 _131_
*1023 _132_
*1024 _133_
*1025 _134_
*1026 _135_
*1027 _136_
*1028 _137_
*1029 _138_
*1030 _139_
*1031 _140_
*1032 _141_
*1033 _142_
*1034 _143_
*1035 _144_
*1036 _145_
*1037 _146_
*1038 _147_
*1039 _148_
*1040 _149_
*1041 _150_
*1042 _151_
*1043 _152_
*1044 _153_
*1045 _154_
*1046 _155_
*1047 _157_
*1048 _158_
*1049 _159_
*1050 _160_
*1051 _161_
*1052 _162_
*1053 _163_
*1054 _164_
*1055 _165_
*1056 _166_
*1057 _167_
*1058 _168_
*1059 _169_
*1060 _170_
*1061 _171_
*1062 _172_
*1063 _173_
*1064 _174_
*1065 _175_
*1066 _176_
*1067 _177_
*1068 _178_
*1069 _179_
*1070 _180_
*1071 _181_
*1072 _182_
*1073 _183_
*1074 _184_
*1075 _185_
*1076 _186_
*1077 _187_
*1078 _188_
*1079 _189_
*1080 _190_
*1081 _191_
*1082 _192_
*1083 _193_
*1084 _194_
*1085 _195_
*1086 _196_
*1087 _197_
*1088 _198_
*1089 _199_
*1090 _200_
*1091 _201_
*1092 _202_
*1093 _203_
*1094 _204_
*1095 _205_
*1096 _206_
*1097 _207_
*1098 _208_
*1099 _209_
*1100 _210_
*1101 _211_
*1102 _212_
*1103 _213_
*1104 _214_
*1105 _215_
*1106 _216_
*1107 _217_
*1108 _218_
*1109 _219_
*1110 _220_
*1111 _221_
*1112 _222_
*1113 _223_
*1114 _224_
*1115 _225_
*1116 _226_
*1117 _227_
*1118 _228_
*1119 _229_
*1120 _230_
*1121 _231_
*1122 _232_
*1123 _233_
*1124 _234_
*1125 _235_
*1126 _236_
*1127 _237_
*1128 _238_
*1129 _239_
*1130 _240_
*1131 _241_
*1132 _242_
*1133 _243_
*1134 _244_
*1135 _245_
*1136 _246_
*1137 _247_
*1138 _248_
*1139 _249_
*1140 _250_
*1141 _251_
*1142 _252_
*1143 _253_
*1144 _254_
*1145 _255_
*1146 _256_
*1147 _257_
*1148 _258_
*1149 _259_
*1150 _260_
*1151 _261_
*1152 fanout31
*1153 fanout32
*1154 fanout33
*1155 fanout34
*1156 fanout35
*1157 fanout36
*1158 fanout37
*1159 fanout38
*1160 fanout39
*1161 fanout40
*1162 fanout41
*1163 fanout42
*1164 fanout43
*1165 fanout44
*1166 input1
*1167 input10
*1168 input100
*1169 input11
*1170 input12
*1171 input13
*1172 input14
*1173 input15
*1174 input16
*1175 input17
*1176 input18
*1177 input19
*1178 input2
*1179 input20
*1180 input21
*1181 input22
*1182 input23
*1183 input24
*1184 input25
*1185 input26
*1186 input27
*1187 input28
*1188 input29
*1189 input3
*1190 input30
*1191 input31
*1192 input32
*1193 input33
*1194 input34
*1195 input35
*1196 input36
*1197 input37
*1198 input38
*1199 input39
*1200 input4
*1201 input40
*1202 input41
*1203 input42
*1204 input43
*1205 input44
*1206 input45
*1207 input46
*1208 input47
*1209 input48
*1210 input49
*1211 input5
*1212 input50
*1213 input51
*1214 input52
*1215 input53
*1216 input54
*1217 input55
*1218 input56
*1219 input57
*1220 input58
*1221 input59
*1222 input6
*1223 input60
*1224 input61
*1225 input62
*1226 input63
*1227 input64
*1228 input65
*1229 input66
*1230 input67
*1231 input68
*1232 input69
*1233 input7
*1234 input70
*1235 input71
*1236 input72
*1237 input73
*1238 input74
*1239 input75
*1240 input76
*1241 input77
*1242 input78
*1243 input79
*1244 input8
*1245 input80
*1246 input81
*1247 input82
*1248 input83
*1249 input84
*1250 input85
*1251 input86
*1252 input87
*1253 input88
*1254 input89
*1255 input9
*1256 input90
*1257 input91
*1258 input92
*1259 input93
*1260 input94
*1261 input95
*1262 input96
*1263 input97
*1264 input98
*1265 input99
*1266 output101
*1267 output102
*1268 output103
*1269 output104
*1270 output105
*1271 output106
*1272 output107
*1273 output108
*1274 output109
*1275 output110
*1276 output111
*1277 output112
*1278 output113
*1279 output114
*1280 output115
*1281 output116
*1282 output117
*1283 output118
*1284 output119
*1285 output120
*1286 output121
*1287 output122
*1288 output123
*1289 output124
*1290 output125
*1291 output126
*1292 output127
*1293 output128
*1294 output129
*1295 output130
*1296 output131
*1297 output132
*1298 output133
*1299 output134
*1300 output135
*1301 output136
*1302 output137
*1303 output138
*1304 output139
*1305 output140
*1306 output141
*1307 output142
*1308 output143
*1309 output144
*1310 output145
*1311 output146
*1312 output147
*1313 output148
*1314 output149
*1315 output150
*1316 output151
*1317 output152
*1318 output153
*1319 output154
*1320 output155
*1321 output156
*1322 output157
*1323 output158
*1324 output159
*1325 output160
*1326 output161
*1327 output162
*1328 output163
*1329 output164
*1330 output165
*1331 output166
*1332 output167
*1333 output168
*1334 output169
*1335 output170
*1336 output171
*1337 output172
*1338 output173
*1339 output174
*1340 output175
*1341 output176
*1342 output177
*1343 output178
*1344 output179
*1345 output180
*1346 output181
*1347 output182
*1348 output183
*1349 output184
*1350 output185
*1351 output186
*1352 output187
*1353 output188
*1354 output189
*1355 output190
*1356 output191
*1357 output192
*1358 output193
*1359 output194
*1360 output195
*1361 output196
*1362 output197
*1363 output198
*1364 output199
*1365 output200
*1366 output201
*1367 output202
*1368 output203
*1369 output204
*1370 output205
*1371 output206
*1372 output207
*1373 output208
*1374 output209
*1375 output210
*1376 output211
*1377 output212
*1378 output213
*1379 output214
*1380 output215
*1381 output216
*1382 output217
*1383 output218
*1384 output219
*1385 output220
*1386 output221

*PORTS
Co O
FrameData[0] I
FrameData[10] I
FrameData[11] I
FrameData[12] I
FrameData[13] I
FrameData[14] I
FrameData[15] I
FrameData[16] I
FrameData[17] I
FrameData[18] I
FrameData[19] I
FrameData[1] I
FrameData[20] I
FrameData[21] I
FrameData[22] I
FrameData[23] I
FrameData[24] I
FrameData[25] I
FrameData[26] I
FrameData[27] I
FrameData[28] I
FrameData[29] I
FrameData[2] I
FrameData[30] I
FrameData[31] I
FrameData[3] I
FrameData[4] I
FrameData[5] I
FrameData[6] I
FrameData[7] I
FrameData[8] I
FrameData[9] I
FrameData_O[0] O
FrameData_O[10] O
FrameData_O[11] O
FrameData_O[12] O
FrameData_O[13] O
FrameData_O[14] O
FrameData_O[15] O
FrameData_O[16] O
FrameData_O[17] O
FrameData_O[18] O
FrameData_O[19] O
FrameData_O[1] O
FrameData_O[20] O
FrameData_O[21] O
FrameData_O[22] O
FrameData_O[23] O
FrameData_O[24] O
FrameData_O[25] O
FrameData_O[26] O
FrameData_O[27] O
FrameData_O[28] O
FrameData_O[29] O
FrameData_O[2] O
FrameData_O[30] O
FrameData_O[31] O
FrameData_O[3] O
FrameData_O[4] O
FrameData_O[5] O
FrameData_O[6] O
FrameData_O[7] O
FrameData_O[8] O
FrameData_O[9] O
FrameStrobe[0] I
FrameStrobe[10] I
FrameStrobe[11] I
FrameStrobe[12] I
FrameStrobe[13] I
FrameStrobe[14] I
FrameStrobe[15] I
FrameStrobe[16] I
FrameStrobe[17] I
FrameStrobe[18] I
FrameStrobe[19] I
FrameStrobe[1] I
FrameStrobe[2] I
FrameStrobe[3] I
FrameStrobe[4] I
FrameStrobe[5] I
FrameStrobe[6] I
FrameStrobe[7] I
FrameStrobe[8] I
FrameStrobe[9] I
FrameStrobe_O[0] O
FrameStrobe_O[10] O
FrameStrobe_O[11] O
FrameStrobe_O[12] O
FrameStrobe_O[13] O
FrameStrobe_O[14] O
FrameStrobe_O[15] O
FrameStrobe_O[16] O
FrameStrobe_O[17] O
FrameStrobe_O[18] O
FrameStrobe_O[19] O
FrameStrobe_O[1] O
FrameStrobe_O[2] O
FrameStrobe_O[3] O
FrameStrobe_O[4] O
FrameStrobe_O[5] O
FrameStrobe_O[6] O
FrameStrobe_O[7] O
FrameStrobe_O[8] O
FrameStrobe_O[9] O
I_top0 O
I_top1 O
I_top10 O
I_top11 O
I_top12 O
I_top13 O
I_top14 O
I_top15 O
I_top2 O
I_top3 O
I_top4 O
I_top5 O
I_top6 O
I_top7 O
I_top8 O
I_top9 O
N1BEG[0] O
N1BEG[1] O
N1BEG[2] O
N1BEG[3] O
N2BEG[0] O
N2BEG[1] O
N2BEG[2] O
N2BEG[3] O
N2BEG[4] O
N2BEG[5] O
N2BEG[6] O
N2BEG[7] O
N2BEGb[0] O
N2BEGb[1] O
N2BEGb[2] O
N2BEGb[3] O
N2BEGb[4] O
N2BEGb[5] O
N2BEGb[6] O
N2BEGb[7] O
N4BEG[0] O
N4BEG[10] O
N4BEG[11] O
N4BEG[12] O
N4BEG[13] O
N4BEG[14] O
N4BEG[15] O
N4BEG[1] O
N4BEG[2] O
N4BEG[3] O
N4BEG[4] O
N4BEG[5] O
N4BEG[6] O
N4BEG[7] O
N4BEG[8] O
N4BEG[9] O
NN4BEG[0] O
NN4BEG[10] O
NN4BEG[11] O
NN4BEG[12] O
NN4BEG[13] O
NN4BEG[14] O
NN4BEG[15] O
NN4BEG[1] O
NN4BEG[2] O
NN4BEG[3] O
NN4BEG[4] O
NN4BEG[5] O
NN4BEG[6] O
NN4BEG[7] O
NN4BEG[8] O
NN4BEG[9] O
O_top0 I
O_top1 I
O_top10 I
O_top11 I
O_top12 I
O_top13 I
O_top14 I
O_top15 I
O_top2 I
O_top3 I
O_top4 I
O_top5 I
O_top6 I
O_top7 I
O_top8 I
O_top9 I
S1END[0] I
S1END[1] I
S1END[2] I
S1END[3] I
S2END[0] I
S2END[1] I
S2END[2] I
S2END[3] I
S2END[4] I
S2END[5] I
S2END[6] I
S2END[7] I
S2MID[0] I
S2MID[1] I
S2MID[2] I
S2MID[3] I
S2MID[4] I
S2MID[5] I
S2MID[6] I
S2MID[7] I
S4END[0] I
S4END[10] I
S4END[11] I
S4END[12] I
S4END[13] I
S4END[14] I
S4END[15] I
S4END[1] I
S4END[2] I
S4END[3] I
S4END[4] I
S4END[5] I
S4END[6] I
S4END[7] I
S4END[8] I
S4END[9] I
SS4END[0] I
SS4END[10] I
SS4END[11] I
SS4END[12] I
SS4END[13] I
SS4END[14] I
SS4END[15] I
SS4END[1] I
SS4END[2] I
SS4END[3] I
SS4END[4] I
SS4END[5] I
SS4END[6] I
SS4END[7] I
SS4END[8] I
SS4END[9] I
UserCLK I
UserCLKo O

*D_NET *1 0.0109568
*CONN
*P Co O
*I *890:L_LO O *D sg13g2_tielo
*CAP
1 Co 0.00142962
2 *890:L_LO 0
3 *1:6 0.00142962
4 Co N2BEGb[3] 0
5 Co NN4BEG[15] 0
6 Co *133:44 0.000128248
7 Co *190:9 0.00435642
8 Co *192:11 0
9 Co *203:9 0.00361291
*RES
1 *890:L_LO *1:6 40 
2 *1:6 Co 43.6282 
*END

*D_NET *2 0.00549649
*CONN
*P FrameData[0] I
*I *1166:A I *D sg13g2_buf_1
*CAP
1 FrameData[0] 0.000995213
2 *1166:A 0
3 *2:17 0.00121552
4 *2:9 0.00221073
5 *2:9 *13:13 0
6 *2:9 *174:13 0
7 *2:9 *565:14 0
8 *2:9 *610:14 0.000533702
9 *2:17 *1178:A 0
10 *2:17 *1185:A 0
11 *2:17 *1189:A 0
12 *2:17 *386:8 0
13 *2:17 *398:24 0
14 *2:17 *442:77 8.00394e-05
15 *2:17 *453:16 0.000208896
16 *2:17 *482:30 0
17 *2:17 *491:42 0
18 *2:17 *498:20 0
19 *2:17 *540:6 0
20 *2:17 *540:18 0.000126354
21 *2:17 *540:33 0.000126047
22 *2:17 *563:8 0
23 *2:17 *588:18 0
24 *2:17 *599:20 0
*RES
1 FrameData[0] *2:9 30.8665 
2 *2:9 *2:17 49.8777 
3 *2:17 *1166:A 20 
*END

*D_NET *3 0.000792341
*CONN
*P FrameData[10] I
*I *1178:A I *D sg13g2_buf_1
*CAP
1 FrameData[10] 0.00039617
2 *1178:A 0.00039617
3 *1178:A *1189:A 0
4 *1178:A *1192:A 0
5 *1178:A *599:20 0
6 *2:17 *1178:A 0
*RES
1 FrameData[10] *1178:A 43.4814 
*END

*D_NET *4 0.00160404
*CONN
*P FrameData[11] I
*I *1189:A I *D sg13g2_buf_1
*CAP
1 FrameData[11] 0.000547794
2 *1189:A 0.000547794
3 *1189:A *1185:A 0.000332509
4 *1189:A *1200:A 0
5 *1189:A *23:23 0
6 *1189:A *174:13 0.00017594
7 *1189:A *577:20 0
8 *1178:A *1189:A 0
9 *2:17 *1189:A 0
*RES
1 FrameData[11] *1189:A 45.3354 
*END

*D_NET *5 0.000745546
*CONN
*P FrameData[12] I
*I *1200:A I *D sg13g2_buf_1
*CAP
1 FrameData[12] 0.000372773
2 *1200:A 0.000372773
3 *1200:A *1211:A 0
4 *1189:A *1200:A 0
*RES
1 FrameData[12] *1200:A 43.4814 
*END

*D_NET *6 0.00152961
*CONN
*P FrameData[13] I
*I *1211:A I *D sg13g2_buf_1
*CAP
1 FrameData[13] 0.000530427
2 *1211:A 0.000530427
3 *1211:A *1222:A 0
4 *1211:A *19:17 1.11656e-05
5 *1211:A *174:13 0.000122012
6 *1211:A *497:16 0
7 *1211:A *520:8 0.000335582
8 *1211:A *599:10 0
9 *1200:A *1211:A 0
*RES
1 FrameData[13] *1211:A 45.3071 
*END

*D_NET *7 0.000764848
*CONN
*P FrameData[14] I
*I *1222:A I *D sg13g2_buf_1
*CAP
1 FrameData[14] 0.000382424
2 *1222:A 0.000382424
3 *1222:A *1233:A 0
4 *1211:A *1222:A 0
*RES
1 FrameData[14] *1222:A 43.4814 
*END

*D_NET *8 0.00171203
*CONN
*P FrameData[15] I
*I *1233:A I *D sg13g2_buf_1
*CAP
1 FrameData[15] 0.000601115
2 *1233:A 0.000601115
3 *1233:A *1244:A 0
4 *1233:A *19:17 0
5 *1233:A *23:23 0.000177298
6 *1233:A *575:24 0
7 *1233:A *577:8 0
8 *1233:A *599:10 0.000332504
9 *1222:A *1233:A 0
*RES
1 FrameData[15] *1233:A 46.0152 
*END

*D_NET *9 0.000985437
*CONN
*P FrameData[16] I
*I *1244:A I *D sg13g2_buf_2
*CAP
1 FrameData[16] 0.000412634
2 *1244:A 0.000412634
3 *1244:A *1177:A 0
4 *1244:A *1255:A 0
5 *1244:A *497:16 8.00842e-05
6 *1244:A *575:16 8.00842e-05
7 *1233:A *1244:A 0
*RES
1 FrameData[16] *1244:A 43.6977 
*END

*D_NET *10 0.00215847
*CONN
*P FrameData[17] I
*I *1255:A I *D sg13g2_buf_1
*CAP
1 FrameData[17] 0.000504945
2 *1255:A 0.000504945
3 *1255:A *1167:A 0
4 *1255:A *1177:A 0.000811312
5 *1255:A *19:17 7.98567e-05
6 *1255:A *23:23 0.000209641
7 *1255:A *497:16 0
8 *1255:A *497:20 4.77702e-05
9 *1244:A *1255:A 0
*RES
1 FrameData[17] *1255:A 45.768 
*END

*D_NET *11 0.00123768
*CONN
*P FrameData[18] I
*I *1167:A I *D sg13g2_buf_1
*CAP
1 FrameData[18] 0.000366677
2 *1167:A 0.000366677
3 *1167:A *1169:A 0
4 *1167:A *19:9 0.000112315
5 *1167:A *520:16 0.000112541
6 *1167:A *610:10 0.000279469
7 *1255:A *1167:A 0
*RES
1 FrameData[18] *1167:A 43.914 
*END

*D_NET *12 0.00161837
*CONN
*P FrameData[19] I
*I *1169:A I *D sg13g2_buf_1
*CAP
1 FrameData[19] 0.000535402
2 *1169:A 0.000535402
3 *1169:A *1171:A 0
4 *1169:A *19:9 0.000273053
5 *1169:A *387:12 0
6 *1169:A *520:16 0.000274508
7 *1169:A *610:10 0
8 *1167:A *1169:A 0
*RES
1 FrameData[19] *1169:A 45.3148 
*END

*D_NET *13 0.00641244
*CONN
*P FrameData[1] I
*I *1170:A I *D sg13g2_buf_1
*CAP
1 FrameData[1] 0.00125441
2 *1170:A 0
3 *13:33 0.000696804
4 *13:19 0.000825322
5 *13:13 0.00138293
6 *13:13 *1196:A 0
7 *13:13 *1198:A 0.000208035
8 *13:13 *24:9 0
9 *13:13 *185:11 0.000301237
10 *13:13 *186:11 0
11 *13:13 *461:44 0
12 *13:13 *565:10 0
13 *13:13 *567:14 4.77425e-05
14 *13:13 *569:10 0
15 *13:13 *571:8 0.000175693
16 *13:13 *576:14 0.000486187
17 *13:19 *410:12 0.000243966
18 *13:19 *498:26 0.000244084
19 *13:33 *1074:A 8.01995e-05
20 *13:33 *1133:A 0
21 *13:33 *184:23 0
22 *13:33 *344:28 1.54008e-05
23 *13:33 *398:24 0.000144352
24 *13:33 *491:18 0
25 *13:33 *491:42 0.000306081
26 *13:33 *507:14 0
27 *13:33 *531:71 0
28 *2:9 *13:13 0
*RES
1 FrameData[1] *13:13 32.9539 
2 *13:13 *13:19 41.6171 
3 *13:19 *13:33 46.3516 
4 *13:33 *1170:A 20 
*END

*D_NET *14 0.00196383
*CONN
*P FrameData[20] I
*I *1171:A I *D sg13g2_buf_1
*CAP
1 FrameData[20] 0.000662048
2 *1171:A 0.000662048
3 *1171:A *1172:A 0
4 *1171:A *16:9 0.000176393
5 *1171:A *21:13 0.000176393
6 *1171:A *22:19 0
7 *1171:A *405:8 0
8 *1171:A *497:24 0.000286945
9 *1171:A *610:10 0
10 *1169:A *1171:A 0
*RES
1 FrameData[20] *1171:A 46.3242 
*END

*D_NET *15 0.00299828
*CONN
*P FrameData[21] I
*I *1172:A I *D sg13g2_buf_1
*CAP
1 FrameData[21] 0.000716687
2 *1172:A 0.000716687
3 *1172:A *1174:A 7.50885e-05
4 *1172:A *1340:A 8.00842e-05
5 *1172:A *16:9 0
6 *1172:A *22:19 0.000964058
7 *1172:A *398:8 0
8 *1172:A *431:18 0.000148731
9 *1172:A *497:71 0.000181192
10 *1172:A *567:34 7.30101e-05
11 *1172:A *575:24 4.27468e-05
12 *1171:A *1172:A 0
*RES
1 FrameData[21] *1172:A 48.1447 
*END

*D_NET *16 0.00257842
*CONN
*P FrameData[22] I
*I *1173:A I *D sg13g2_buf_1
*CAP
1 FrameData[22] 0.00116097
2 *1173:A 0
3 *16:9 0.00116097
4 *16:9 *1334:A 8.00842e-05
5 *16:9 *1340:A 0
6 *16:9 *17:17 0
7 *16:9 *21:13 0
8 *16:9 *398:8 0
9 *16:9 *520:22 0
10 *16:9 *575:24 0
11 *1171:A *16:9 0.000176393
12 *1172:A *16:9 0
*RES
1 FrameData[22] *16:9 30.0322 
2 *16:9 *1173:A 20 
*END

*D_NET *17 0.00407313
*CONN
*P FrameData[23] I
*I *1174:A I *D sg13g2_buf_1
*CAP
1 FrameData[23] 0.000731922
2 *1174:A 0.000412635
3 *17:17 0.00114456
4 *1174:A *21:21 4.77425e-05
5 *1174:A *387:12 0.00049264
6 *1174:A *482:30 0
7 *1174:A *575:24 0
8 *1174:A *575:30 0.000124547
9 *17:17 *1175:A 0
10 *17:17 *19:9 0
11 *17:17 *23:23 0.000471708
12 *17:17 *497:20 7.98841e-05
13 *17:17 *497:71 0.000208035
14 *17:17 *539:12 0.000284374
15 *1172:A *1174:A 7.50885e-05
16 *16:9 *17:17 0
*RES
1 FrameData[23] *17:17 47.8074 
2 *17:17 *1174:A 44.5938 
*END

*D_NET *18 0.00115566
*CONN
*P FrameData[24] I
*I *1175:A I *D sg13g2_buf_2
*CAP
1 FrameData[24] 0.000469153
2 *1175:A 0.000469153
3 *1175:A *19:9 0.000144027
4 *1175:A *22:11 0
5 *1175:A *520:22 7.33256e-05
6 *1175:A *565:14 0
7 *1175:A *565:24 0
8 *17:17 *1175:A 0
*RES
1 FrameData[24] *1175:A 44.5629 
*END

*D_NET *19 0.00455071
*CONN
*P FrameData[25] I
*I *1176:A I *D sg13g2_buf_1
*CAP
1 FrameData[25] 0.00104158
2 *1176:A 0
3 *19:23 0.000178122
4 *19:17 0.000550635
5 *19:9 0.0014141
6 *19:9 *20:11 0
7 *19:9 *21:13 0
8 *19:9 *387:12 4.79124e-05
9 *19:9 *464:8 0
10 *19:9 *480:44 0
11 *19:9 *497:16 0.000144055
12 *19:9 *497:20 0
13 *19:9 *497:71 0
14 *19:9 *520:16 0
15 *19:9 *565:24 0.000232082
16 *19:17 *497:16 7.98567e-05
17 *19:17 *566:10 0
18 *19:17 *599:10 0.000241955
19 *19:17 *610:10 0
20 *19:23 *566:10 0
21 *19:23 *577:8 0
22 *1167:A *19:9 0.000112315
23 *1169:A *19:9 0.000273053
24 *1175:A *19:9 0.000144027
25 *1211:A *19:17 1.11656e-05
26 *1233:A *19:17 0
27 *1255:A *19:17 7.98567e-05
28 *17:17 *19:9 0
*RES
1 FrameData[25] *19:9 30.0013 
2 *19:9 *19:17 43.5123 
3 *19:17 *19:23 41.339 
4 *19:23 *1176:A 20 
*END

*D_NET *20 0.00458565
*CONN
*P FrameData[26] I
*I *1177:A I *D sg13g2_buf_1
*CAP
1 FrameData[26] 0.000807995
2 *1177:A 0.000548379
3 *20:11 0.00135637
4 *1177:A *21:21 0.000282875
5 *1177:A *544:20 0.000124855
6 *1177:A *575:24 0.000653861
7 *20:11 *21:13 0
8 *20:11 *22:11 0
9 *20:11 *565:14 0
10 *20:11 *610:14 0
11 *1244:A *1177:A 0
12 *1255:A *1177:A 0.000811312
13 *19:9 *20:11 0
*RES
1 FrameData[26] *20:11 48.549 
2 *20:11 *1177:A 47.0246 
*END

*D_NET *21 0.00509369
*CONN
*P FrameData[27] I
*I *1179:A I *D sg13g2_buf_1
*CAP
1 FrameData[27] 0.00154286
2 *1179:A 0
3 *21:21 0.000357456
4 *21:13 0.00190032
5 *21:13 *1338:A 0.000273415
6 *21:13 *22:11 0
7 *21:13 *23:23 4.78853e-05
8 *21:13 *123:16 0.000144142
9 *21:13 *126:18 0
10 *21:13 *130:20 0
11 *21:13 *464:8 0
12 *21:13 *538:8 0
13 *21:13 *539:12 0
14 *21:21 *442:10 4.75166e-05
15 *21:21 *453:10 0
16 *21:21 *475:22 0.000145116
17 *21:21 *572:16 4.7885e-05
18 *21:21 *575:24 8.00842e-05
19 *1171:A *21:13 0.000176393
20 *1174:A *21:21 4.77425e-05
21 *1177:A *21:21 0.000282875
22 *16:9 *21:13 0
23 *19:9 *21:13 0
24 *20:11 *21:13 0
*RES
1 FrameData[27] *21:13 34.3479 
2 *21:13 *21:21 43.8213 
3 *21:21 *1179:A 20 
*END

*D_NET *22 0.00643129
*CONN
*P FrameData[28] I
*I *1180:A I *D sg13g2_buf_1
*CAP
1 FrameData[28] 0.000760317
2 *1180:A 0
3 *22:19 0.00083245
4 *22:11 0.00159277
5 *22:11 *23:23 0
6 *22:11 *480:44 0
7 *22:11 *565:14 0
8 *22:19 *1336:A 0.000176484
9 *22:19 *1341:A 0.000208035
10 *22:19 *405:8 0.000444238
11 *22:19 *485:14 0.000540849
12 *22:19 *491:42 0.0001655
13 *22:19 *503:22 0.000267713
14 *22:19 *567:34 0.000478874
15 *1171:A *22:19 0
16 *1172:A *22:19 0.000964058
17 *1175:A *22:11 0
18 *20:11 *22:11 0
19 *21:13 *22:11 0
*RES
1 FrameData[28] *22:11 48.0546 
2 *22:11 *22:19 30.9386 
3 *22:19 *1180:A 20 
*END

*D_NET *23 0.00605795
*CONN
*P FrameData[29] I
*I *1181:A I *D sg13g2_buf_1
*CAP
1 FrameData[29] 0.00202923
2 *1181:A 0
3 *23:23 0.00202923
4 *23:23 *1183:A 0
5 *23:23 *1184:A 0.000144358
6 *23:23 *123:10 0.000273997
7 *23:23 *174:13 0
8 *23:23 *475:22 0
9 *23:23 *480:44 0.000371022
10 *23:23 *497:20 0
11 *23:23 *538:8 0
12 *23:23 *539:12 0
13 *23:23 *544:10 0.00011101
14 *23:23 *566:10 0.000112426
15 *23:23 *577:20 0
16 *23:23 *588:10 8.01575e-05
17 *1189:A *23:23 0
18 *1233:A *23:23 0.000177298
19 *1255:A *23:23 0.000209641
20 *17:17 *23:23 0.000471708
21 *21:13 *23:23 4.78853e-05
22 *22:11 *23:23 0
*RES
1 FrameData[29] *23:23 40.183 
2 *23:23 *1181:A 20 
*END

*D_NET *24 0.0456943
*CONN
*P FrameData[2] I
*I *1182:A I *D sg13g2_buf_1
*CAP
1 FrameData[2] 0.000286188
2 *1182:A 0
3 *24:87 0
4 *24:83 0.00165682
5 *24:77 0.00236428
6 *24:67 0.00189452
7 *24:61 0.00173663
8 *24:53 0.00130984
9 *24:45 0.00159462
10 *24:37 0.00180397
11 *24:33 0.00169224
12 *24:25 0.0013343
13 *24:15 0.0028306
14 *24:9 0.00250509
15 *24:9 *27:11 0
16 *24:9 *565:10 0
17 *24:15 *114:16 0
18 *24:15 *349:22 0
19 *24:15 *379:22 0.000431058
20 *24:15 *419:12 0
21 *24:15 *425:16 0
22 *24:15 *428:12 0
23 *24:15 *498:26 0
24 *24:15 *509:14 0
25 *24:15 *529:10 0.0015173
26 *24:15 *539:20 0
27 *24:15 *542:16 0
28 *24:15 *545:20 0
29 *24:15 *571:16 0
30 *24:15 *573:14 0
31 *24:15 *577:32 0
32 *24:25 *130:34 0
33 *24:25 *150:32 0.000544928
34 *24:25 *481:10 0.000705898
35 *24:25 *511:14 7.30101e-05
36 *24:25 *528:8 0.000913544
37 *24:25 *556:28 0.000126358
38 *24:33 *148:12 0.00071714
39 *24:33 *158:28 0.000644753
40 *24:33 *428:18 0.000182539
41 *24:33 *442:41 0
42 *24:33 *471:50 0.000613327
43 *24:33 *471:60 0.0011976
44 *24:37 *143:24 0.00280912
45 *24:37 *145:22 0
46 *24:37 *152:24 0.000612226
47 *24:37 *253:24 0.00018265
48 *24:37 *513:54 0
49 *24:37 *530:40 0
50 *24:37 *552:20 0.000503364
51 *24:45 *420:22 0.000505735
52 *24:45 *493:16 0.0010914
53 *24:45 *519:28 0
54 *24:53 *892:A2 0.000547365
55 *24:53 *158:42 0.000140714
56 *24:53 *415:40 0.00170609
57 *24:53 *616:22 0
58 *24:61 *163:14 0
59 *24:61 *252:24 0.000267621
60 *24:61 *555:64 0
61 *24:67 *391:48 7.67467e-05
62 *24:67 *406:58 0
63 *24:67 *413:52 0.000270151
64 *24:67 *424:38 1.52665e-05
65 *24:67 *428:72 0.000235965
66 *24:67 *499:22 0
67 *24:67 *541:46 0.000131139
68 *24:67 *541:52 0
69 *24:67 *543:52 0.000524081
70 *24:67 *590:22 0
71 *24:67 *611:18 0
72 *24:77 *407:38 0.00101429
73 *24:77 *418:60 0.000546119
74 *24:77 *464:86 0.000907364
75 *24:77 *517:14 0.00027171
76 *24:77 *578:28 0.000335821
77 *24:77 *603:36 0
78 *24:83 *390:26 0
79 *24:83 *416:30 0
80 *24:83 *425:52 0.000396782
81 *24:83 *428:92 0.000428208
82 *24:83 *428:96 0.00349781
83 *24:83 *434:20 0
84 *24:83 *531:16 0
85 *13:13 *24:9 0
*RES
1 FrameData[2] *24:9 43.1621 
2 *24:9 *24:15 41.7433 
3 *24:15 *24:25 48.1885 
4 *24:25 *24:33 49.9704 
5 *24:33 *24:37 34.1934 
6 *24:37 *24:45 48.8271 
7 *24:45 *24:53 48.9816 
8 *24:53 *24:61 43.9205 
9 *24:61 *24:67 31.2373 
10 *24:67 *24:77 49.6408 
11 *24:77 *24:83 39.982 
12 *24:83 *24:87 40 
13 *24:87 *1182:A 40 
*END

*D_NET *25 0.000954072
*CONN
*P FrameData[30] I
*I *1183:A I *D sg13g2_buf_2
*CAP
1 FrameData[30] 0.000477036
2 *1183:A 0.000477036
3 *1183:A *1184:A 0
4 *23:23 *1183:A 0
*RES
1 FrameData[30] *1183:A 44.9955 
*END

*D_NET *26 0.00140512
*CONN
*P FrameData[31] I
*I *1184:A I *D sg13g2_buf_2
*CAP
1 FrameData[31] 0.000622655
2 *1184:A 0.000622655
3 *1184:A *123:16 0
4 *1184:A *126:18 0
5 *1184:A *539:12 1.54556e-05
6 *1183:A *1184:A 0
7 *23:23 *1184:A 0.000144358
*RES
1 FrameData[31] *1184:A 47.0967 
*END

*D_NET *27 0.00517099
*CONN
*P FrameData[3] I
*I *1185:A I *D sg13g2_buf_1
*CAP
1 FrameData[3] 0.000856256
2 *1185:A 0.000597079
3 *27:11 0.00145333
4 *1185:A *498:20 0.000144306
5 *1185:A *520:8 0
6 *1185:A *564:16 0
7 *1185:A *572:16 0
8 *27:11 *1188:A 0
9 *27:11 *28:9 0
10 *27:11 *174:13 0
11 *27:11 *565:10 7.34081e-05
12 *27:11 *565:14 0.0010514
13 *27:11 *575:16 0.000662695
14 *1189:A *1185:A 0.000332509
15 *2:17 *1185:A 0
16 *24:9 *27:11 0
*RES
1 FrameData[3] *27:11 49.7238 
2 *27:11 *1185:A 45.5208 
*END

*D_NET *28 0.00356808
*CONN
*P FrameData[4] I
*I *1186:A I *D sg13g2_buf_1
*CAP
1 FrameData[4] 0.00144292
2 *1186:A 0
3 *28:9 0.00144292
4 *28:9 *1194:A 0
5 *28:9 *1207:A 0.000176206
6 *28:9 *29:11 0
7 *28:9 *176:29 0
8 *28:9 *187:13 7.34778e-05
9 *28:9 *564:16 0.000143982
10 *28:9 *565:10 0
11 *28:9 *572:16 0.000288584
12 *28:9 *577:20 0
13 *27:11 *28:9 0
*RES
1 FrameData[4] *28:9 33.3694 
2 *28:9 *1186:A 20 
*END

*D_NET *29 0.00268731
*CONN
*P FrameData[5] I
*I *1187:A I *D sg13g2_buf_1
*CAP
1 FrameData[5] 0.00122833
2 *1187:A 0
3 *29:11 0.00122833
4 *29:11 *1188:A 0
5 *29:11 *176:29 0
6 *29:11 *540:18 0
7 *29:11 *543:8 0
8 *29:11 *567:14 0
9 *29:11 *572:16 0.000230651
10 *29:11 *575:10 0
11 *28:9 *29:11 0
*RES
1 FrameData[5] *29:11 31.1858 
2 *29:11 *1187:A 20 
*END

*D_NET *30 0.000892972
*CONN
*P FrameData[6] I
*I *1188:A I *D sg13g2_buf_1
*CAP
1 FrameData[6] 0.000409823
2 *1188:A 0.000409823
3 *1188:A *1190:A 0
4 *1188:A *174:13 0
5 *1188:A *575:10 7.33256e-05
6 *1188:A *610:22 0
7 *27:11 *1188:A 0
8 *29:11 *1188:A 0
*RES
1 FrameData[6] *1188:A 43.914 
*END

*D_NET *31 0.00122368
*CONN
*P FrameData[7] I
*I *1190:A I *D sg13g2_buf_1
*CAP
1 FrameData[7] 0.000555497
2 *1190:A 0.000555497
3 *1190:A *1191:A 0
4 *1190:A *1192:A 0
5 *1190:A *174:13 0.000112684
6 *1190:A *545:10 0
7 *1190:A *610:22 0
8 *1188:A *1190:A 0
*RES
1 FrameData[7] *1190:A 44.9028 
*END

*D_NET *32 0.000718865
*CONN
*P FrameData[8] I
*I *1191:A I *D sg13g2_buf_1
*CAP
1 FrameData[8] 0.000359433
2 *1191:A 0.000359433
3 *1191:A *1192:A 0
4 *1190:A *1191:A 0
*RES
1 FrameData[8] *1191:A 43.4814 
*END

*D_NET *33 0.00121848
*CONN
*P FrameData[9] I
*I *1192:A I *D sg13g2_buf_1
*CAP
1 FrameData[9] 0.000553124
2 *1192:A 0.000553124
3 *1192:A *174:13 0.000112228
4 *1192:A *577:20 0
5 *1192:A *599:20 0
6 *1178:A *1192:A 0
7 *1190:A *1192:A 0
8 *1191:A *1192:A 0
*RES
1 FrameData[9] *1192:A 44.9028 
*END

*D_NET *34 0.00133197
*CONN
*P FrameData_O[0] O
*I *1266:X O *D sg13g2_buf_1
*CAP
1 FrameData_O[0] 0.000665985
2 *1266:X 0.000665985
3 FrameData_O[0] FrameData_O[1] 0
4 FrameData_O[0] *1098:A 0
5 FrameData_O[0] *75:17 0
*RES
1 *1266:X FrameData_O[0] 46.2089 
*END

*D_NET *35 0.000660946
*CONN
*P FrameData_O[10] O
*I *1267:X O *D sg13g2_buf_1
*CAP
1 FrameData_O[10] 0.000330473
2 *1267:X 0.000330473
3 FrameData_O[10] FrameData_O[11] 0
4 FrameData_O[10] FrameData_O[9] 0
5 FrameData_O[10] *1098:A 0
*RES
1 *1267:X FrameData_O[10] 43.6977 
*END

*D_NET *36 0.00084202
*CONN
*P FrameData_O[11] O
*I *1268:X O *D sg13g2_buf_1
*CAP
1 FrameData_O[11] 0.00042101
2 *1268:X 0.00042101
3 FrameData_O[11] FrameData_O[12] 0
4 FrameData_O[11] FrameData_O[13] 0
5 FrameData_O[11] FrameData_O[9] 0
6 FrameData_O[11] *1098:A 0
7 FrameData_O[10] FrameData_O[11] 0
*RES
1 *1268:X FrameData_O[11] 44.6865 
*END

*D_NET *37 0.000660805
*CONN
*P FrameData_O[12] O
*I *1269:X O *D sg13g2_buf_1
*CAP
1 FrameData_O[12] 0.000330403
2 *1269:X 0.000330403
3 FrameData_O[12] FrameData_O[13] 0
4 FrameData_O[12] *1098:A 0
5 FrameData_O[11] FrameData_O[12] 0
*RES
1 *1269:X FrameData_O[12] 43.6977 
*END

*D_NET *38 0.000888861
*CONN
*P FrameData_O[13] O
*I *1270:X O *D sg13g2_buf_1
*CAP
1 FrameData_O[13] 0.00044443
2 *1270:X 0.00044443
3 FrameData_O[13] FrameData_O[14] 0
4 FrameData_O[13] FrameData_O[15] 0
5 FrameData_O[13] *1098:A 0
6 FrameData_O[11] FrameData_O[13] 0
7 FrameData_O[12] FrameData_O[13] 0
*RES
1 *1270:X FrameData_O[13] 44.9028 
*END

*D_NET *39 0.000560524
*CONN
*P FrameData_O[14] O
*I *1271:X O *D sg13g2_buf_1
*CAP
1 FrameData_O[14] 0.000280262
2 *1271:X 0.000280262
3 FrameData_O[14] FrameData_O[15] 0
4 FrameData_O[13] FrameData_O[14] 0
*RES
1 *1271:X FrameData_O[14] 43.1621 
*END

*D_NET *40 0.000921154
*CONN
*P FrameData_O[15] O
*I *1272:X O *D sg13g2_buf_1
*CAP
1 FrameData_O[15] 0.000460577
2 *1272:X 0.000460577
3 FrameData_O[15] FrameData_O[16] 0
4 FrameData_O[15] *1098:A 0
5 FrameData_O[15] *412:26 0
6 FrameData_O[13] FrameData_O[15] 0
7 FrameData_O[14] FrameData_O[15] 0
*RES
1 *1272:X FrameData_O[15] 45.1191 
*END

*D_NET *41 0.000547815
*CONN
*P FrameData_O[16] O
*I *1273:X O *D sg13g2_buf_1
*CAP
1 FrameData_O[16] 0.000273908
2 *1273:X 0.000273908
3 FrameData_O[16] FrameData_O[17] 0
4 FrameData_O[16] FrameData_O[18] 0
5 FrameData_O[15] FrameData_O[16] 0
*RES
1 *1273:X FrameData_O[16] 43.1621 
*END

*D_NET *42 0.00143613
*CONN
*P FrameData_O[17] O
*I *1274:X O *D sg13g2_buf_1
*CAP
1 FrameData_O[17] 0.00036614
2 *1274:X 0.000234145
3 *42:10 0.000600286
4 FrameData_O[17] FrameData_O[18] 0
5 *42:10 FrameData_O[18] 0
6 *42:10 FrameData_O[19] 0.000235556
7 *42:10 FrameData_O[20] 0
8 *42:10 *414:68 0
9 *42:10 *450:10 0
10 FrameData_O[16] FrameData_O[17] 0
*RES
1 *1274:X *42:10 42.6162 
2 *42:10 FrameData_O[17] 44.0067 
*END

*D_NET *43 0.00061132
*CONN
*P FrameData_O[18] O
*I *1275:X O *D sg13g2_buf_1
*CAP
1 FrameData_O[18] 0.00030566
2 *1275:X 0.00030566
3 FrameData_O[18] FrameData_O[19] 0
4 FrameData_O[18] *414:68 0
5 FrameData_O[16] FrameData_O[18] 0
6 FrameData_O[17] FrameData_O[18] 0
7 *42:10 FrameData_O[18] 0
*RES
1 *1275:X FrameData_O[18] 43.4814 
*END

*D_NET *44 0.00107906
*CONN
*P FrameData_O[19] O
*I *1276:X O *D sg13g2_buf_1
*CAP
1 FrameData_O[19] 0.000421755
2 *1276:X 0.000421755
3 FrameData_O[19] FrameData_O[20] 0
4 FrameData_O[19] *450:10 0
5 FrameData_O[18] FrameData_O[19] 0
6 *42:10 FrameData_O[19] 0.000235556
*RES
1 *1276:X FrameData_O[19] 44.7689 
*END

*D_NET *45 0.00159631
*CONN
*P FrameData_O[1] O
*I *1277:X O *D sg13g2_buf_1
*CAP
1 FrameData_O[1] 0.00069399
2 *1277:X 0.00069399
3 FrameData_O[1] FrameData_O[2] 0
4 FrameData_O[1] *75:17 0.000208326
5 FrameData_O[0] FrameData_O[1] 0
*RES
1 *1277:X FrameData_O[1] 47.5293 
*END

*D_NET *46 0.0009202
*CONN
*P FrameData_O[20] O
*I *1278:X O *D sg13g2_buf_1
*CAP
1 FrameData_O[20] 0.0004601
2 *1278:X 0.0004601
3 FrameData_O[20] FrameData_O[21] 0
4 FrameData_O[20] FrameData_O[22] 0
5 FrameData_O[20] *1278:A 0
6 FrameData_O[20] *415:58 0
7 FrameData_O[19] FrameData_O[20] 0
8 *42:10 FrameData_O[20] 0
*RES
1 *1278:X FrameData_O[20] 44.6865 
*END

*D_NET *47 0.000908707
*CONN
*P FrameData_O[21] O
*I *1279:X O *D sg13g2_buf_1
*CAP
1 FrameData_O[21] 0.000454353
2 *1279:X 0.000454353
3 FrameData_O[21] FrameData_O[22] 0
4 FrameData_O[21] *1278:A 0
5 FrameData_O[21] *1279:A 0
6 FrameData_O[21] *450:10 0
7 FrameData_O[20] FrameData_O[21] 0
*RES
1 *1279:X FrameData_O[21] 44.7792 
*END

*D_NET *48 0.00105522
*CONN
*P FrameData_O[22] O
*I *1280:X O *D sg13g2_buf_1
*CAP
1 FrameData_O[22] 0.000463456
2 *1280:X 0.000463456
3 FrameData_O[22] FrameData_O[23] 0
4 FrameData_O[22] FrameData_O[24] 0
5 FrameData_O[22] *1279:A 0
6 FrameData_O[22] *415:58 0
7 FrameData_O[22] *418:80 0.000128307
8 FrameData_O[22] *450:10 0
9 FrameData_O[20] FrameData_O[22] 0
10 FrameData_O[21] FrameData_O[22] 0
*RES
1 *1280:X FrameData_O[22] 45.1088 
*END

*D_NET *49 0.000974985
*CONN
*P FrameData_O[23] O
*I *1281:X O *D sg13g2_buf_1
*CAP
1 FrameData_O[23] 0.000479765
2 *1281:X 0.000479765
3 FrameData_O[23] FrameData_O[24] 0
4 FrameData_O[23] FrameData_O[25] 1.54556e-05
5 FrameData_O[23] *1279:A 0
6 FrameData_O[23] *419:74 0
7 FrameData_O[23] *421:30 0
8 FrameData_O[22] FrameData_O[23] 0
*RES
1 *1281:X FrameData_O[23] 45.0985 
*END

*D_NET *50 0.00111987
*CONN
*P FrameData_O[24] O
*I *1282:X O *D sg13g2_buf_1
*CAP
1 FrameData_O[24] 0.000495995
2 *1282:X 0.000495995
3 FrameData_O[24] FrameData_O[25] 0
4 FrameData_O[24] *58:10 0
5 FrameData_O[24] *418:80 0
6 FrameData_O[24] *421:30 0.000127878
7 FrameData_O[24] *422:52 0
8 FrameData_O[22] FrameData_O[24] 0
9 FrameData_O[23] FrameData_O[24] 0
*RES
1 *1282:X FrameData_O[24] 45.1191 
*END

*D_NET *51 0.00108153
*CONN
*P FrameData_O[25] O
*I *1283:X O *D sg13g2_buf_1
*CAP
1 FrameData_O[25] 0.000533037
2 *1283:X 0.000533037
3 FrameData_O[25] FrameData_O[26] 0
4 FrameData_O[25] FrameData_O[29] 0
5 FrameData_O[25] *58:10 0
6 FrameData_O[25] *421:30 0
7 FrameData_O[25] *450:10 0
8 FrameData_O[23] FrameData_O[25] 1.54556e-05
9 FrameData_O[24] FrameData_O[25] 0
*RES
1 *1283:X FrameData_O[25] 45.3148 
*END

*D_NET *52 0.00139991
*CONN
*P FrameData_O[26] O
*I *1284:X O *D sg13g2_buf_1
*CAP
1 FrameData_O[26] 0.000476349
2 *1284:X 0.000476349
3 FrameData_O[26] FrameData_O[27] 0
4 FrameData_O[26] *55:8 0.000447216
5 FrameData_O[26] *58:10 0
6 FrameData_O[26] *450:10 0
7 FrameData_O[25] FrameData_O[26] 0
*RES
1 *1284:X FrameData_O[26] 45.5414 
*END

*D_NET *53 0.00108509
*CONN
*P FrameData_O[27] O
*I *1285:X O *D sg13g2_buf_1
*CAP
1 FrameData_O[27] 0.000542546
2 *1285:X 0.000542546
3 FrameData_O[27] FrameData_O[28] 0
4 FrameData_O[27] *55:8 0
5 FrameData_O[26] FrameData_O[27] 0
*RES
1 *1285:X FrameData_O[27] 45.562 
*END

*D_NET *54 0.00141783
*CONN
*P FrameData_O[28] O
*I *1286:X O *D sg13g2_buf_1
*CAP
1 FrameData_O[28] 0.000594434
2 *1286:X 0.000594434
3 FrameData_O[28] FrameData_O[29] 0
4 FrameData_O[28] FrameData_O[30] 0
5 FrameData_O[28] *1285:A 4.77699e-05
6 FrameData_O[28] *426:24 0
7 FrameData_O[28] *450:14 0.000181192
8 FrameData_O[27] FrameData_O[28] 0
*RES
1 *1286:X FrameData_O[28] 46.6641 
*END

*D_NET *55 0.00207873
*CONN
*P FrameData_O[29] O
*I *1287:X O *D sg13g2_buf_1
*CAP
1 FrameData_O[29] 0.000510008
2 *1287:X 0.00030575
3 *55:8 0.000815758
4 FrameData_O[29] FrameData_O[30] 0
5 FrameData_O[29] FrameData_O[31] 0
6 *55:8 *58:10 0
7 FrameData_O[25] FrameData_O[29] 0
8 FrameData_O[26] *55:8 0.000447216
9 FrameData_O[27] *55:8 0
10 FrameData_O[28] FrameData_O[29] 0
*RES
1 *1287:X *55:8 43.0694 
2 *55:8 FrameData_O[29] 44.8719 
*END

*D_NET *56 0.00156952
*CONN
*P FrameData_O[2] O
*I *1288:X O *D sg13g2_buf_1
*CAP
1 FrameData_O[2] 0.000720213
2 *1288:X 0.000720213
3 FrameData_O[2] FrameData_O[3] 0
4 FrameData_O[2] *1277:A 0
5 FrameData_O[2] *74:11 0
6 FrameData_O[2] *416:48 0.000129089
7 FrameData_O[2] *432:68 0
8 FrameData_O[1] FrameData_O[2] 0
*RES
1 *1288:X FrameData_O[2] 47.6529 
*END

*D_NET *57 0.00144245
*CONN
*P FrameData_O[30] O
*I *1289:X O *D sg13g2_buf_1
*CAP
1 FrameData_O[30] 0.000721226
2 *1289:X 0.000721226
3 FrameData_O[30] FrameData_O[31] 0
4 FrameData_O[30] *450:14 0
5 FrameData_O[28] FrameData_O[30] 0
6 FrameData_O[29] FrameData_O[30] 0
*RES
1 *1289:X FrameData_O[30] 48.5181 
*END

*D_NET *58 0.00262427
*CONN
*P FrameData_O[31] O
*I *1290:X O *D sg13g2_buf_1
*CAP
1 FrameData_O[31] 0.00064592
2 *1290:X 0.000626104
3 *58:10 0.00127202
4 *58:10 *1285:A 8.02267e-05
5 *58:10 *421:30 0
6 *58:10 *426:24 0
7 *58:10 *450:14 0
8 FrameData_O[24] *58:10 0
9 FrameData_O[25] *58:10 0
10 FrameData_O[26] *58:10 0
11 FrameData_O[29] FrameData_O[31] 0
12 FrameData_O[30] FrameData_O[31] 0
13 *55:8 *58:10 0
*RES
1 *1290:X *58:10 45.0882 
2 *58:10 FrameData_O[31] 46.5405 
*END

*D_NET *59 0.000938887
*CONN
*P FrameData_O[3] O
*I *1291:X O *D sg13g2_buf_1
*CAP
1 FrameData_O[3] 0.000429259
2 *1291:X 0.000429259
3 FrameData_O[3] FrameData_O[4] 0
4 FrameData_O[3] *1098:A 8.03692e-05
5 FrameData_O[2] FrameData_O[3] 0
*RES
1 *1291:X FrameData_O[3] 44.6865 
*END

*D_NET *60 0.00133703
*CONN
*P FrameData_O[4] O
*I *1292:X O *D sg13g2_buf_1
*CAP
1 FrameData_O[4] 0.000630908
2 *1292:X 0.000630908
3 FrameData_O[4] FrameData_O[5] 0
4 FrameData_O[4] *1098:A 0
5 FrameData_O[4] *74:11 0
6 FrameData_O[4] *404:14 7.52149e-05
7 FrameData_O[4] *432:68 0
8 FrameData_O[4] *435:24 0
9 FrameData_O[3] FrameData_O[4] 0
*RES
1 *1292:X FrameData_O[4] 46.6332 
*END

*D_NET *61 0.000878365
*CONN
*P FrameData_O[5] O
*I *1293:X O *D sg13g2_buf_1
*CAP
1 FrameData_O[5] 0.000439183
2 *1293:X 0.000439183
3 FrameData_O[5] FrameData_O[6] 0
4 FrameData_O[5] *1098:A 0
5 FrameData_O[5] *1294:A 0
6 FrameData_O[4] FrameData_O[5] 0
*RES
1 *1293:X FrameData_O[5] 44.5629 
*END

*D_NET *62 0.000564682
*CONN
*P FrameData_O[6] O
*I *1294:X O *D sg13g2_buf_1
*CAP
1 FrameData_O[6] 0.000282341
2 *1294:X 0.000282341
3 FrameData_O[6] FrameData_O[7] 0
4 FrameData_O[5] FrameData_O[6] 0
*RES
1 *1294:X FrameData_O[6] 43.1621 
*END

*D_NET *63 0.000962503
*CONN
*P FrameData_O[7] O
*I *1295:X O *D sg13g2_buf_1
*CAP
1 FrameData_O[7] 0.000481252
2 *1295:X 0.000481252
3 FrameData_O[7] FrameData_O[8] 0
4 FrameData_O[7] FrameData_O[9] 0
5 FrameData_O[7] *1098:A 0
6 FrameData_O[7] *435:24 0
7 FrameData_O[7] *437:70 0
8 FrameData_O[6] FrameData_O[7] 0
*RES
1 *1295:X FrameData_O[7] 45.3251 
*END

*D_NET *64 0.000560524
*CONN
*P FrameData_O[8] O
*I *1296:X O *D sg13g2_buf_1
*CAP
1 FrameData_O[8] 0.000280262
2 *1296:X 0.000280262
3 FrameData_O[8] FrameData_O[9] 0
4 FrameData_O[7] FrameData_O[8] 0
*RES
1 *1296:X FrameData_O[8] 43.1621 
*END

*D_NET *65 0.00077306
*CONN
*P FrameData_O[9] O
*I *1297:X O *D sg13g2_buf_1
*CAP
1 FrameData_O[9] 0.00038653
2 *1297:X 0.00038653
3 FrameData_O[9] *437:70 0
4 FrameData_O[10] FrameData_O[9] 0
5 FrameData_O[11] FrameData_O[9] 0
6 FrameData_O[7] FrameData_O[9] 0
7 FrameData_O[8] FrameData_O[9] 0
*RES
1 *1297:X FrameData_O[9] 44.5732 
*END

*D_NET *66 0.02133
*CONN
*P FrameStrobe[0] I
*I *1165:A I *D sg13g2_buf_8
*I *1163:A I *D sg13g2_buf_2
*CAP
1 FrameStrobe[0] 0.000941962
2 *1165:A 0
3 *1163:A 0
4 *66:67 0.000567818
5 *66:59 0.000674446
6 *66:55 0.000767692
7 *66:45 0.00124996
8 *66:37 0.00134574
9 *66:25 0.00138897
10 *66:13 0.00157409
11 *66:13 *78:17 0
12 *66:13 *108:10 0.000337402
13 *66:13 *246:14 0.000180624
14 *66:13 *386:48 0.0010296
15 *66:13 *386:61 0.000106566
16 *66:13 *416:48 0.00060457
17 *66:13 *468:28 0.000128662
18 *66:13 *477:18 0
19 *66:25 *282:14 0.000336984
20 *66:25 *402:30 0.000443055
21 *66:25 *424:38 0.000870359
22 *66:25 *464:72 0.000918807
23 *66:25 *549:33 0.000176692
24 *66:25 *584:18 0.000336991
25 *66:37 *982:GATE 0.000122823
26 *66:37 *263:16 0.000337242
27 *66:37 *397:46 0
28 *66:37 *407:24 0.000607177
29 *66:37 *516:8 0
30 *66:37 *539:40 0.000783947
31 *66:45 *923:A0 0.000338453
32 *66:45 *411:52 0.000112426
33 *66:45 *539:40 0
34 *66:45 *559:37 0.00139529
35 *66:55 *902:S0 0
36 *66:55 *902:A0 0.000262316
37 *66:55 *416:20 0
38 *66:55 *501:18 0.000395078
39 *66:55 *556:96 0.000603122
40 *66:55 *556:106 0.000593998
41 *66:59 *894:S1 0.000143908
42 *66:59 *559:41 0
43 *66:67 *927:A0 0.000860596
44 *66:67 *558:12 0
45 *66:67 *560:53 0.000177998
46 *66:67 *562:22 0
47 *66:67 *574:37 0.000176252
48 *66:67 *580:38 0
49 *66:67 *599:40 0.000438417
*RES
1 FrameStrobe[0] *66:13 31.1961 
2 *66:13 *66:25 49.6511 
3 *66:25 *66:37 48.8786 
4 *66:37 *66:45 47.2821 
5 *66:45 *66:55 47.8177 
6 *66:55 *66:59 20.9682 
7 *66:59 *66:67 46.8186 
8 *66:67 *1163:A 20 
9 *66:59 *1165:A 20 
*END

*D_NET *67 0.00506561
*CONN
*P FrameStrobe[10] I
*I *1089:A I *D sg13g2_buf_1
*CAP
1 FrameStrobe[10] 0.00123426
2 *1089:A 0.000159762
3 *67:9 0.00139402
4 *1089:A *1099:A 0
5 *1089:A *393:10 0.000240816
6 *1089:A *620:14 0
7 *67:9 *1086:A 0.000370355
8 *67:9 *68:17 0
9 *67:9 *433:20 0
10 *67:9 *436:20 0.00161869
11 *67:9 *437:70 4.77083e-05
12 *67:9 *446:22 0
13 *67:9 *448:12 0
14 *67:9 *457:10 0
*RES
1 FrameStrobe[10] *67:9 34.6054 
2 *67:9 *1089:A 41.6171 
*END

*D_NET *68 0.00353066
*CONN
*P FrameStrobe[11] I
*I *1090:A I *D sg13g2_buf_1
*CAP
1 FrameStrobe[11] 0.00149228
2 *1090:A 0
3 *68:17 0.00149228
4 *68:17 *1085:A 0.000466844
5 *68:17 *1086:A 0
6 *68:17 *1087:A 0
7 *68:17 *411:68 0
8 *68:17 *430:10 0
9 *68:17 *437:70 0
10 *68:17 *457:10 7.92524e-05
11 *68:17 *459:6 0
12 *67:9 *68:17 0
*RES
1 FrameStrobe[11] *68:17 34.1899 
2 *68:17 *1090:A 40 
*END

*D_NET *69 0.00369257
*CONN
*P FrameStrobe[12] I
*I *1091:A I *D sg13g2_buf_1
*CAP
1 FrameStrobe[12] 0.00136495
2 *1091:A 0
3 *69:9 0.00136495
4 *69:9 *1087:A 0
5 *69:9 *1092:A 0
6 *69:9 *1095:A 0.000143875
7 *69:9 *71:13 0
8 *69:9 *425:68 0
9 *69:9 *444:6 0
10 *69:9 *447:6 0.000818797
11 *69:9 *537:12 0
*RES
1 FrameStrobe[12] *69:9 33.8329 
2 *69:9 *1091:A 40 
*END

*D_NET *70 0.00166206
*CONN
*P FrameStrobe[13] I
*I *1092:A I *D sg13g2_buf_1
*CAP
1 FrameStrobe[13] 0.000533239
2 *1092:A 0.000533239
3 *1092:A *1084:A 0.000595577
4 *1092:A *1095:A 0
5 *69:9 *1092:A 0
*RES
1 FrameStrobe[13] *1092:A 25.5517 
*END

*D_NET *71 0.00336431
*CONN
*P FrameStrobe[14] I
*I *1093:A I *D sg13g2_buf_1
*CAP
1 FrameStrobe[14] 0.000754533
2 *1093:A 0
3 *71:13 0.000754533
4 *71:13 *1082:A 0
5 *71:13 *1087:A 0
6 *71:13 *1094:A 0
7 *71:13 *72:9 0
8 *71:13 *73:9 0.000820897
9 *71:13 *404:14 0.00103434
10 *69:9 *71:13 0
*RES
1 FrameStrobe[14] *71:13 49.6099 
2 *71:13 *1093:A 20 
*END

*D_NET *72 0.00472991
*CONN
*P FrameStrobe[15] I
*I *1094:A I *D sg13g2_buf_1
*CAP
1 FrameStrobe[15] 0.000815426
2 *1094:A 8.04716e-05
3 *72:9 0.000895897
4 *1094:A *1087:A 0
5 *72:9 *73:9 0.00125576
6 *72:9 *435:24 0.00168236
7 *71:13 *1094:A 0
8 *71:13 *72:9 0
*RES
1 FrameStrobe[15] *72:9 31.8244 
2 *72:9 *1094:A 40.7519 
*END

*D_NET *73 0.00481873
*CONN
*P FrameStrobe[16] I
*I *1095:A I *D sg13g2_buf_1
*CAP
1 FrameStrobe[16] 0.000934409
2 *1095:A 9.9014e-05
3 *73:9 0.00103342
4 *73:9 *1083:A 0.000531347
5 *73:9 *74:11 0
6 *73:9 *404:14 0
7 *73:9 *435:24 0
8 *1092:A *1095:A 0
9 *69:9 *1095:A 0.000143875
10 *71:13 *73:9 0.000820897
11 *72:9 *73:9 0.00125576
*RES
1 FrameStrobe[16] *73:9 31.6081 
2 *73:9 *1095:A 40.9682 
*END

*D_NET *74 0.00727978
*CONN
*P FrameStrobe[17] I
*I *1096:A I *D sg13g2_buf_1
*CAP
1 FrameStrobe[17] 0.0012463
2 *1096:A 0
3 *74:11 0.0012463
4 *74:11 *1083:A 0
5 *74:11 *1277:A 0
6 *74:11 *75:17 0
7 *74:11 *242:19 0.00162219
8 *74:11 *433:20 0
9 *74:11 *435:24 0.00316499
10 *74:11 *446:10 0
11 FrameData_O[2] *74:11 0
12 FrameData_O[4] *74:11 0
13 *73:9 *74:11 0
*RES
1 FrameStrobe[17] *74:11 39.4099 
2 *74:11 *1096:A 40 
*END

*D_NET *75 0.00235609
*CONN
*P FrameStrobe[18] I
*I *1097:A I *D sg13g2_buf_1
*CAP
1 FrameStrobe[18] 0.000697114
2 *1097:A 0
3 *75:17 0.000697114
4 *75:17 *1083:A 0
5 *75:17 *1098:A 0
6 *75:17 *1277:A 0.000144685
7 *75:17 *404:14 0.000608855
8 *75:17 *435:24 0
9 FrameData_O[0] *75:17 0
10 FrameData_O[1] *75:17 0.000208326
11 *74:11 *75:17 0
*RES
1 FrameStrobe[18] *75:17 48.0855 
2 *75:17 *1097:A 20 
*END

*D_NET *76 0.00379671
*CONN
*P FrameStrobe[19] I
*I *1098:A I *D sg13g2_buf_1
*CAP
1 FrameStrobe[19] 0.00151129
2 *1098:A 0.00151129
3 *1098:A *1292:A 0
4 *1098:A *404:14 0
5 *1098:A *426:24 0
6 *1098:A *537:8 0.00069377
7 FrameData_O[0] *1098:A 0
8 FrameData_O[10] *1098:A 0
9 FrameData_O[11] *1098:A 0
10 FrameData_O[12] *1098:A 0
11 FrameData_O[13] *1098:A 0
12 FrameData_O[15] *1098:A 0
13 FrameData_O[3] *1098:A 8.03692e-05
14 FrameData_O[4] *1098:A 0
15 FrameData_O[5] *1098:A 0
16 FrameData_O[7] *1098:A 0
17 *75:17 *1098:A 0
*RES
1 FrameStrobe[19] *1098:A 36.0577 
*END

*D_NET *77 0.0117234
*CONN
*P FrameStrobe[1] I
*I *1160:A I *D sg13g2_buf_8
*CAP
1 FrameStrobe[1] 0.000211773
2 *1160:A 8.76075e-05
3 *77:35 0.000665969
4 *77:23 0.00132794
5 *77:15 0.00336475
6 *77:9 0.00282695
7 *1160:A *941:A1 0
8 *77:9 *109:8 0
9 *77:15 *1011:D 0
10 *77:15 *403:14 0.0011857
11 *77:15 *429:16 0
12 *77:15 *432:56 0
13 *77:15 *433:16 0
14 *77:15 *546:149 0
15 *77:15 *549:90 0.000234224
16 *77:15 *603:16 0
17 *77:15 *611:12 0
18 *77:15 *619:14 0
19 *77:23 *1003:D 0.00030506
20 *77:23 *420:46 0.000111568
21 *77:23 *426:8 0
22 *77:23 *471:26 0.000390483
23 *77:23 *514:10 0
24 *77:23 *541:71 0.000444878
25 *77:23 *589:8 0.000497152
26 *77:23 *592:14 0
27 *77:35 *917:S 0
28 *77:35 *1019:GATE 6.93947e-05
29 *77:35 *1117:A 0
30 *77:35 *365:10 0
31 *77:35 *388:35 0
32 *77:35 *604:20 0
*RES
1 FrameStrobe[1] *77:9 41.8952 
2 *77:9 *77:15 41.4343 
3 *77:15 *77:23 48.24 
4 *77:23 *77:35 44.8616 
5 *77:35 *1160:A 40.7519 
*END

*D_NET *78 0.00618896
*CONN
*P FrameStrobe[2] I
*I *1155:A I *D sg13g2_buf_8
*CAP
1 FrameStrobe[2] 0.000783513
2 *1155:A 3.47831e-05
3 *78:17 0.000268174
4 *78:9 0.0010169
5 *78:9 I_top15 0
6 *78:9 I_top8 0.00205201
7 *78:9 *79:9 0
8 *78:9 *109:8 0
9 *78:9 *432:62 0.000340688
10 *78:9 *571:28 0
11 *78:9 *620:40 0.000985512
12 *78:17 I_top8 0.000500014
13 *78:17 *246:14 0.000127505
14 *78:17 *394:24 7.98582e-05
15 *66:13 *78:17 0
*RES
1 FrameStrobe[2] *78:9 31.3353 
2 *78:9 *78:17 42.8634 
3 *78:17 *1155:A 40.3193 
*END

*D_NET *79 0.0107994
*CONN
*P FrameStrobe[3] I
*I *1082:A I *D sg13g2_buf_1
*CAP
1 FrameStrobe[3] 0.00111626
2 *1082:A 0.000472615
3 *79:9 0.00158887
4 *1082:A *242:15 0
5 *79:9 I_top13 0
6 *79:9 I_top14 0
7 *79:9 I_top15 0
8 *79:9 *80:9 0.00412827
9 *79:9 *81:9 0.0034934
10 *79:9 *242:9 0
11 *79:9 *416:48 0
12 *71:13 *1082:A 0
13 *78:9 *79:9 0
*RES
1 FrameStrobe[3] *79:9 41.7124 
2 *79:9 *1082:A 44.2127 
*END

*D_NET *80 0.0119623
*CONN
*P FrameStrobe[4] I
*I *1083:A I *D sg13g2_buf_1
*CAP
1 FrameStrobe[4] 0.00121334
2 *1083:A 0.00045387
3 *80:9 0.00166721
4 *80:9 *242:9 0.00396825
5 *80:9 *416:48 0
6 *73:9 *1083:A 0.000531347
7 *74:11 *1083:A 0
8 *75:17 *1083:A 0
9 *79:9 *80:9 0.00412827
*RES
1 FrameStrobe[4] *80:9 44.4625 
2 *80:9 *1083:A 44.7792 
*END

*D_NET *81 0.00759125
*CONN
*P FrameStrobe[5] I
*I *1084:A I *D sg13g2_buf_1
*CAP
1 FrameStrobe[5] 0.00112174
2 *1084:A 0.000331613
3 *81:9 0.00145335
4 *1084:A *242:15 0.000595577
5 *81:9 *82:9 0
6 *81:9 *416:48 0
7 *81:9 *432:62 0
8 *1092:A *1084:A 0.000595577
9 *79:9 *81:9 0.0034934
*RES
1 FrameStrobe[5] *81:9 36.9847 
2 *81:9 *1084:A 43.9964 
*END

*D_NET *82 0.00414294
*CONN
*P FrameStrobe[6] I
*I *1085:A I *D sg13g2_buf_1
*CAP
1 FrameStrobe[6] 0.00104135
2 *1085:A 0.000284544
3 *82:9 0.00132589
4 *1085:A *1087:A 0.000241753
5 *82:9 *83:15 0
6 *82:9 *416:48 0.000782558
7 *68:17 *1085:A 0.000466844
8 *81:9 *82:9 0
*RES
1 FrameStrobe[6] *82:9 30.9283 
2 *82:9 *1085:A 43.1312 
*END

*D_NET *83 0.00367277
*CONN
*P FrameStrobe[7] I
*I *1086:A I *D sg13g2_buf_1
*CAP
1 FrameStrobe[7] 0.000833765
2 *1086:A 0.000237887
3 *83:15 0.00107165
4 *83:15 *84:11 0
5 *83:15 *416:48 0.00115911
6 *83:15 *432:68 0
7 *67:9 *1086:A 0.000370355
8 *68:17 *1086:A 0
9 *82:9 *83:15 0
*RES
1 FrameStrobe[7] *83:15 48.8168 
2 *83:15 *1086:A 22.4823 
*END

*D_NET *84 0.0040675
*CONN
*P FrameStrobe[8] I
*I *1087:A I *D sg13g2_buf_1
*CAP
1 FrameStrobe[8] 0.000859594
2 *1087:A 0.000455425
3 *84:11 0.00131502
4 *1087:A *445:8 0
5 *84:11 *1088:A 0
6 *84:11 *404:14 0.00119571
7 *84:11 *432:68 0
8 *1085:A *1087:A 0.000241753
9 *1094:A *1087:A 0
10 *68:17 *1087:A 0
11 *69:9 *1087:A 0
12 *71:13 *1087:A 0
13 *83:15 *84:11 0
*RES
1 FrameStrobe[8] *84:11 48.7344 
2 *84:11 *1087:A 24.4805 
*END

*D_NET *85 0.00290115
*CONN
*P FrameStrobe[9] I
*I *1088:A I *D sg13g2_buf_1
*CAP
1 FrameStrobe[9] 0.00133017
2 *1088:A 0.00133017
3 *1088:A *390:10 0
4 *1088:A *441:6 0.000240813
5 *1088:A *448:12 0
6 *1088:A *452:12 0
7 *1088:A *457:14 0
8 *84:11 *1088:A 0
*RES
1 FrameStrobe[9] *1088:A 30.3611 
*END

*D_NET *86 0.00333454
*CONN
*P FrameStrobe_O[0] O
*I *1298:X O *D sg13g2_buf_1
*CAP
1 FrameStrobe_O[0] 0.00101596
2 *1298:X 0.00012979
3 *86:8 0.00114575
4 FrameStrobe_O[0] FrameStrobe_O[1] 4.77425e-05
5 FrameStrobe_O[0] UserCLKo 0
6 FrameStrobe_O[0] *1246:A 0.000466999
7 FrameStrobe_O[0] *230:23 1.54008e-05
8 FrameStrobe_O[0] *232:13 0
9 FrameStrobe_O[0] *234:21 0.000111846
10 FrameStrobe_O[0] *241:35 4.75425e-05
11 FrameStrobe_O[0] *607:12 4.75166e-05
12 FrameStrobe_O[0] *609:18 4.77347e-05
13 FrameStrobe_O[0] *617:8 8.00444e-05
14 *86:8 *230:23 0
15 *86:8 *231:13 0
16 *86:8 *429:30 0.000178206
17 *86:8 *608:14 0
*RES
1 *1298:X *86:8 41.339 
2 *86:8 FrameStrobe_O[0] 29.5069 
*END

*D_NET *87 0.00243681
*CONN
*P FrameStrobe_O[10] O
*I *1299:X O *D sg13g2_buf_1
*CAP
1 FrameStrobe_O[10] 0.000207058
2 *1299:X 0.000617983
3 *87:10 0.000825041
4 FrameStrobe_O[10] FrameStrobe_O[11] 0
5 FrameStrobe_O[10] FrameStrobe_O[9] 0
6 *87:10 FrameStrobe_O[19] 0
7 *87:10 *90:10 0
8 *87:10 *99:10 0.000711511
9 *87:10 *240:9 7.52149e-05
10 *87:10 *243:8 0
*RES
1 *1299:X *87:10 46.4787 
2 *87:10 FrameStrobe_O[10] 21.6789 
*END

*D_NET *88 0.0022375
*CONN
*P FrameStrobe_O[11] O
*I *1300:X O *D sg13g2_buf_1
*CAP
1 FrameStrobe_O[11] 0.000837507
2 *1300:X 0.000837507
3 FrameStrobe_O[11] FrameStrobe_O[12] 0
4 FrameStrobe_O[11] FrameStrobe_O[14] 4.75166e-05
5 FrameStrobe_O[11] *1253:A 8.03146e-05
6 FrameStrobe_O[11] *1265:A 0.000177069
7 FrameStrobe_O[11] *390:10 1.54008e-05
8 FrameStrobe_O[11] *452:12 0.000242186
9 FrameStrobe_O[11] *457:14 0
10 FrameStrobe_O[10] FrameStrobe_O[11] 0
*RES
1 *1300:X FrameStrobe_O[11] 28.3018 
*END

*D_NET *89 0.00322272
*CONN
*P FrameStrobe_O[12] O
*I *1301:X O *D sg13g2_buf_1
*CAP
1 FrameStrobe_O[12] 0.0002621
2 *1301:X 0.000758123
3 *89:20 0.00102022
4 FrameStrobe_O[12] FrameStrobe_O[13] 0
5 *89:20 FrameStrobe_O[17] 0
6 *89:20 FrameStrobe_O[18] 0.000256151
7 *89:20 FrameStrobe_O[19] 0.000111037
8 *89:20 *90:10 0.000605447
9 *89:20 *243:8 0
10 *89:20 *448:12 0
11 *89:20 *458:12 0.000209641
12 FrameStrobe_O[11] FrameStrobe_O[12] 0
*RES
1 *1301:X *89:20 48.3533 
2 *89:20 FrameStrobe_O[12] 22.1115 
*END

*D_NET *90 0.00286921
*CONN
*P FrameStrobe_O[13] O
*I *1302:X O *D sg13g2_buf_1
*CAP
1 FrameStrobe_O[13] 0.000249645
2 *1302:X 0.000389118
3 *90:10 0.000638764
4 FrameStrobe_O[13] FrameStrobe_O[14] 0
5 FrameStrobe_O[13] *1253:A 0.000273507
6 *90:10 *92:10 0
7 *90:10 *93:10 0.000712728
8 *90:10 *103:12 0
9 *90:10 *243:8 0
10 FrameStrobe_O[12] FrameStrobe_O[13] 0
11 *87:10 *90:10 0
12 *89:20 *90:10 0.000605447
*RES
1 *1302:X *90:10 45.3354 
2 *90:10 FrameStrobe_O[13] 22.3278 
*END

*D_NET *91 0.00246432
*CONN
*P FrameStrobe_O[14] O
*I *1303:X O *D sg13g2_buf_1
*CAP
1 FrameStrobe_O[14] 0.000797695
2 *1303:X 0.000797695
3 FrameStrobe_O[14] FrameStrobe_O[15] 0
4 FrameStrobe_O[14] *1253:A 0.000434915
5 FrameStrobe_O[14] *105:10 0.000144284
6 FrameStrobe_O[14] *454:18 0
7 FrameStrobe_O[14] *457:14 0.000242213
8 FrameStrobe_O[11] FrameStrobe_O[14] 4.75166e-05
9 FrameStrobe_O[13] FrameStrobe_O[14] 0
*RES
1 *1303:X FrameStrobe_O[14] 27.6014 
*END

*D_NET *92 0.00243479
*CONN
*P FrameStrobe_O[15] O
*I *1304:X O *D sg13g2_buf_1
*CAP
1 FrameStrobe_O[15] 0.000442727
2 *1304:X 0.000304504
3 *92:10 0.000747231
4 FrameStrobe_O[15] FrameStrobe_O[16] 0
5 FrameStrobe_O[15] FrameStrobe_O[17] 0
6 FrameStrobe_O[15] *99:10 0
7 FrameStrobe_O[15] *454:18 0
8 *92:10 *93:10 0
9 *92:10 *103:12 0.000392939
10 *92:10 *440:18 0.000209614
11 *92:10 *454:18 0.00012816
12 *92:10 *458:12 0.000209614
13 FrameStrobe_O[14] FrameStrobe_O[15] 0
14 *90:10 *92:10 0
*RES
1 *1304:X *92:10 43.9758 
2 *92:10 FrameStrobe_O[15] 23.6256 
*END

*D_NET *93 0.00264921
*CONN
*P FrameStrobe_O[16] O
*I *1305:X O *D sg13g2_buf_1
*CAP
1 FrameStrobe_O[16] 0.000295229
2 *1305:X 0.00028137
3 *93:10 0.000576599
4 FrameStrobe_O[16] FrameStrobe_O[17] 0
5 FrameStrobe_O[16] *99:10 0.000175693
6 *93:10 *96:8 0.000607587
7 FrameStrobe_O[15] FrameStrobe_O[16] 0
8 *90:10 *93:10 0.000712728
9 *92:10 *93:10 0
*RES
1 *1305:X *93:10 44.6247 
2 *93:10 FrameStrobe_O[16] 22.5441 
*END

*D_NET *94 0.00218884
*CONN
*P FrameStrobe_O[17] O
*I *1306:X O *D sg13g2_buf_1
*CAP
1 FrameStrobe_O[17] 0.00074093
2 *1306:X 0.00074093
3 FrameStrobe_O[17] FrameStrobe_O[18] 0.000177299
4 FrameStrobe_O[17] *99:10 0.000208062
5 FrameStrobe_O[17] *454:18 8.00842e-05
6 FrameStrobe_O[17] *458:12 0
7 FrameStrobe_O[17] *460:8 0.00024154
8 FrameStrobe_O[15] FrameStrobe_O[17] 0
9 FrameStrobe_O[16] FrameStrobe_O[17] 0
10 *89:20 FrameStrobe_O[17] 0
*RES
1 *1306:X FrameStrobe_O[17] 26.9222 
*END

*D_NET *95 0.00217662
*CONN
*P FrameStrobe_O[18] O
*I *1307:X O *D sg13g2_buf_1
*CAP
1 FrameStrobe_O[18] 0.000552565
2 *1307:X 0.000148694
3 *95:8 0.000701259
4 FrameStrobe_O[18] FrameStrobe_O[19] 0
5 *95:8 *96:8 0
6 *95:8 *443:12 0.000340648
7 *95:8 *454:10 0
8 FrameStrobe_O[17] FrameStrobe_O[18] 0.000177299
9 *89:20 FrameStrobe_O[18] 0.000256151
*RES
1 *1307:X *95:8 42.0806 
2 *95:8 FrameStrobe_O[18] 24.9234 
*END

*D_NET *96 0.00183592
*CONN
*P FrameStrobe_O[19] O
*I *1308:X O *D sg13g2_buf_1
*CAP
1 FrameStrobe_O[19] 0.000291085
2 *1308:X 0.000267565
3 *96:8 0.00055865
4 FrameStrobe_O[18] FrameStrobe_O[19] 0
5 *87:10 FrameStrobe_O[19] 0
6 *89:20 FrameStrobe_O[19] 0.000111037
7 *93:10 *96:8 0.000607587
8 *95:8 *96:8 0
*RES
1 *1308:X *96:8 43.811 
2 *96:8 FrameStrobe_O[19] 22.7604 
*END

*D_NET *97 0.00364876
*CONN
*P FrameStrobe_O[1] O
*I *1309:X O *D sg13g2_buf_1
*CAP
1 FrameStrobe_O[1] 0.000584182
2 *1309:X 0.000589482
3 *97:14 0.00117366
4 FrameStrobe_O[1] FrameStrobe_O[2] 0
5 FrameStrobe_O[1] *1247:A 0.000402316
6 FrameStrobe_O[1] *1263:A 4.75151e-05
7 FrameStrobe_O[1] *617:8 8.00444e-05
8 *97:14 FrameStrobe_O[8] 4.77425e-05
9 *97:14 *1264:A 0.000144542
10 *97:14 *1309:A 0
11 *97:14 *102:8 0.000181192
12 *97:14 *214:23 7.50134e-05
13 *97:14 *227:9 0
14 *97:14 *232:13 0
15 *97:14 *389:8 8.00425e-05
16 *97:14 *397:10 0
17 *97:14 *401:22 1.54008e-05
18 *97:14 *604:20 0.000179878
19 *97:14 *620:14 0
20 FrameStrobe_O[0] FrameStrobe_O[1] 4.77425e-05
*RES
1 *1309:X *97:14 45.6058 
2 *97:14 FrameStrobe_O[1] 25.4822 
*END

*D_NET *98 0.00347441
*CONN
*P FrameStrobe_O[2] O
*I *1310:X O *D sg13g2_buf_1
*CAP
1 FrameStrobe_O[2] 0.000449208
2 *1310:X 0.000491666
3 *98:10 0.000940874
4 FrameStrobe_O[2] FrameStrobe_O[3] 0
5 FrameStrobe_O[2] FrameStrobe_O[4] 0
6 FrameStrobe_O[2] *1234:A 0
7 FrameStrobe_O[2] *1247:A 0.000402316
8 FrameStrobe_O[2] *604:10 7.94462e-05
9 *98:10 *101:10 0
10 *98:10 *102:8 0
11 *98:10 *105:10 0.000341216
12 *98:10 *215:13 0
13 *98:10 *390:10 0.000111759
14 *98:10 *397:10 0.000657923
15 *98:10 *402:10 0
16 *98:10 *604:20 0
17 FrameStrobe_O[1] FrameStrobe_O[2] 0
*RES
1 *1310:X *98:10 45.7989 
2 *98:10 FrameStrobe_O[2] 24.2745 
*END

*D_NET *99 0.00334835
*CONN
*P FrameStrobe_O[3] O
*I *1311:X O *D sg13g2_buf_1
*CAP
1 FrameStrobe_O[3] 0.000181305
2 *1311:X 0.000695544
3 *99:10 0.000876849
4 FrameStrobe_O[3] FrameStrobe_O[4] 0
5 *99:10 *226:9 0.000499383
6 *99:10 *240:9 0
7 FrameStrobe_O[15] *99:10 0
8 FrameStrobe_O[16] *99:10 0.000175693
9 FrameStrobe_O[17] *99:10 0.000208062
10 FrameStrobe_O[2] FrameStrobe_O[3] 0
11 *87:10 *99:10 0.000711511
*RES
1 *1311:X *99:10 48.1782 
2 *99:10 FrameStrobe_O[3] 21.4626 
*END

*D_NET *100 0.00292168
*CONN
*P FrameStrobe_O[4] O
*I *1312:X O *D sg13g2_buf_1
*CAP
1 FrameStrobe_O[4] 0.00102103
2 *1312:X 0.00102103
3 FrameStrobe_O[4] FrameStrobe_O[5] 0
4 FrameStrobe_O[4] *1234:A 0.000176365
5 FrameStrobe_O[4] *1251:A 8.02267e-05
6 FrameStrobe_O[4] *1260:A 0.000175693
7 FrameStrobe_O[4] *392:10 4.78498e-05
8 FrameStrobe_O[4] *396:8 0.000175721
9 FrameStrobe_O[4] *604:10 0
10 FrameStrobe_O[4] *608:14 0.000223771
11 FrameStrobe_O[4] *620:14 0
12 FrameStrobe_O[2] FrameStrobe_O[4] 0
13 FrameStrobe_O[3] FrameStrobe_O[4] 0
*RES
1 *1312:X FrameStrobe_O[4] 29.9601 
*END

*D_NET *101 0.00267521
*CONN
*P FrameStrobe_O[5] O
*I *1313:X O *D sg13g2_buf_1
*CAP
1 FrameStrobe_O[5] 0.00048723
2 *1313:X 0.000565082
3 *101:10 0.00105231
4 FrameStrobe_O[5] FrameStrobe_O[6] 0
5 FrameStrobe_O[5] *608:14 1.54556e-05
6 *101:10 FrameStrobe_O[9] 4.75166e-05
7 *101:10 *1309:A 0
8 *101:10 *103:12 0.000287672
9 *101:10 *105:10 7.51285e-05
10 *101:10 *393:10 0.000144815
11 *101:10 *402:10 0
12 FrameStrobe_O[4] FrameStrobe_O[5] 0
13 *98:10 *101:10 0
*RES
1 *1313:X *101:10 45.2427 
2 *101:10 FrameStrobe_O[5] 23.8419 
*END

*D_NET *102 0.00247663
*CONN
*P FrameStrobe_O[6] O
*I *1314:X O *D sg13g2_buf_1
*CAP
1 FrameStrobe_O[6] 0.000593674
2 *1314:X 0.000442327
3 *102:8 0.001036
4 FrameStrobe_O[6] FrameStrobe_O[7] 0
5 FrameStrobe_O[6] *608:14 4.77425e-05
6 FrameStrobe_O[6] *620:14 0.000175693
7 *102:8 *104:10 0
8 *102:8 *105:10 0
9 *102:8 *397:10 0
10 *102:8 *419:74 0
11 FrameStrobe_O[5] FrameStrobe_O[6] 0
12 *97:14 *102:8 0.000181192
13 *98:10 *102:8 0
*RES
1 *1314:X *102:8 44.0582 
2 *102:8 FrameStrobe_O[6] 24.9234 
*END

*D_NET *103 0.0031486
*CONN
*P FrameStrobe_O[7] O
*I *1315:X O *D sg13g2_buf_1
*CAP
1 FrameStrobe_O[7] 0.000406501
2 *1315:X 0.000489228
3 *103:12 0.000895729
4 FrameStrobe_O[7] FrameStrobe_O[8] 0
5 FrameStrobe_O[7] *1250:A 0.000338307
6 *103:12 *105:10 0.00033823
7 *103:12 *243:8 0
8 FrameStrobe_O[6] FrameStrobe_O[7] 0
9 *90:10 *103:12 0
10 *92:10 *103:12 0.000392939
11 *101:10 *103:12 0.000287672
*RES
1 *1315:X *103:12 46.2109 
2 *103:12 FrameStrobe_O[7] 23.6256 
*END

*D_NET *104 0.00274607
*CONN
*P FrameStrobe_O[8] O
*I *1316:X O *D sg13g2_buf_1
*CAP
1 FrameStrobe_O[8] 0.00059248
2 *1316:X 0.000338131
3 *104:10 0.000930611
4 FrameStrobe_O[8] FrameStrobe_O[9] 0
5 FrameStrobe_O[8] *1250:A 0.000338307
6 FrameStrobe_O[8] *397:10 0.00011101
7 *104:10 *1257:A 4.77425e-05
8 *104:10 *232:13 0.000340051
9 *104:10 *390:10 0
10 *104:10 *402:10 0
11 FrameStrobe_O[7] FrameStrobe_O[8] 0
12 *97:14 FrameStrobe_O[8] 4.77425e-05
13 *102:8 *104:10 0
*RES
1 *1316:X *104:10 43.2342 
2 *104:10 FrameStrobe_O[8] 25.356 
*END

*D_NET *105 0.00301689
*CONN
*P FrameStrobe_O[9] O
*I *1317:X O *D sg13g2_buf_1
*CAP
1 FrameStrobe_O[9] 0.000460058
2 *1317:X 0.00037483
3 *105:10 0.000834888
4 FrameStrobe_O[9] *1261:A 0.000208941
5 FrameStrobe_O[9] *397:10 4.75166e-05
6 *105:10 *454:18 0.000144284
7 FrameStrobe_O[10] FrameStrobe_O[9] 0
8 FrameStrobe_O[14] *105:10 0.000144284
9 FrameStrobe_O[8] FrameStrobe_O[9] 0
10 *98:10 *105:10 0.000341216
11 *101:10 FrameStrobe_O[9] 4.75166e-05
12 *101:10 *105:10 7.51285e-05
13 *102:8 *105:10 0
14 *103:12 *105:10 0.00033823
*RES
1 *1317:X *105:10 44.532 
2 *105:10 FrameStrobe_O[9] 24.0582 
*END

*D_NET *106 0.0130785
*CONN
*P I_top0 O
*I *1318:X O *D sg13g2_buf_1
*CAP
1 I_top0 0.00104496
2 *1318:X 0.000166278
3 *106:22 0.00127957
4 *106:14 0.000712916
5 *106:8 0.000644585
6 I_top0 I_top1 0
7 I_top0 *919:S 0.000551519
8 I_top0 *314:8 0.000925158
9 I_top0 *425:32 0
10 I_top0 *453:30 0
11 I_top0 *470:40 0.00118624
12 I_top0 *568:46 0.00155445
13 I_top0 *588:107 0.000552762
14 *106:8 *184:17 0.000232971
15 *106:8 *189:19 0
16 *106:8 *363:8 0.000129659
17 *106:8 *578:14 0.000608173
18 *106:14 *115:20 0
19 *106:14 *578:22 0.00141691
20 *106:14 *579:18 0.00205742
21 *106:22 *476:64 0
22 *106:22 *505:58 1.4965e-05
*RES
1 *1318:X *106:8 42.8222 
2 *106:8 *106:14 49.4966 
3 *106:14 *106:22 41.751 
4 *106:22 I_top0 35.6869 
*END

*D_NET *107 0.0249791
*CONN
*P I_top1 O
*I *1319:X O *D sg13g2_buf_1
*CAP
1 I_top1 0.000178788
2 *1319:X 0.000204198
3 *107:48 0.000351566
4 *107:42 0.00104274
5 *107:38 0.00255294
6 *107:24 0.00329433
7 *107:16 0.00289344
8 *107:12 0.00148628
9 *107:12 *1197:A 0.000550177
10 *107:12 *176:29 8.79957e-05
11 *107:12 *186:11 0.000644293
12 *107:16 *398:24 0
13 *107:16 *541:14 0.000734956
14 *107:16 *542:12 0
15 *107:16 *545:16 0
16 *107:16 *567:18 0.00161184
17 *107:16 *579:16 0
18 *107:16 *580:14 0
19 *107:24 *149:18 0.000716877
20 *107:24 *428:18 0
21 *107:24 *476:56 0.000182786
22 *107:24 *484:36 0.00142546
23 *107:24 *488:70 0
24 *107:24 *501:30 0
25 *107:24 *512:22 0
26 *107:24 *517:48 0
27 *107:38 *373:14 0.000517788
28 *107:38 *473:12 0
29 *107:38 *498:51 0.000837088
30 *107:38 *505:58 0.000632067
31 *107:38 *541:24 1.52665e-05
32 *107:38 *543:28 0.000204783
33 *107:38 *607:40 0.000172097
34 *107:38 *607:51 9.55383e-05
35 *107:42 *118:20 0
36 *107:42 *461:16 0
37 *107:42 *484:24 0.00177894
38 *107:42 *531:16 0.00071686
39 *107:42 *542:16 0.00205005
40 I_top0 I_top1 0
*RES
1 *1319:X *107:12 43.7389 
2 *107:12 *107:16 33.5136 
3 *107:16 *107:24 36.8405 
4 *107:24 *107:38 34.7702 
5 *107:38 *107:42 34.1934 
6 *107:42 *107:48 41.1845 
7 *107:48 I_top1 21.6789 
*END

*D_NET *108 0.00962446
*CONN
*P I_top10 O
*I *1320:X O *D sg13g2_buf_1
*CAP
1 I_top10 6.48284e-05
2 *1320:X 0.00112555
3 *108:14 0.00091907
4 *108:10 0.0019798
5 *108:10 *1007:GATE 0.00014454
6 *108:10 *282:36 0
7 *108:10 *476:10 4.77425e-05
8 *108:10 *546:155 0
9 *108:10 *603:24 0.000304757
10 *108:14 I_top11 0.00263569
11 *108:14 I_top13 0
12 *108:14 *394:30 0.00188528
13 *108:14 *505:34 0.000179801
14 *108:14 *556:116 0
15 *66:13 *108:10 0.000337402
*RES
1 *1320:X *108:10 30.0734 
2 *108:10 *108:14 34.1934 
3 *108:14 I_top10 20.5974 
*END

*D_NET *109 0.00697232
*CONN
*P I_top11 O
*I *1321:X O *D sg13g2_buf_1
*CAP
1 I_top11 0.000796567
2 *1321:X 0.000229503
3 *109:8 0.00102607
4 I_top11 I_top13 0
5 I_top11 *242:9 0.00108905
6 I_top11 *556:116 0.00119544
7 *77:9 *109:8 0
8 *78:9 *109:8 0
9 *108:14 I_top11 0.00263569
*RES
1 *1321:X *109:8 40.6681 
2 *109:8 I_top11 35.3161 
*END

*D_NET *110 0.00383685
*CONN
*P I_top12 O
*I *1322:X O *D sg13g2_buf_1
*CAP
1 I_top12 0.000135056
2 *1322:X 0.000568439
3 *110:10 0.000703495
4 *110:10 I_top13 0.00113954
5 *110:10 I_top14 0.000714419
6 *110:10 *394:30 0
7 *110:10 *620:40 0.000575901
*RES
1 *1322:X *110:10 48.4563 
2 *110:10 I_top12 21.2463 
*END

*D_NET *111 0.00534449
*CONN
*P I_top13 O
*I *1323:X O *D sg13g2_buf_1
*CAP
1 I_top13 0.0015834
2 *1323:X 0.000177702
3 *111:8 0.00176111
4 I_top13 I_top14 0
5 I_top13 *242:9 0
6 I_top13 *394:30 0.000607524
7 I_top13 *571:24 7.52149e-05
8 I_top11 I_top13 0
9 *79:9 I_top13 0
10 *108:14 I_top13 0
11 *110:10 I_top13 0.00113954
*RES
1 *1323:X *111:8 41.4008 
2 *111:8 I_top13 35.965 
*END

*D_NET *112 0.00610636
*CONN
*P I_top14 O
*I *1324:X O *D sg13g2_buf_1
*CAP
1 I_top14 0.00127852
2 *1324:X 0.000130401
3 *112:8 0.00140893
4 I_top14 I_top15 0.00257409
5 I_top14 *556:120 0
6 I_top14 *620:40 0
7 I_top13 I_top14 0
8 *79:9 I_top14 0
9 *110:10 I_top14 0.000714419
*RES
1 *1324:X *112:8 40.9682 
2 *112:8 I_top14 35.4088 
*END

*D_NET *113 0.00693388
*CONN
*P I_top15 O
*I *1325:X O *D sg13g2_buf_1
*CAP
1 I_top15 0.000939416
2 *1325:X 0.000101763
3 *113:8 0.00104118
4 I_top15 *242:9 0
5 I_top15 *432:62 0.00161721
6 I_top15 *620:40 0.00066022
7 I_top14 I_top15 0.00257409
8 *78:9 I_top15 0
9 *79:9 I_top15 0
*RES
1 *1325:X *113:8 40.7519 
2 *113:8 I_top15 35.6251 
*END

*D_NET *114 0.0142989
*CONN
*P I_top2 O
*I *1326:X O *D sg13g2_buf_1
*CAP
1 I_top2 0.000525623
2 *1326:X 5.39897e-05
3 *114:32 0.000834886
4 *114:26 0.000903535
5 *114:16 0.00131694
6 *114:8 0.000776653
7 I_top2 *116:18 0.000128663
8 I_top2 *116:22 0.0020978
9 I_top2 *432:34 0.00231158
10 I_top2 *531:26 0
11 I_top2 *531:36 0
12 *114:8 *184:17 8.00842e-05
13 *114:16 *115:20 0
14 *114:16 *118:20 0.000663785
15 *114:16 *410:20 0.00109963
16 *114:16 *539:20 0
17 *114:16 *579:18 0
18 *114:26 *178:13 0.00165371
19 *114:26 *269:8 0.000285154
20 *114:26 *410:26 0
21 *114:26 *470:40 0.000283568
22 *114:26 *539:26 4.669e-05
23 *114:26 *568:46 0.00123664
24 *24:15 *114:16 0
*RES
1 *1326:X *114:8 40.5356 
2 *114:8 *114:16 48.3018 
3 *114:16 *114:26 49.9189 
4 *114:26 *114:32 42.329 
5 *114:32 I_top2 31.5463 
*END

*D_NET *115 0.0159461
*CONN
*P I_top3 O
*I *1327:X O *D sg13g2_buf_1
*CAP
1 I_top3 0.000539395
2 *1327:X 3.06411e-05
3 *115:34 0.00120395
4 *115:24 0.00176115
5 *115:20 0.00227088
6 *115:14 0.00124171
7 *115:8 9.80655e-05
8 I_top3 *117:8 0.00114479
9 I_top3 *377:14 0.000611502
10 I_top3 *394:30 0
11 I_top3 *411:40 0
12 I_top3 *453:42 0
13 *115:20 *118:20 0.00199926
14 *115:20 *419:18 0.00032923
15 *115:20 *425:28 0.00199908
16 *115:20 *484:24 0.000519047
17 *115:20 *578:22 0
18 *115:24 *119:22 0
19 *115:24 *361:20 0
20 *115:24 *561:14 0.00141103
21 *115:24 *606:18 0.000289526
22 *115:34 *361:14 1.4965e-05
23 *115:34 *394:40 0
24 *115:34 *502:22 0.000481872
25 *115:34 *576:34 0
26 *106:14 *115:20 0
27 *114:16 *115:20 0
*RES
1 *1327:X *115:8 40.3502 
2 *115:8 *115:14 40.5356 
3 *115:14 *115:20 36.274 
4 *115:20 *115:24 30.9798 
5 *115:24 *115:34 45.5311 
6 *115:34 I_top3 27.4057 
*END

*D_NET *116 0.0141393
*CONN
*P I_top4 O
*I *1328:X O *D sg13g2_buf_1
*CAP
1 I_top4 0.000109962
2 *1328:X 0.000234406
3 *116:22 0.000904595
4 *116:18 0.00170113
5 *116:12 0.00114091
6 I_top4 I_top5 0
7 *116:12 *473:24 1.54008e-05
8 *116:18 *189:11 0.0015697
9 *116:18 *432:34 0
10 *116:18 *498:32 0.00188962
11 *116:18 *498:51 0.000179801
12 *116:18 *531:36 0.00156538
13 *116:18 *576:14 0
14 *116:22 *377:14 0
15 *116:22 *394:30 0.000714418
16 *116:22 *411:40 0.00188748
17 *116:22 *432:34 0
18 *116:22 *531:26 0
19 I_top2 *116:18 0.000128663
20 I_top2 *116:22 0.0020978
*RES
1 *1328:X *116:12 42.1012 
2 *116:12 *116:18 35.7796 
3 *116:18 *116:22 33.699 
4 *116:22 I_top4 21.03 
*END

*D_NET *117 0.0145496
*CONN
*P I_top5 O
*I *1329:X O *D sg13g2_buf_1
*CAP
1 I_top5 0.000253873
2 *1329:X 0
3 *117:8 0.00214231
4 *117:6 0.00188844
5 I_top5 I_top6 0
6 I_top5 *974:GATE 0
7 I_top5 *556:116 0
8 *117:8 *919:S 0
9 *117:8 *181:9 0
10 *117:8 *186:11 0.000238133
11 *117:8 *263:26 0.001558
12 *117:8 *377:14 0
13 *117:8 *390:44 0.000664979
14 *117:8 *411:16 0.000450306
15 *117:8 *411:40 0
16 *117:8 *453:30 0.00235718
17 *117:8 *472:42 0.00151361
18 *117:8 *505:40 0.00172958
19 *117:8 *579:28 0.000608354
20 *117:8 *620:50 0
21 I_top3 *117:8 0.00114479
22 I_top4 I_top5 0
*RES
1 *1329:X *117:6 40 
2 *117:6 *117:8 30.7558 
3 *117:8 I_top5 22.3278 
*END

*D_NET *118 0.0159
*CONN
*P I_top6 O
*I *1330:X O *D sg13g2_buf_1
*CAP
1 I_top6 0.00035878
2 *1330:X 3.36489e-05
3 *118:30 0.00107566
4 *118:24 0.00205123
5 *118:20 0.00309507
6 *118:14 0.00180008
7 *118:8 7.30075e-05
8 I_top6 *411:52 0.000305545
9 I_top6 *556:116 0
10 *118:8 *470:52 0.000181646
11 *118:8 *568:12 0.000181825
12 *118:14 *410:20 4.63914e-05
13 *118:20 *119:16 0
14 *118:20 *349:12 0
15 *118:20 *425:28 0
16 *118:20 *484:24 0.000884152
17 *118:20 *539:20 0
18 *118:20 *542:16 0
19 *118:20 *542:22 0
20 *118:20 *578:22 0
21 *118:24 *409:38 0.00280723
22 *118:24 *418:52 0
23 *118:24 *509:28 0.000342688
24 *118:24 *542:22 0
25 *118:24 *614:14 0
26 *118:30 *119:22 0
27 *118:30 *439:28 0
28 *118:30 *484:14 0
29 I_top5 I_top6 0
30 *107:42 *118:20 0
31 *114:16 *118:20 0.000663785
32 *115:20 *118:20 0.00199926
*RES
1 *1330:X *118:8 40.8446 
2 *118:8 *118:14 40.3193 
3 *118:14 *118:20 39.3022 
4 *118:20 *118:24 36.6654 
5 *118:24 *118:30 45.0779 
6 *118:30 I_top6 23.193 
*END

*D_NET *119 0.0165706
*CONN
*P I_top7 O
*I *1331:X O *D sg13g2_buf_1
*CAP
1 I_top7 0.000465006
2 *1331:X 0.000705971
3 *119:22 0.00204471
4 *119:16 0.00197292
5 *119:10 0.00109918
6 I_top7 I_top8 0
7 I_top7 *906:A2 4.77425e-05
8 I_top7 *594:56 0.000234217
9 I_top7 *603:52 0.000231998
10 I_top7 *620:44 0
11 *119:10 *337:28 0.00133732
12 *119:10 *419:26 0
13 *119:10 *478:16 0.000177652
14 *119:10 *551:50 0.000319852
15 *119:10 *551:56 0.000807352
16 *119:10 *568:46 1.54008e-05
17 *119:10 *568:54 2.17891e-05
18 *119:10 *588:101 0.00012596
19 *119:16 *349:12 0.000457345
20 *119:22 *409:38 0
21 *119:22 *411:58 0
22 *119:22 *542:22 0.00328342
23 *119:22 *542:32 7.78179e-05
24 *119:22 *561:14 0.000396338
25 *119:22 *606:18 0.00274862
26 *115:24 *119:22 0
27 *118:20 *119:16 0
28 *118:30 *119:22 0
*RES
1 *1331:X *119:10 49.4142 
2 *119:10 *119:16 43.1312 
3 *119:16 *119:22 42.0832 
4 *119:22 I_top7 44.9852 
*END

*D_NET *120 0.0136369
*CONN
*P I_top8 O
*I *1332:X O *D sg13g2_buf_1
*CAP
1 I_top8 0.00169961
2 *1332:X 0.000261814
3 *120:14 0.00176009
4 *120:8 0.000322298
5 I_top8 I_top9 0
6 I_top8 *898:A3 0.00124544
7 I_top8 *246:14 0
8 I_top8 *278:8 0.000500076
9 I_top8 *353:10 0
10 I_top8 *390:36 0.00156027
11 I_top8 *402:38 0.000397963
12 I_top8 *416:48 0.00113771
13 I_top8 *432:62 0
14 I_top8 *584:10 0
15 I_top8 *620:40 0
16 *120:8 *354:10 0
17 *120:8 *412:10 0.00034162
18 *120:8 *416:48 0.00119734
19 *120:8 *468:28 0
20 *120:8 *571:36 0.000660642
21 *120:14 *938:A0 0
22 I_top7 I_top8 0
23 *78:9 I_top8 0.00205201
24 *78:17 I_top8 0.000500014
*RES
1 *1332:X *120:8 45.5414 
2 *120:8 *120:14 40.5974 
3 *120:14 I_top8 45.1732 
*END

*D_NET *121 0.0183852
*CONN
*P I_top9 O
*I *1333:X O *D sg13g2_buf_1
*CAP
1 I_top9 0.00162374
2 *1333:X 0
3 *121:40 0.00248024
4 *121:30 0.00175829
5 *121:20 0.00172699
6 *121:14 0.00210402
7 *121:6 0.00127882
8 I_top9 *991:GATE 0.000434199
9 I_top9 *1006:D 0.00014454
10 I_top9 *1039:D 8.00842e-05
11 I_top9 *1120:A 0
12 I_top9 *1226:A 0.000240377
13 I_top9 *477:8 0
14 I_top9 *584:10 7.92265e-05
15 I_top9 *598:8 0.00014344
16 *121:14 *343:22 0
17 *121:14 *386:12 0
18 *121:14 *437:14 0
19 *121:14 *439:14 0.000699313
20 *121:14 *542:22 0
21 *121:20 *1008:D 0.000335729
22 *121:20 *405:68 0
23 *121:20 *554:60 0
24 *121:20 *557:48 0
25 *121:30 *957:A0 0
26 *121:30 *310:12 0
27 *121:30 *311:12 0.00139159
28 *121:30 *335:12 0.00011101
29 *121:30 *339:12 0.000144027
30 *121:30 *420:34 0.000699164
31 *121:30 *520:69 0.000125175
32 *121:30 *557:38 0.00033591
33 *121:30 *583:24 0
34 *121:30 *616:36 0.000285536
35 *121:40 *1043:GATE 0.000401996
36 *121:40 *1120:A 0
37 *121:40 *1212:A 0
38 *121:40 *267:12 7.9225e-05
39 *121:40 *415:40 0.0012909
40 *121:40 *554:35 0
41 *121:40 *592:24 0.000391695
42 I_top8 I_top9 0
*RES
1 *1333:X *121:6 40 
2 *121:6 *121:14 49.476 
3 *121:14 *121:20 46.2201 
4 *121:20 *121:30 31.3506 
5 *121:30 *121:40 49.9807 
6 *121:40 I_top9 15.0586 
*END

*D_NET *122 0.0111036
*CONN
*P N1BEG[0] O
*I *1334:X O *D sg13g2_buf_1
*CAP
1 N1BEG[0] 0.00119565
2 *1334:X 0.000899976
3 *122:28 0.00209563
4 N1BEG[0] N1BEG[1] 0
5 N1BEG[0] N1BEG[2] 0
6 N1BEG[0] N2BEG[0] 0
7 N1BEG[0] N2BEG[1] 0.00290445
8 N1BEG[0] N2BEGb[4] 0.00274383
9 N1BEG[0] *519:72 0
10 *122:28 N2BEG[0] 3.50188e-05
11 *122:28 *1340:A 0.000238421
12 *122:28 *1346:A 1.11458e-05
13 *122:28 *1362:A 0
14 *122:28 *126:18 0.000176132
15 *122:28 *128:16 0.000176248
16 *122:28 *130:20 0
17 *122:28 *134:10 0.000403212
18 *122:28 *431:18 0.000223909
*RES
1 *1334:X *122:28 49.991 
2 *122:28 N1BEG[0] 39.1168 
*END

*D_NET *123 0.0102574
*CONN
*P N1BEG[1] O
*I *1335:X O *D sg13g2_buf_1
*CAP
1 N1BEG[1] 0.00175452
2 *1335:X 0.000242422
3 *123:16 0.00196403
4 *123:10 0.000451929
5 N1BEG[1] N1BEG[2] 0
6 N1BEG[1] N1BEG[3] 0
7 N1BEG[1] N2BEG[2] 0.00246545
8 N1BEG[1] N2BEG[3] 0.000390126
9 N1BEG[1] *138:20 0
10 N1BEG[1] *146:8 0
11 N1BEG[1] *158:8 0.000126354
12 N1BEG[1] *483:52 0
13 N1BEG[1] *544:63 0.00167255
14 *123:10 *488:78 0.000126354
15 *123:10 *539:12 0.000273854
16 *123:16 *126:18 0.00037167
17 *123:16 *539:12 0
18 N1BEG[0] N1BEG[1] 0
19 *1184:A *123:16 0
20 *21:13 *123:16 0.000144142
21 *23:23 *123:10 0.000273997
*RES
1 *1335:X *123:10 42.9252 
2 *123:10 *123:16 42.4823 
3 *123:16 N1BEG[1] 42.1759 
*END

*D_NET *124 0.0120327
*CONN
*P N1BEG[2] O
*I *1336:X O *D sg13g2_buf_1
*CAP
1 N1BEG[2] 0.00107785
2 *1336:X 0
3 *124:20 0.0016075
4 *124:14 0.00105062
5 *124:6 0.000520974
6 N1BEG[2] N1BEG[3] 0.00301769
7 N1BEG[2] *428:38 0.000656433
8 N1BEG[2] *519:72 0.00247092
9 *124:14 *135:14 7.30101e-05
10 *124:14 *150:14 7.40536e-05
11 *124:14 *154:14 0.000428844
12 *124:14 *512:22 0.000593779
13 *124:14 *520:30 7.81195e-05
14 *124:14 *566:20 0.000271919
15 *124:20 *1358:A 0
16 *124:20 *127:32 0
17 *124:20 *142:18 0
18 *124:20 *151:14 0.00011101
19 *124:20 *499:82 0
20 *124:20 *503:22 0
21 *124:20 *519:72 0
22 N1BEG[0] N1BEG[2] 0
23 N1BEG[1] N1BEG[2] 0
*RES
1 *1336:X *124:6 40 
2 *124:6 *124:14 45.6444 
3 *124:14 *124:20 44.6453 
4 *124:20 N1BEG[2] 38.3134 
*END

*D_NET *125 0.0117178
*CONN
*P N1BEG[3] O
*I *1337:X O *D sg13g2_buf_1
*CAP
1 N1BEG[3] 0.00104416
2 *1337:X 0.000687891
3 *125:22 0.00175308
4 *125:16 0.00139681
5 N1BEG[3] N2BEG[3] 0.000604396
6 N1BEG[3] *428:38 7.50102e-05
7 N1BEG[3] *544:63 0.00168457
8 *125:16 *1362:A 4.68848e-05
9 *125:16 *139:8 0.000281473
10 *125:16 *151:24 0.000232455
11 *125:16 *356:10 2.14736e-05
12 *125:16 *431:18 0
13 *125:16 *482:30 0
14 *125:16 *493:32 7.32394e-05
15 *125:16 *504:24 0.000126871
16 *125:16 *521:26 0
17 *125:22 *127:32 0
18 *125:22 *138:26 0.000143351
19 *125:22 *144:10 4.77425e-05
20 *125:22 *152:10 4.77425e-05
21 *125:22 *431:24 0.000272718
22 *125:22 *431:35 0.000160292
23 N1BEG[1] N1BEG[3] 0
24 N1BEG[2] N1BEG[3] 0.00301769
*RES
1 *1337:X *125:16 46.3242 
2 *125:16 *125:22 46.1594 
3 *125:22 N1BEG[3] 36.3673 
*END

*D_NET *126 0.0115851
*CONN
*P N2BEG[0] O
*I *1338:X O *D sg13g2_buf_1
*CAP
1 N2BEG[0] 0.00140272
2 *1338:X 5.3964e-05
3 *126:18 0.00205483
4 *126:8 0.00070608
5 N2BEG[0] N2BEG[1] 0.0033305
6 N2BEG[0] N2BEGb[0] 0
7 N2BEG[0] N4BEG[0] 0.00311837
8 *126:8 *520:22 0.000126358
9 *126:8 *565:24 0
10 *126:18 *1346:A 4.36621e-05
11 *126:18 *130:20 0.000165797
12 *126:18 *134:10 0
13 N1BEG[0] N2BEG[0] 0
14 *1184:A *126:18 0
15 *21:13 *126:18 0
16 *122:28 N2BEG[0] 3.50188e-05
17 *122:28 *126:18 0.000176132
18 *123:16 *126:18 0.00037167
*RES
1 *1338:X *126:8 40.5974 
2 *126:8 *126:18 46.6126 
3 *126:18 N2BEG[0] 41.4652 
*END

*D_NET *127 0.0125928
*CONN
*P N2BEG[1] O
*I *1339:X O *D sg13g2_buf_1
*CAP
1 N2BEG[1] 0.000749596
2 *1339:X 7.67459e-05
3 *127:32 0.00117972
4 *127:26 0.000774846
5 *127:18 0.00077049
6 *127:8 0.000502518
7 N2BEG[1] N2BEGb[4] 0.000499931
8 N2BEG[1] N4BEG[0] 0
9 N2BEG[1] *152:30 2.14736e-05
10 *127:8 *497:24 0.000179701
11 *127:8 *575:30 0
12 *127:18 *130:26 0.000270448
13 *127:18 *431:18 7.46009e-05
14 *127:18 *512:22 0
15 *127:18 *521:26 7.57764e-05
16 *127:18 *529:10 0
17 *127:26 *1354:A 0.00014454
18 *127:26 *138:12 0.000230742
19 *127:26 *142:18 0.000143351
20 *127:26 *155:8 8.00842e-05
21 *127:26 *499:82 0.000230586
22 *127:32 *1358:A 0
23 *127:32 *138:26 0
24 *127:32 *142:18 7.9225e-05
25 *127:32 *519:72 0.000273434
26 N1BEG[0] N2BEG[1] 0.00290445
27 N2BEG[0] N2BEG[1] 0.0033305
28 *124:20 *127:32 0
29 *125:22 *127:32 0
*RES
1 *1339:X *127:8 40.8446 
2 *127:8 *127:18 44.0479 
3 *127:18 *127:26 43.7904 
4 *127:26 *127:32 43.9964 
5 *127:32 N2BEG[1] 36.7375 
*END

*D_NET *128 0.0118289
*CONN
*P N2BEG[2] O
*I *1340:X O *D sg13g2_buf_1
*CAP
1 N2BEG[2] 0.00104844
2 *1340:X 0.000967747
3 *128:22 0.00130882
4 *128:16 0.00122813
5 N2BEG[2] N2BEG[3] 0
6 N2BEG[2] N2BEG[5] 0.00288606
7 N2BEG[2] N2BEGb[3] 7.31628e-05
8 *128:16 *1343:A 0
9 *128:16 *1362:A 0
10 *128:16 *138:12 0
11 *128:16 *144:10 7.30101e-05
12 *128:16 *165:10 7.49652e-05
13 *128:16 *372:22 2.17531e-05
14 *128:16 *418:12 0.000126178
15 *128:16 *489:8 0
16 *128:16 *512:28 0.000124547
17 *128:16 *565:24 0.000919962
18 *128:22 *131:20 0
19 *128:22 *165:10 4.77425e-05
20 *128:22 *168:10 0.00011101
21 *128:22 *506:10 0.000175693
22 *128:22 *530:92 0
23 N1BEG[1] N2BEG[2] 0.00246545
24 *122:28 *128:16 0.000176248
*RES
1 *1340:X *128:16 49.1979 
2 *128:16 *128:22 42.4823 
3 *128:22 N2BEG[2] 36.7066 
*END

*D_NET *129 0.0129249
*CONN
*P N2BEG[3] O
*I *1341:X O *D sg13g2_buf_1
*CAP
1 N2BEG[3] 0.000719568
2 *1341:X 0.000528137
3 *129:24 0.00128695
4 *129:18 0.00110073
5 *129:10 0.00106149
6 N2BEG[3] N2BEGb[3] 0.000177652
7 N2BEG[3] *135:42 0
8 *129:10 *132:10 0
9 *129:10 *136:12 0.000912048
10 *129:10 *372:22 0.000648364
11 *129:10 *387:22 8.00842e-05
12 *129:10 *497:39 0.000179389
13 *129:10 *497:58 0.000311448
14 *129:10 *503:22 8.00842e-05
15 *129:10 *514:54 7.34762e-05
16 *129:10 *566:37 0
17 *129:10 *567:34 0.000595411
18 *129:18 *387:30 0.000143351
19 *129:18 *418:20 0.000901522
20 *129:18 *510:40 0.00048843
21 *129:18 *521:26 0.00142341
22 *129:18 *575:30 0.000240377
23 *129:24 *893:A1 0.000272605
24 *129:24 *135:36 0.000112381
25 *129:24 *431:41 0.000208035
26 *129:24 *519:60 0
27 *129:24 *544:73 0.000273049
28 *129:24 *558:124 0.000112381
29 N1BEG[1] N2BEG[3] 0.000390126
30 N1BEG[3] N2BEG[3] 0.000604396
31 N2BEG[2] N2BEG[3] 0
*RES
1 *1341:X *129:10 48.0546 
2 *129:10 *129:18 48.3945 
3 *129:18 *129:24 45.5105 
4 *129:24 N2BEG[3] 27.1276 
*END

*D_NET *130 0.0160183
*CONN
*P N2BEG[4] O
*I *1342:X O *D sg13g2_buf_1
*CAP
1 N2BEG[4] 0.000424445
2 *1342:X 0.000921167
3 *130:40 0.00192738
4 *130:34 0.00224291
5 *130:26 0.00110318
6 *130:20 0.00128437
7 N2BEG[4] N2BEGb[4] 0.000128265
8 N2BEG[4] N2BEGb[7] 0.000443116
9 N2BEG[4] *148:20 0.000760118
10 N2BEG[4] *428:38 0.000337717
11 *130:20 *1340:A 0.00014436
12 *130:20 *151:14 0
13 *130:20 *372:22 0.000492711
14 *130:20 *387:30 0.000339018
15 *130:20 *398:8 0
16 *130:20 *479:72 7.30101e-05
17 *130:20 *493:32 7.44263e-05
18 *130:20 *520:22 0
19 *130:26 *137:12 4.63914e-05
20 *130:26 *512:22 0
21 *130:26 *529:10 0
22 *130:34 *1105:A 0.00175134
23 *130:34 *1378:A 8.00842e-05
24 *130:34 *150:32 0
25 *130:34 *511:14 0.000126354
26 *130:34 *556:28 0.000546753
27 *130:34 *572:30 0
28 *130:40 *901:S1 0.000234986
29 *130:40 *956:A0 1.54008e-05
30 *130:40 *1148:A 0
31 *130:40 *133:30 0.000546241
32 *130:40 *150:32 0
33 *130:40 *336:8 0.000281884
34 *130:40 *408:22 0
35 *130:40 *502:40 0.000646183
36 *130:40 *519:60 0
37 *130:40 *557:6 8.00842e-05
38 *130:40 *557:14 0.000530175
39 *130:40 *582:43 0
40 *21:13 *130:20 0
41 *24:25 *130:34 0
42 *122:28 *130:20 0
43 *126:18 *130:20 0.000165797
44 *127:18 *130:26 0.000270448
*RES
1 *1342:X *130:20 49.1876 
2 *130:20 *130:26 42.9149 
3 *130:26 *130:34 49.0125 
4 *130:34 *130:40 34.9144 
5 *130:40 N2BEG[4] 45.768 
*END

*D_NET *131 0.0129628
*CONN
*P N2BEG[5] O
*I *1343:X O *D sg13g2_buf_1
*CAP
1 N2BEG[5] 0.00102008
2 *1343:X 0.000591313
3 *131:20 0.00137393
4 *131:14 0.000945162
5 N2BEG[5] N2BEG[6] 0.000111567
6 N2BEG[5] *133:44 7.33256e-05
7 N2BEG[5] *135:42 0.000175693
8 N2BEG[5] *135:50 8.00842e-05
9 N2BEG[5] *483:52 0.00319436
10 *131:14 *1362:A 7.98521e-05
11 *131:14 *135:14 0.000680979
12 *131:14 *150:14 7.9112e-05
13 *131:14 *156:10 7.32897e-05
14 *131:14 *489:8 0.00122691
15 *131:14 *501:38 7.30101e-05
16 *131:14 *502:46 0
17 *131:14 *520:22 0
18 *131:14 *530:92 7.49464e-05
19 *131:14 *565:24 0
20 *131:20 *499:68 0
21 *131:20 *506:10 0.000175648
22 *131:20 *530:92 4.75166e-05
23 N2BEG[2] N2BEG[5] 0.00288606
24 *128:22 *131:20 0
*RES
1 *1343:X *131:14 47.7353 
2 *131:14 *131:20 43.1312 
3 *131:20 N2BEG[5] 37.9117 
*END

*D_NET *132 0.012593
*CONN
*P N2BEG[6] O
*I *1344:X O *D sg13g2_buf_1
*CAP
1 N2BEG[6] 0.000505753
2 *1344:X 0.000426004
3 *132:50 0.00111074
4 *132:36 0.00140534
5 *132:22 0.00123484
6 *132:10 0.000860495
7 N2BEG[6] *135:50 8.00842e-05
8 N2BEG[6] *161:16 0.000240822
9 *132:10 *1060:A 0.000112426
10 *132:10 *372:22 0.000120753
11 *132:10 *387:30 0.000653183
12 *132:10 *408:8 0.000143642
13 *132:10 *495:22 0
14 *132:10 *497:39 0.000124547
15 *132:10 *514:54 7.34762e-05
16 *132:22 *136:12 0.000907238
17 *132:22 *149:10 0.00080616
18 *132:22 *514:54 7.32394e-05
19 *132:22 *515:36 0.00013156
20 *132:36 *952:A0 0.000488508
21 *132:36 *340:10 0.000144768
22 *132:36 *428:24 0
23 *132:36 *502:46 0.00038672
24 *132:36 *566:57 0
25 *132:36 *615:45 0
26 *132:50 *133:44 0.000284175
27 *132:50 *160:22 0.000241073
28 *132:50 *164:8 0.000178206
29 *132:50 *171:12 0.000799605
30 *132:50 *500:34 0
31 *132:50 *544:73 0.000748776
32 *132:50 *544:81 2.21468e-05
33 *132:50 *572:50 0.000177109
34 N2BEG[5] N2BEG[6] 0.000111567
35 *129:10 *132:10 0
*RES
1 *1344:X *132:10 44.9028 
2 *132:10 *132:22 46.2212 
3 *132:22 *132:36 47.8692 
4 *132:36 *132:50 48.1782 
5 *132:50 N2BEG[6] 24.5114 
*END

*D_NET *133 0.013429
*CONN
*P N2BEG[7] O
*I *1345:X O *D sg13g2_buf_1
*CAP
1 N2BEG[7] 0.000265019
2 *1345:X 0
3 *133:44 0.000902481
4 *133:30 0.00171696
5 *133:22 0.00153791
6 *133:14 0.000833696
7 *133:6 0.000375279
8 N2BEG[7] N2BEGb[2] 0
9 N2BEG[7] *1213:A 0
10 N2BEG[7] *161:16 0.000272605
11 *133:14 *137:18 0.000618818
12 *133:14 *154:18 0
13 *133:14 *488:70 0
14 *133:22 *153:14 0.00152012
15 *133:22 *157:18 0.00130613
16 *133:22 *408:14 0
17 *133:22 *418:28 0.00014102
18 *133:30 *473:12 0.000173705
19 *133:30 *541:24 0
20 *133:30 *567:62 0.000360743
21 *133:30 *586:28 0.000541488
22 *133:44 N2BEGb[3] 0.000377305
23 *133:44 *1376:A 8.00842e-05
24 *133:44 *428:44 0
25 *133:44 *496:44 0.000546652
26 *133:44 *524:8 0
27 *133:44 *526:38 0.000440097
28 *133:44 *558:124 0.000386938
29 Co *133:44 0.000128248
30 N2BEG[5] *133:44 7.33256e-05
31 *130:40 *133:30 0.000546241
32 *132:50 *133:44 0.000284175
*RES
1 *1345:X *133:6 40 
2 *133:6 *133:14 44.1303 
3 *133:14 *133:22 48.24 
4 *133:22 *133:30 49.3833 
5 *133:30 *133:44 48.4563 
6 *133:44 N2BEG[7] 22.5441 
*END

*D_NET *134 0.00899279
*CONN
*P N2BEGb[0] O
*I *1346:X O *D sg13g2_buf_1
*CAP
1 N2BEGb[0] 0.00176477
2 *1346:X 0.000546332
3 *134:10 0.0023111
4 N2BEGb[0] N4BEG[0] 0.00396738
5 N2BEG[0] N2BEGb[0] 0
6 *122:28 *134:10 0.000403212
7 *126:18 *134:10 0
*RES
1 *1346:X *134:10 44.9955 
2 *134:10 N2BEGb[0] 44.4934 
*END

*D_NET *135 0.0142268
*CONN
*P N2BEGb[1] O
*I *1347:X O *D sg13g2_buf_1
*CAP
1 N2BEGb[1] 0.00024985
2 *1347:X 0.000297706
3 *135:50 0.000346622
4 *135:42 0.00108723
5 *135:36 0.00137543
6 *135:28 0.000962036
7 *135:14 0.000874773
8 N2BEGb[1] N2BEGb[2] 0
9 N2BEGb[1] N2BEGb[7] 0.000393218
10 N2BEGb[1] *148:20 0.000391584
11 *135:14 *150:14 7.30101e-05
12 *135:14 *502:46 0.00038564
13 *135:14 *503:22 4.75151e-05
14 *135:28 *150:22 0.000916336
15 *135:28 *152:18 0
16 *135:28 *505:66 0.000810035
17 *135:28 *517:58 7.31655e-05
18 *135:28 *529:10 7.93772e-05
19 *135:28 *535:54 0.000177583
20 *135:28 *575:47 0.000282467
21 *135:36 *387:40 0.000856927
22 *135:36 *387:57 0.000104884
23 *135:36 *519:60 0.000112426
24 *135:36 *521:26 0.00116894
25 *135:36 *566:57 0
26 *135:36 *575:47 0
27 *135:42 *1373:A 0.000240377
28 *135:42 *160:22 0.000439071
29 *135:42 *161:10 4.76973e-05
30 *135:42 *161:16 0
31 *135:42 *162:12 0
32 *135:42 *523:34 7.30101e-05
33 *135:42 *544:73 0
34 *135:42 *566:57 0.000853761
35 *135:42 *595:22 0.000175693
36 *135:50 N2BEGb[7] 0.00012816
37 N2BEG[3] *135:42 0
38 N2BEG[5] *135:42 0.000175693
39 N2BEG[5] *135:50 8.00842e-05
40 N2BEG[6] *135:50 8.00842e-05
41 *124:14 *135:14 7.30101e-05
42 *129:24 *135:36 0.000112381
43 *131:14 *135:14 0.000680979
*RES
1 *1347:X *135:14 44.0582 
2 *135:14 *135:28 48.0237 
3 *135:28 *135:36 46.2933 
4 *135:36 *135:42 30.1558 
5 *135:42 *135:50 41.133 
6 *135:50 N2BEGb[1] 43.296 
*END

*D_NET *136 0.0128974
*CONN
*P N2BEGb[2] O
*I *1348:X O *D sg13g2_buf_1
*CAP
1 N2BEGb[2] 0.000930199
2 *1348:X 0.000841614
3 *136:20 0.00178183
4 *136:12 0.00169324
5 N2BEGb[2] N2BEGb[3] 0
6 N2BEGb[2] *1213:A 8.00842e-05
7 N2BEGb[2] *171:12 0.000127853
8 N2BEGb[2] *171:26 0.000279386
9 N2BEGb[2] *431:47 0
10 N2BEGb[2] *479:48 0.000331005
11 N2BEGb[2] *544:73 0.00023234
12 N2BEGb[2] *572:50 0
13 N2BEGb[2] *581:16 0.000305735
14 N2BEGb[2] *583:8 7.99019e-05
15 *136:12 *1359:A 0
16 *136:12 *149:10 0
17 *136:12 *248:10 0.000331001
18 *136:12 *408:8 0.000143631
19 *136:12 *497:58 0
20 *136:12 *514:54 0
21 *136:12 *544:43 0
22 *136:12 *566:37 7.31655e-05
23 *136:20 *912:A0 0.000386548
24 *136:20 *1373:A 0.000175693
25 *136:20 *159:8 0.00030506
26 *136:20 *399:34 0.00117064
27 *136:20 *406:28 0
28 *136:20 *497:58 0.00137054
29 *136:20 *510:32 0.000208035
30 *136:20 *514:54 0
31 *136:20 *557:24 0.000230641
32 N2BEG[7] N2BEGb[2] 0
33 N2BEGb[1] N2BEGb[2] 0
34 *129:10 *136:12 0.000912048
35 *132:22 *136:12 0.000907238
*RES
1 *1348:X *136:12 49.7953 
2 *136:12 *136:20 31.8965 
3 *136:20 N2BEGb[2] 49.3112 
*END

*D_NET *137 0.0129927
*CONN
*P N2BEGb[3] O
*I *1349:X O *D sg13g2_buf_1
*CAP
1 N2BEGb[3] 0.000799659
2 *1349:X 0
3 *137:18 0.00260611
4 *137:12 0.00183778
5 *137:6 3.13275e-05
6 N2BEGb[3] N2BEGb[7] 0
7 N2BEGb[3] *192:11 0.00022912
8 *137:12 *529:10 4.63914e-05
9 *137:18 *152:24 0.0007692
10 *137:18 *153:14 0.00162587
11 *137:18 *153:22 0
12 *137:18 *154:18 0.00350605
13 *137:18 *428:44 0.000172097
14 *137:18 *480:28 0
15 *137:18 *591:38 7.57947e-05
16 Co N2BEGb[3] 0
17 N2BEG[2] N2BEGb[3] 7.31628e-05
18 N2BEG[3] N2BEGb[3] 0.000177652
19 N2BEGb[2] N2BEGb[3] 0
20 *130:26 *137:12 4.63914e-05
21 *133:14 *137:18 0.000618818
22 *133:44 N2BEGb[3] 0.000377305
*RES
1 *1349:X *137:6 40 
2 *137:6 *137:12 40.3193 
3 *137:12 *137:18 43.1956 
4 *137:18 N2BEGb[3] 47.5499 
*END

*D_NET *138 0.0129401
*CONN
*P N2BEGb[4] O
*I *1350:X O *D sg13g2_buf_1
*CAP
1 N2BEGb[4] 0.00154641
2 *1350:X 0.000673265
3 *138:26 0.00171288
4 *138:20 0.000490728
5 *138:12 0.000997527
6 N2BEGb[4] NN4BEG[12] 0.000604027
7 N2BEGb[4] *148:20 0.0016107
8 N2BEGb[4] *152:30 0
9 N2BEGb[4] *428:38 0.000660535
10 N2BEGb[4] *519:72 0
11 *138:12 *372:22 0.000125963
12 *138:12 *499:82 0.000177127
13 *138:12 *512:28 0.000124547
14 *138:20 *158:8 2.14736e-05
15 *138:20 *483:52 0.000176083
16 *138:26 *142:24 0.000272718
17 N1BEG[0] N2BEGb[4] 0.00274383
18 N1BEG[1] *138:20 0
19 N2BEG[1] N2BEGb[4] 0.000499931
20 N2BEG[4] N2BEGb[4] 0.000128265
21 *125:22 *138:26 0.000143351
22 *127:26 *138:12 0.000230742
23 *127:32 *138:26 0
24 *128:16 *138:12 0
*RES
1 *1350:X *138:12 45.7165 
2 *138:12 *138:20 42.678 
3 *138:20 *138:26 41.8334 
4 *138:26 N2BEGb[4] 42.0729 
*END

*D_NET *139 0.0123509
*CONN
*P N2BEGb[5] O
*I *1351:X O *D sg13g2_buf_1
*CAP
1 N2BEGb[5] 4.87353e-05
2 *1351:X 7.45279e-05
3 *139:18 0.00207228
4 *139:14 0.00274861
5 *139:8 0.000799591
6 *139:8 *521:26 0.000280355
7 *139:14 *141:14 0.000460013
8 *139:14 *154:14 0
9 *139:14 *479:72 0
10 *139:14 *501:30 0
11 *139:14 *515:52 0.000562443
12 *139:14 *520:30 0
13 *139:18 *156:20 0.00451917
14 *139:18 *165:26 0.000503722
15 *139:18 *480:38 0
16 *139:18 *565:30 0
17 *125:16 *139:8 0.000281473
*RES
1 *1351:X *139:8 41.339 
2 *139:8 *139:14 47.4572 
3 *139:14 *139:18 44.823 
4 *139:18 N2BEGb[5] 40.3811 
*END

*D_NET *140 0.0140403
*CONN
*P N2BEGb[6] O
*I *1352:X O *D sg13g2_buf_1
*CAP
1 N2BEGb[6] 0.000865176
2 *1352:X 0
3 *140:20 0.00278411
4 *140:12 0.00219851
5 *140:6 0.000279576
6 N2BEGb[6] N2BEGb[7] 0.000340145
7 N2BEGb[6] *151:32 0
8 N2BEGb[6] *192:11 0.000343322
9 N2BEGb[6] *437:26 0.000329528
10 N2BEGb[6] *470:22 0
11 N2BEGb[6] *500:28 0.000109244
12 N2BEGb[6] *533:32 0
13 *140:12 *479:72 0.000439105
14 *140:12 *488:78 0
15 *140:12 *500:54 0
16 *140:20 *144:20 0
17 *140:20 *144:26 0
18 *140:20 *151:32 0.000718085
19 *140:20 *155:24 0.00152465
20 *140:20 *168:22 0.00285703
21 *140:20 *483:60 0
22 *140:20 *515:52 0
23 *140:20 *527:32 0
24 *140:20 *534:14 0
25 *140:20 *541:24 0
26 *140:20 *567:48 0.00125184
*RES
1 *1352:X *140:6 40 
2 *140:6 *140:12 42.9149 
3 *140:12 *140:20 46.2032 
4 *140:20 N2BEGb[6] 47.9104 
*END

*D_NET *141 0.015306
*CONN
*P N2BEGb[7] O
*I *1353:X O *D sg13g2_buf_1
*CAP
1 N2BEGb[7] 0.000763229
2 *1353:X 3.0092e-05
3 *141:20 0.00330304
4 *141:14 0.00292604
5 *141:8 0.00041632
6 N2BEGb[7] N4BEG[5] 0.00055109
7 N2BEGb[7] *148:20 0
8 N2BEGb[7] *192:11 0
9 N2BEGb[7] *428:38 0.000231555
10 *141:8 *150:14 0
11 *141:8 *503:22 4.76973e-05
12 *141:14 *154:14 0.000621344
13 *141:14 *493:32 0.000113241
14 *141:14 *501:30 0
15 *141:20 *144:26 0.000550898
16 *141:20 *154:18 0
17 *141:20 *170:20 0.00242698
18 *141:20 *479:56 0.000299486
19 *141:20 *541:24 0
20 *141:20 *566:45 0
21 *141:20 *567:42 0.0012603
22 N2BEG[4] N2BEGb[7] 0.000443116
23 N2BEGb[1] N2BEGb[7] 0.000393218
24 N2BEGb[3] N2BEGb[7] 0
25 N2BEGb[6] N2BEGb[7] 0.000340145
26 *135:50 N2BEGb[7] 0.00012816
27 *139:14 *141:14 0.000460013
*RES
1 *1353:X *141:8 40.3193 
2 *141:8 *141:14 44.2127 
3 *141:14 *141:20 45.3895 
4 *141:20 N2BEGb[7] 49.1979 
*END

*D_NET *142 0.013315
*CONN
*P N4BEG[0] O
*I *1354:X O *D sg13g2_buf_1
*CAP
1 N4BEG[0] 0.00117807
2 *1354:X 0.000468158
3 *142:24 0.00162321
4 *142:18 0.000913295
5 N4BEG[0] *152:30 0.00107951
6 *142:18 *155:8 2.97526e-05
7 *142:18 *431:35 7.30101e-05
8 *142:18 *499:82 0.000279312
9 *142:18 *504:24 4.27372e-05
10 *142:24 *431:35 4.68848e-05
11 N2BEG[0] N4BEG[0] 0.00311837
12 N2BEG[1] N4BEG[0] 0
13 N2BEGb[0] N4BEG[0] 0.00396738
14 *124:20 *142:18 0
15 *127:26 *142:18 0.000143351
16 *127:32 *142:18 7.9225e-05
17 *138:26 *142:24 0.000272718
*RES
1 *1354:X *142:18 44.7277 
2 *142:18 *142:24 43.9964 
3 *142:24 N4BEG[0] 42.9381 
*END

*D_NET *143 0.0172755
*CONN
*P N4BEG[10] O
*I *1355:X O *D sg13g2_buf_1
*CAP
1 N4BEG[10] 0.000607464
2 *1355:X 0
3 *143:24 0.0021189
4 *143:18 0.00204872
5 *143:12 0.00137803
6 *143:6 0.000840752
7 N4BEG[10] N4BEG[11] 0
8 N4BEG[10] N4BEG[9] 0
9 N4BEG[10] *359:12 0.000494267
10 N4BEG[10] *583:14 0.000496184
11 *143:12 *146:18 0
12 *143:12 *479:64 0
13 *143:12 *492:28 0
14 *143:12 *496:56 0
15 *143:12 *532:34 0.000182512
16 *143:12 *533:44 0
17 *143:18 *147:14 0.000426071
18 *143:18 *343:44 0
19 *143:18 *500:44 0
20 *143:18 *505:66 0.000140671
21 *143:18 *530:68 0.000110503
22 *143:24 *165:22 0.00205395
23 *143:24 *170:20 0
24 *143:24 *405:82 0
25 *143:24 *406:28 0
26 *143:24 *410:42 0
27 *143:24 *530:40 0.00130507
28 *143:24 *541:24 0.00135922
29 *143:24 *546:98 8.03346e-05
30 *143:24 *566:45 0.000823746
31 *24:37 *143:24 0.00280912
*RES
1 *1355:X *143:6 40 
2 *143:6 *143:12 47.519 
3 *143:12 *143:18 44.429 
4 *143:18 *143:24 44.5861 
5 *143:24 N4BEG[10] 46.386 
*END

*D_NET *144 0.0152321
*CONN
*P N4BEG[11] O
*I *1356:X O *D sg13g2_buf_1
*CAP
1 N4BEG[11] 0.000216976
2 *1356:X 4.68594e-05
3 *144:34 0.000216976
4 *144:30 0.000784999
5 *144:26 0.0021179
6 *144:20 0.00153802
7 *144:10 0.000251978
8 N4BEG[11] N4BEG[13] 0.000112426
9 *144:10 *489:8 7.30101e-05
10 *144:10 *504:24 4.77425e-05
11 *144:20 *500:48 0
12 *144:20 *529:10 4.79477e-05
13 *144:26 *158:24 0.00125186
14 *144:26 *168:22 0
15 *144:26 *169:24 0
16 *144:26 *488:66 0.000122078
17 *144:26 *500:48 0.00115458
18 *144:26 *526:38 4.63914e-05
19 *144:26 *527:32 0.000720909
20 *144:26 *615:22 0.00103758
21 *144:30 *167:14 0.00296163
22 *144:30 *471:36 0
23 *144:30 *520:36 0.00174267
24 *144:30 *567:62 6.78941e-05
25 N4BEG[10] N4BEG[11] 0
26 *125:22 *144:10 4.77425e-05
27 *128:16 *144:10 7.30101e-05
28 *140:20 *144:20 0
29 *140:20 *144:26 0
30 *141:20 *144:26 0.000550898
*RES
1 *1356:X *144:10 40.6695 
2 *144:10 *144:20 41.7098 
3 *144:20 *144:26 37.4997 
4 *144:26 *144:30 33.699 
5 *144:30 *144:34 40 
6 *144:34 N4BEG[11] 21.8952 
*END

*D_NET *145 0.0151093
*CONN
*P N4BEG[12] O
*I *1357:X O *D sg13g2_buf_1
*CAP
1 N4BEG[12] 7.63958e-05
2 *1357:X 0
3 *145:22 0.00209876
4 *145:16 0.00253974
5 *145:6 0.000517377
6 *145:16 *155:24 0.00179044
7 *145:16 *513:54 0.00138371
8 *145:22 *155:24 0.00184615
9 *145:22 *405:82 0
10 *145:22 *406:32 0.000289357
11 *145:22 *470:28 0
12 *145:22 *513:54 0.00301531
13 *145:22 *514:30 0.000140671
14 *145:22 *530:34 0.000426375
15 *145:22 *534:14 0
16 *145:22 *572:60 0
17 *145:22 *591:32 0.00098506
18 *145:22 *600:26 0
19 *24:37 *145:22 0
*RES
1 *1357:X *145:6 40 
2 *145:6 *145:16 49.1155 
3 *145:16 *145:22 45.6985 
4 *145:22 N4BEG[12] 40.5974 
*END

*D_NET *146 0.0152087
*CONN
*P N4BEG[13] O
*I *1358:X O *D sg13g2_buf_1
*CAP
1 N4BEG[13] 0.000614499
2 *1358:X 0.000230815
3 *146:28 0.00135161
4 *146:22 0.00134479
5 *146:18 0.0012243
6 *146:8 0.000847431
7 N4BEG[13] *547:82 0.000240377
8 *146:8 *506:10 0.000540614
9 *146:8 *529:16 0.000124547
10 *146:18 *170:14 0
11 *146:18 *172:14 0
12 *146:18 *359:16 0
13 *146:18 *492:36 0.000145423
14 *146:18 *496:56 0.00125552
15 *146:18 *500:44 0.000418797
16 *146:18 *532:34 0
17 *146:22 *343:36 0
18 *146:22 *359:16 0.0026181
19 *146:22 *479:56 0.000663467
20 *146:22 *496:38 0
21 *146:22 *500:44 0
22 *146:22 *522:26 0.00125218
23 *146:28 *154:36 0.000542304
24 *146:28 *173:34 0.000286042
25 *146:28 *431:53 0.0006488
26 *146:28 *500:34 0.000125963
27 *146:28 *532:26 0
28 *146:28 *546:63 0.000336212
29 *146:28 *583:14 0
30 *146:28 *595:10 0.000284492
31 N1BEG[1] *146:8 0
32 N4BEG[11] N4BEG[13] 0.000112426
33 *143:12 *146:18 0
*RES
1 *1358:X *146:8 42.575 
2 *146:8 *146:18 48.1679 
3 *146:18 *146:22 32.1128 
4 *146:22 *146:28 48.5078 
5 *146:28 N4BEG[13] 5.6547 
*END

*D_NET *147 0.016115
*CONN
*P N4BEG[14] O
*I *1359:X O *D sg13g2_buf_1
*CAP
1 N4BEG[14] 0.000303668
2 *1359:X 0.000127099
3 *147:20 0.00146306
4 *147:14 0.00162339
5 *147:8 0.000591096
6 N4BEG[14] *148:20 0.000545945
7 N4BEG[14] *168:32 0.000548024
8 *147:8 *150:22 0.000441523
9 *147:8 *502:46 0.00049306
10 *147:14 *169:14 0.000204783
11 *147:14 *527:32 0
12 *147:20 *479:64 0.00221044
13 *147:20 *534:28 0.00130252
14 *147:20 *567:62 0.00239191
15 *147:20 *600:30 0.0034424
16 *143:18 *147:14 0.000426071
*RES
1 *1359:X *147:8 42.3278 
2 *147:8 *147:14 43.9964 
3 *147:14 *147:20 43.7518 
4 *147:20 N4BEG[14] 44.0376 
*END

*D_NET *148 0.014004
*CONN
*P N4BEG[15] O
*I *1360:X O *D sg13g2_buf_1
*CAP
1 N4BEG[15] 0.000159377
2 *1360:X 0
3 *148:20 0.00118083
4 *148:16 0.00266704
5 *148:12 0.0018324
6 *148:6 0.000186808
7 *148:12 *149:18 0
8 *148:12 *442:41 0.000877377
9 *148:16 *471:50 0
10 *148:16 *536:16 0.000395902
11 *148:20 N4BEG[5] 0.00118306
12 *148:20 NN4BEG[12] 0
13 *148:20 NN4BEG[15] 0.00149571
14 *148:20 *168:32 0
15 N2BEG[4] *148:20 0.000760118
16 N2BEGb[1] *148:20 0.000391584
17 N2BEGb[4] *148:20 0.0016107
18 N2BEGb[7] *148:20 0
19 N4BEG[14] *148:20 0.000545945
20 *24:33 *148:12 0.00071714
*RES
1 *1360:X *148:6 40 
2 *148:6 *148:12 44.0582 
3 *148:12 *148:16 31.3506 
4 *148:16 *148:20 36.9126 
5 *148:20 N4BEG[15] 21.2463 
*END

*D_NET *149 0.0150472
*CONN
*P N4BEG[1] O
*I *1361:X O *D sg13g2_buf_1
*CAP
1 N4BEG[1] 0.000622621
2 *1361:X 0.00051037
3 *149:34 0.00134712
4 *149:26 0.00130325
5 *149:18 0.00118559
6 *149:10 0.00111721
7 N4BEG[1] N4BEG[2] 0
8 N4BEG[1] *154:36 0.000209223
9 N4BEG[1] *164:14 0.000434427
10 N4BEG[1] *546:67 0.000144768
11 *149:10 *514:54 0.0011696
12 *149:10 *566:20 0
13 *149:18 *428:18 0.00026671
14 *149:18 *442:41 0
15 *149:18 *471:60 0
16 *149:18 *516:52 0.000266776
17 *149:18 *517:48 0.000665652
18 *149:18 *541:32 0.000663596
19 *149:26 *956:S1 0.000643956
20 *149:26 *312:10 0
21 *149:26 *423:28 0
22 *149:26 *502:40 0.000695493
23 *149:26 *558:83 0.000542486
24 *149:34 *150:32 0.00075601
25 *149:34 *171:26 0.000489808
26 *149:34 *479:48 0.000489454
27 *149:34 *552:51 0
28 *107:24 *149:18 0.000716877
29 *132:22 *149:10 0.00080616
30 *136:12 *149:10 0
31 *148:12 *149:18 0
*RES
1 *1361:X *149:10 46.6023 
2 *149:10 *149:18 48.6108 
3 *149:18 *149:26 46.8495 
4 *149:26 *149:34 48.0546 
5 *149:34 N4BEG[1] 26.2418 
*END

*D_NET *150 0.0203894
*CONN
*P N4BEG[2] O
*I *1362:X O *D sg13g2_buf_1
*CAP
1 N4BEG[2] 0.00109652
2 *1362:X 0.000812336
3 *150:32 0.00298521
4 *150:22 0.00271333
5 *150:14 0.00163698
6 N4BEG[2] N4BEG[3] 0
7 N4BEG[2] *173:22 7.48178e-05
8 N4BEG[2] *428:50 0.000272718
9 N4BEG[2] *431:47 8.00842e-05
10 N4BEG[2] *483:48 0.000698908
11 N4BEG[2] *520:40 0
12 N4BEG[2] *546:88 1.51734e-05
13 N4BEG[2] *572:56 0
14 *150:14 *1362:A 0
15 *150:14 *431:18 0
16 *150:14 *431:24 1.56814e-05
17 *150:14 *501:38 0.0002812
18 *150:14 *502:46 0.000488713
19 *150:14 *503:22 0
20 *150:14 *520:22 0.000335672
21 *150:22 *502:46 0
22 *150:22 *505:66 0.000706696
23 *150:22 *527:32 0.000769549
24 *150:32 *956:S1 0
25 *150:32 *1041:GATE 0.00117084
26 *150:32 *162:28 4.68833e-05
27 *150:32 *257:10 0.00039159
28 *150:32 *349:8 0
29 *150:32 *415:26 0
30 *150:32 *423:28 0.000282054
31 *150:32 *437:20 0
32 *150:32 *530:58 0.00106802
33 *150:32 *544:104 0.000230787
34 *150:32 *546:10 0.000400669
35 *150:32 *556:28 7.48551e-05
36 *150:32 *558:95 0.000855101
37 *150:32 *581:16 0
38 *150:32 *582:43 0
39 N4BEG[1] N4BEG[2] 0
40 *24:25 *150:32 0.000544928
41 *124:14 *150:14 7.40536e-05
42 *130:34 *150:32 0
43 *130:40 *150:32 0
44 *131:14 *150:14 7.9112e-05
45 *135:14 *150:14 7.30101e-05
46 *135:28 *150:22 0.000916336
47 *141:8 *150:14 0
48 *147:8 *150:22 0.000441523
49 *149:34 *150:32 0.00075601
*RES
1 *1362:X *150:14 48.137 
2 *150:14 *150:22 49.5996 
3 *150:22 *150:32 42.2892 
4 *150:32 N4BEG[2] 49.7541 
*END

*D_NET *151 0.0160886
*CONN
*P N4BEG[3] O
*I *1363:X O *D sg13g2_buf_1
*CAP
1 N4BEG[3] 0.000495984
2 *1363:X 0.000332256
3 *151:38 0.000653372
4 *151:32 0.000666135
5 *151:24 0.00249437
6 *151:14 0.00231788
7 N4BEG[3] N4BEG[4] 0
8 N4BEG[3] *428:50 7.98582e-05
9 *151:14 *499:82 0.000208035
10 *151:24 *173:14 0.000542064
11 *151:24 *297:8 0.000748981
12 *151:24 *375:24 0.00023103
13 *151:24 *387:30 0.00149747
14 *151:24 *406:28 0
15 *151:24 *504:24 0
16 *151:24 *510:40 0.00233773
17 *151:32 *166:14 0
18 *151:32 *168:22 0
19 *151:32 *470:22 0.000266377
20 *151:32 *534:14 0.000879413
21 *151:38 *166:20 0.000556859
22 *151:38 *172:14 0.000719216
23 *151:38 *470:22 0
24 N2BEGb[6] *151:32 0
25 N4BEG[2] N4BEG[3] 0
26 *124:20 *151:14 0.00011101
27 *125:16 *151:24 0.000232455
28 *130:20 *151:14 0
29 *140:20 *151:32 0.000718085
*RES
1 *1363:X *151:14 43.2548 
2 *151:14 *151:24 41.8875 
3 *151:24 *151:32 46.5405 
4 *151:32 *151:38 43.3166 
5 *151:38 N4BEG[3] 44.0582 
*END

*D_NET *152 0.015179
*CONN
*P N4BEG[4] O
*I *1364:X O *D sg13g2_buf_1
*CAP
1 N4BEG[4] 6.64837e-05
2 *1364:X 4.68594e-05
3 *152:30 0.000764249
4 *152:24 0.0022885
5 *152:18 0.0017086
6 *152:10 0.000164727
7 N4BEG[4] *171:32 4.76973e-05
8 *152:10 *431:18 7.30101e-05
9 *152:10 *504:24 4.77425e-05
10 *152:10 *521:26 7.30101e-05
11 *152:24 *479:56 0.000299486
12 *152:24 *513:54 0.0016037
13 *152:24 *516:52 0.00157978
14 *152:24 *541:24 0.0024356
15 *152:30 NN4BEG[12] 0.00144937
16 N2BEG[1] *152:30 2.14736e-05
17 N2BEGb[4] *152:30 0
18 N4BEG[0] *152:30 0.00107951
19 N4BEG[3] N4BEG[4] 0
20 *24:37 *152:24 0.000612226
21 *125:22 *152:10 4.77425e-05
22 *135:28 *152:18 0
23 *137:18 *152:24 0.0007692
*RES
1 *1364:X *152:10 40.6695 
2 *152:10 *152:18 40.8858 
3 *152:18 *152:24 42.4231 
4 *152:24 *152:30 49.4966 
5 *152:30 N4BEG[4] 0.5974 
*END

*D_NET *153 0.0152249
*CONN
*P N4BEG[5] O
*I *1365:X O *D sg13g2_buf_1
*CAP
1 N4BEG[5] 0.000449972
2 *1365:X 0
3 *153:22 0.00204388
4 *153:14 0.00193558
5 *153:6 0.000341664
6 N4BEG[5] N4BEG[6] 0
7 N4BEG[5] *168:32 0.000442066
8 N4BEG[5] *171:32 0.000176873
9 *153:14 *157:18 0
10 *153:22 *155:24 0.000585158
11 *153:22 *157:18 0.00205662
12 *153:22 *165:22 0.00102531
13 *153:22 *343:32 0.000172097
14 *153:22 *530:40 0.00023495
15 *153:22 *591:38 0.000880575
16 N2BEGb[7] N4BEG[5] 0.00055109
17 *133:22 *153:14 0.00152012
18 *137:18 *153:14 0.00162587
19 *137:18 *153:22 0
20 *148:20 N4BEG[5] 0.00118306
*RES
1 *1365:X *153:6 40 
2 *153:6 *153:14 47.8383 
3 *153:14 *153:22 38.6327 
4 *153:22 N4BEG[5] 47.004 
*END

*D_NET *154 0.0173478
*CONN
*P N4BEG[6] O
*I *1366:X O *D sg13g2_buf_1
*CAP
1 N4BEG[6] 0.000552206
2 *1366:X 4.96867e-05
3 *154:36 0.0012272
4 *154:28 0.00123898
5 *154:18 0.00218425
6 *154:14 0.00220468
7 *154:8 0.000634104
8 N4BEG[6] N4BEG[7] 0
9 N4BEG[6] *972:D 8.00842e-05
10 *154:14 *520:30 0
11 *154:18 *170:20 0
12 *154:18 *488:70 0
13 *154:18 *567:42 0.00126064
14 *154:18 *591:38 0
15 *154:28 *310:12 0
16 *154:28 *311:12 7.31628e-05
17 *154:28 *313:12 0
18 *154:28 *399:34 0.000125963
19 *154:28 *406:28 0.00101604
20 *154:28 *547:134 0.0002802
21 *154:28 *555:52 0.000126275
22 *154:28 *557:24 0.000124702
23 *154:36 *173:22 0.000240935
24 *154:36 *431:47 8.00842e-05
25 *154:36 *583:14 0.000540849
26 N4BEG[1] *154:36 0.000209223
27 N4BEG[5] N4BEG[6] 0
28 *124:14 *154:14 0.000428844
29 *133:14 *154:18 0
30 *137:18 *154:18 0.00350605
31 *139:14 *154:14 0
32 *141:14 *154:14 0.000621344
33 *141:20 *154:18 0
34 *146:28 *154:36 0.000542304
*RES
1 *1366:X *154:8 40.3502 
2 *154:8 *154:14 45.5105 
3 *154:14 *154:18 40.1262 
4 *154:18 *154:28 46.7053 
5 *154:28 *154:36 47.2203 
6 *154:36 N4BEG[6] 4.4908 
*END

*D_NET *155 0.0160217
*CONN
*P N4BEG[7] O
*I *1367:X O *D sg13g2_buf_1
*CAP
1 N4BEG[7] 0.000723319
2 *1367:X 5.4134e-05
3 *155:24 0.00258511
4 *155:14 0.00212211
5 *155:8 0.000314454
6 N4BEG[7] *170:28 0
7 N4BEG[7] *190:9 0.00144178
8 N4BEG[7] *202:13 0.00128569
9 N4BEG[7] *533:38 7.31655e-05
10 *155:14 *516:58 0
11 *155:14 *529:10 0
12 *155:24 *470:28 0.000664279
13 *155:24 *515:52 0.000562014
14 *155:24 *533:32 0.000270379
15 *155:24 *534:14 6.90087e-05
16 *155:24 *567:48 0
17 N4BEG[6] N4BEG[7] 0
18 *127:26 *155:8 8.00842e-05
19 *140:20 *155:24 0.00152465
20 *142:18 *155:8 2.97526e-05
21 *145:16 *155:24 0.00179044
22 *145:22 *155:24 0.00184615
23 *153:22 *155:24 0.000585158
*RES
1 *1367:X *155:8 40.5356 
2 *155:8 *155:14 41.8334 
3 *155:14 *155:24 45.2865 
4 *155:24 N4BEG[7] 49.9704 
*END

*D_NET *156 0.0107343
*CONN
*P N4BEG[8] O
*I *1368:X O *D sg13g2_buf_1
*CAP
1 N4BEG[8] 1.97345e-05
2 *1368:X 7.66714e-05
3 *156:20 0.00169726
4 *156:16 0.00244098
5 *156:10 0.000840129
6 *156:10 *372:22 7.9225e-05
7 *156:10 *502:46 7.48842e-05
8 *156:16 *158:16 0.000339842
9 *156:16 *167:12 0.000176342
10 *156:16 *492:36 0
11 *156:16 *544:43 0
12 *156:16 *565:30 0
13 *156:20 *165:26 0
14 *156:20 *171:38 0.000396781
15 *131:14 *156:10 7.32897e-05
16 *139:18 *156:20 0.00451917
*RES
1 *1368:X *156:10 40.8858 
2 *156:10 *156:16 46.1594 
3 *156:16 *156:20 46.3062 
4 *156:20 N4BEG[8] 40.1648 
*END

*D_NET *157 0.0152474
*CONN
*P N4BEG[9] O
*I *1369:X O *D sg13g2_buf_1
*CAP
1 N4BEG[9] 0.000415531
2 *1369:X 0
3 *157:18 0.00263187
4 *157:12 0.00229905
5 *157:6 8.27143e-05
6 N4BEG[9] *168:32 0.00086526
7 N4BEG[9] *170:28 0.000209451
8 N4BEG[9] *192:11 0.000918563
9 *157:12 *544:43 0
10 *157:18 *166:14 0
11 *157:18 *168:22 0.000612068
12 *157:18 *170:20 0
13 *157:18 *408:14 0
14 *157:18 *496:22 7.57097e-05
15 *157:18 *496:30 4.63914e-05
16 *157:18 *510:24 0.000984324
17 *157:18 *515:36 0.00258805
18 *157:18 *520:36 0
19 *157:18 *576:34 7.78179e-05
20 *157:18 *591:38 0
21 *157:18 *594:20 7.78179e-05
22 *157:18 *619:22 0
23 N4BEG[10] N4BEG[9] 0
24 *133:22 *157:18 0.00130613
25 *153:14 *157:18 0
26 *153:22 *157:18 0.00205662
*RES
1 *1369:X *157:6 40 
2 *157:6 *157:12 40.5356 
3 *157:12 *157:18 47.9542 
4 *157:18 N4BEG[9] 46.2006 
*END

*D_NET *158 0.0265947
*CONN
*P NN4BEG[0] O
*I *1370:X O *D sg13g2_buf_1
*CAP
1 NN4BEG[0] 0.000237249
2 *1370:X 5.54788e-05
3 *158:42 0.00197161
4 *158:32 0.00272746
5 *158:28 0.00223121
6 *158:24 0.00155406
7 *158:16 0.000997549
8 *158:8 0.000737093
9 NN4BEG[0] *168:32 0.000181694
10 NN4BEG[0] *400:28 7.51285e-05
11 *158:8 *483:52 0
12 *158:16 *169:24 0.000449892
13 *158:16 *492:36 0.000185292
14 *158:16 *496:56 0.00141933
15 *158:16 *500:48 0
16 *158:16 *529:10 0
17 *158:16 *565:30 0
18 *158:24 *169:24 0.00125173
19 *158:28 *473:12 0.000835718
20 *158:28 *536:16 0
21 *158:32 *391:48 0.000236211
22 *158:32 *397:58 0
23 *158:32 *480:18 0
24 *158:32 *518:14 0.0030676
25 *158:32 *527:12 0.000504082
26 *158:32 *548:35 0.00344176
27 *158:32 *556:88 0
28 *158:42 *397:52 7.78179e-05
29 *158:42 *413:42 7.81669e-05
30 *158:42 *488:46 0
31 *158:42 *510:20 0.000268816
32 *158:42 *565:42 0
33 *158:42 *567:68 0.00112118
34 *158:42 *572:66 0.000363538
35 *158:42 *572:81 0
36 *158:42 *594:34 0
37 N1BEG[1] *158:8 0.000126354
38 *24:33 *158:28 0.000644753
39 *24:53 *158:42 0.000140714
40 *138:20 *158:8 2.14736e-05
41 *144:26 *158:24 0.00125186
42 *156:16 *158:16 0.000339842
*RES
1 *1370:X *158:8 40.5974 
2 *158:8 *158:16 48.7962 
3 *158:16 *158:24 46.3242 
4 *158:24 *158:28 30.0528 
5 *158:28 *158:32 39.3846 
6 *158:32 *158:42 34.3544 
7 *158:42 NN4BEG[0] 42.3072 
*END

*D_NET *159 0.0126321
*CONN
*P NN4BEG[10] O
*I *1371:X O *D sg13g2_buf_1
*CAP
1 NN4BEG[10] 0.000358749
2 *1371:X 0.000173239
3 *159:18 0.00220244
4 *159:8 0.00201693
5 NN4BEG[10] NN4BEG[11] 0
6 NN4BEG[10] NN4BEG[9] 0
7 NN4BEG[10] *192:11 0.000338615
8 NN4BEG[10] *203:9 0.000338408
9 *159:8 *162:12 0.00030487
10 *159:18 *904:A1 0.000240377
11 *159:18 *904:A2 0.000112426
12 *159:18 *909:S 0.000530036
13 *159:18 *996:D 0.000210282
14 *159:18 *160:36 0
15 *159:18 *173:14 0
16 *159:18 *283:20 0
17 *159:18 *321:18 1.54008e-05
18 *159:18 *339:12 0
19 *159:18 *403:29 0
20 *159:18 *405:68 0.000599698
21 *159:18 *406:28 0
22 *159:18 *467:22 0.00144279
23 *159:18 *510:40 0.000124547
24 *159:18 *520:59 0.000705526
25 *159:18 *557:30 0.00165165
26 *159:18 *566:61 0.000961061
27 *136:20 *159:8 0.00030506
*RES
1 *1371:X *159:8 42.0497 
2 *159:8 *159:18 43.5299 
3 *159:18 NN4BEG[10] 43.914 
*END

*D_NET *160 0.0132939
*CONN
*P NN4BEG[11] O
*I *1372:X O *D sg13g2_buf_1
*CAP
1 NN4BEG[11] 0.000300864
2 *1372:X 0.000670967
3 *160:36 0.00203551
4 *160:22 0.00240561
5 NN4BEG[11] NN4BEG[12] 0.000924504
6 NN4BEG[11] NN4BEG[7] 0.000500716
7 *160:22 *288:14 0.000111149
8 *160:22 *523:34 3.73103e-05
9 *160:22 *552:28 0.000126307
10 *160:22 *572:50 0.000438817
11 *160:22 *572:56 0.000126354
12 *160:36 NN4BEG[2] 0.000466542
13 *160:36 NN4BEG[3] 8.00842e-05
14 *160:36 *913:S 0.000497694
15 *160:36 *953:S 1.54008e-05
16 *160:36 *996:D 0.000231653
17 *160:36 *300:8 0
18 *160:36 *405:68 0.000493547
19 *160:36 *467:22 0
20 *160:36 *520:40 0.000233757
21 *160:36 *520:59 0.000740363
22 *160:36 *546:88 0.000283988
23 *160:36 *547:82 0.00044462
24 *160:36 *552:10 0.000105299
25 *160:36 *552:20 0.000283647
26 *160:36 *554:68 0.000230956
27 *160:36 *566:61 0.000649251
28 *160:36 *572:56 0
29 *160:36 *576:75 0.000178893
30 NN4BEG[10] NN4BEG[11] 0
31 *132:50 *160:22 0.000241073
32 *135:42 *160:22 0.000439071
33 *159:18 *160:36 0
*RES
1 *1372:X *160:22 47.9928 
2 *160:22 *160:36 40.6721 
3 *160:36 NN4BEG[11] 44.9028 
*END

*D_NET *161 0.0106698
*CONN
*P NN4BEG[12] O
*I *1373:X O *D sg13g2_buf_1
*CAP
1 NN4BEG[12] 0.00122967
2 *1373:X 8.47827e-05
3 *161:16 0.00165924
4 *161:10 0.000514349
5 NN4BEG[12] NN4BEG[15] 0.00287786
6 NN4BEG[12] NN4BEG[6] 0.000287256
7 NN4BEG[12] NN4BEG[7] 0
8 NN4BEG[12] *405:98 4.77079e-05
9 *161:10 *500:34 0.000177499
10 *161:10 *595:10 0.000124547
11 *161:10 *595:22 4.77425e-05
12 *161:16 *1210:A 8.00842e-05
13 N2BEG[6] *161:16 0.000240822
14 N2BEG[7] *161:16 0.000272605
15 N2BEGb[4] NN4BEG[12] 0.000604027
16 NN4BEG[11] NN4BEG[12] 0.000924504
17 *135:42 *161:10 4.76973e-05
18 *135:42 *161:16 0
19 *148:20 NN4BEG[12] 0
20 *152:30 NN4BEG[12] 0.00144937
*RES
1 *1373:X *161:10 41.1639 
2 *161:10 *161:16 43.9964 
3 *161:16 NN4BEG[12] 39.4567 
*END

*D_NET *162 0.0203096
*CONN
*P NN4BEG[13] O
*I *1374:X O *D sg13g2_buf_1
*CAP
1 NN4BEG[13] 0.000356555
2 *1374:X 0.00133933
3 *162:46 0.00143291
4 *162:40 0.001249
5 *162:32 0.00133723
6 *162:28 0.00161376
7 *162:20 0.000643325
8 *162:12 0.00153348
9 NN4BEG[13] NN4BEG[14] 0
10 NN4BEG[13] *192:11 0.000341717
11 NN4BEG[13] *405:98 0.000177109
12 NN4BEG[13] *565:48 0
13 *162:12 *944:A0 2.14475e-05
14 *162:12 *944:S 0.000175693
15 *162:12 *1376:A 1.54008e-05
16 *162:12 *423:24 0.000529846
17 *162:12 *521:26 0.000369743
18 *162:12 *595:22 0
19 *162:20 *408:34 0.000491675
20 *162:20 *536:16 0.000492336
21 *162:20 *547:126 0.000112236
22 *162:28 *408:34 0
23 *162:28 *535:26 0.00012559
24 *162:28 *541:36 0.000437461
25 *162:28 *558:12 0.000207845
26 *162:28 *558:83 0.000193078
27 *162:28 *581:16 0
28 *162:32 *163:14 0.00276649
29 *162:32 *205:21 0
30 *162:32 *250:10 0
31 *162:32 *267:12 0.000233251
32 *162:32 *349:8 0
33 *162:32 *423:28 0.00139635
34 *162:40 *205:21 0.000446463
35 *162:40 *592:24 0.000111568
36 *162:40 *616:22 0.000444337
37 *162:46 *163:14 0.00136265
38 *162:46 *406:44 0
39 *135:42 *162:12 0
40 *150:32 *162:28 4.68833e-05
41 *159:8 *162:12 0.00030487
*RES
1 *1374:X *162:12 32.5207 
2 *162:12 *162:20 43.0797 
3 *162:20 *162:28 44.7792 
4 *162:28 *162:32 35.9238 
5 *162:32 *162:40 42.8325 
6 *162:40 *162:46 49.6202 
7 *162:46 NN4BEG[13] 23.4814 
*END

*D_NET *163 0.0116913
*CONN
*P NN4BEG[14] O
*I *1375:X O *D sg13g2_buf_1
*CAP
1 NN4BEG[14] 0.000322667
2 *1375:X 8.4646e-05
3 *163:14 0.00249065
4 *163:8 0.00225263
5 NN4BEG[14] NN4BEG[15] 0
6 NN4BEG[14] *192:11 0.000181756
7 NN4BEG[14] *203:9 0.000182181
8 *163:8 *405:68 0.000143148
9 *163:8 *415:32 0.000143115
10 *163:14 *976:D 0
11 *163:14 *267:12 0
12 *163:14 *415:26 0
13 *163:14 *442:51 0
14 *163:14 *475:50 0
15 *163:14 *496:18 0
16 *163:14 *542:47 0
17 *163:14 *558:18 0
18 *163:14 *592:24 0.000629168
19 *163:14 *592:41 0.000111869
20 *163:14 *594:42 0.00102033
21 NN4BEG[13] NN4BEG[14] 0
22 *24:61 *163:14 0
23 *162:32 *163:14 0.00276649
24 *162:46 *163:14 0.00136265
*RES
1 *1375:X *163:8 40.9682 
2 *163:8 *163:14 44.7406 
3 *163:14 NN4BEG[14] 43.1724 
*END

*D_NET *164 0.0117028
*CONN
*P NN4BEG[15] O
*I *1376:X O *D sg13g2_buf_1
*CAP
1 NN4BEG[15] 0.00088464
2 *1376:X 0.000515585
3 *164:14 0.00119944
4 *164:8 0.000830386
5 NN4BEG[15] *168:32 0
6 NN4BEG[15] *400:28 0.0015085
7 *164:8 *428:44 0.00138662
8 *164:8 *544:81 0
9 *164:8 *583:14 0
10 *164:8 *594:12 0.00039147
11 Co NN4BEG[15] 0
12 N4BEG[1] *164:14 0.000434427
13 NN4BEG[12] NN4BEG[15] 0.00287786
14 NN4BEG[14] NN4BEG[15] 0
15 *132:50 *164:8 0.000178206
16 *148:20 NN4BEG[15] 0.00149571
*RES
1 *1376:X *164:8 46.5302 
2 *164:8 *164:14 42.9149 
3 *164:14 NN4BEG[15] 35.965 
*END

*D_NET *165 0.018908
*CONN
*P NN4BEG[1] O
*I *1377:X O *D sg13g2_buf_1
*CAP
1 NN4BEG[1] 6.7676e-05
2 *1377:X 0.000549109
3 *165:30 6.7676e-05
4 *165:26 0.000714811
5 *165:22 0.00195652
6 *165:16 0.00165478
7 *165:10 0.000962181
8 NN4BEG[1] NN4BEG[2] 6.78974e-05
9 *165:10 *171:12 0.0010743
10 *165:10 *359:26 0.00106848
11 *165:10 *372:12 0
12 *165:10 *418:12 0.000548519
13 *165:10 *530:92 8.00842e-05
14 *165:10 *575:83 0
15 *165:16 *615:32 0.000360656
16 *165:22 *170:20 0.00205311
17 *165:22 *343:32 0.000645102
18 *165:26 *171:38 0.000772548
19 *165:26 *437:40 0.00146699
20 *165:26 *565:30 0.00109183
21 *128:16 *165:10 7.49652e-05
22 *128:22 *165:10 4.77425e-05
23 *139:18 *165:26 0.000503722
24 *143:24 *165:22 0.00205395
25 *153:22 *165:22 0.00102531
26 *156:20 *165:26 0
*RES
1 *1377:X *165:10 48.549 
2 *165:10 *165:16 43.1312 
3 *165:16 *165:22 37.3864 
4 *165:22 *165:26 32.2158 
5 *165:26 *165:30 40 
6 *165:30 NN4BEG[1] 20.5974 
*END

*D_NET *166 0.0145047
*CONN
*P NN4BEG[2] O
*I *1378:X O *D sg13g2_buf_1
*CAP
1 NN4BEG[2] 0.000453472
2 *1378:X 5.6744e-05
3 *166:20 0.00110489
4 *166:14 0.00260718
5 *166:8 0.0020125
6 NN4BEG[2] *400:32 0.00030506
7 NN4BEG[2] *400:38 4.63914e-05
8 NN4BEG[2] *567:68 4.63914e-05
9 *166:8 *340:10 7.9112e-05
10 *166:8 *582:43 0
11 *166:14 *964:GATE 0.000124547
12 *166:14 *399:34 0
13 *166:14 *408:22 0.00153256
14 *166:14 *467:14 0.00154062
15 *166:14 *510:32 0.00038561
16 *166:14 *514:54 0.000441164
17 *166:14 *520:36 0
18 *166:14 *536:26 7.48306e-05
19 *166:14 *546:10 0.000176399
20 *166:14 *575:61 0
21 *166:14 *586:28 0
22 *166:20 *172:14 0
23 *166:20 *410:42 0.00147217
24 *166:20 *470:22 0
25 *166:20 *530:28 0.000557535
26 *166:20 *594:20 0.000396243
27 NN4BEG[1] NN4BEG[2] 6.78974e-05
28 *151:32 *166:14 0
29 *151:38 *166:20 0.000556859
30 *157:18 *166:14 0
31 *160:36 NN4BEG[2] 0.000466542
*RES
1 *1378:X *166:8 40.5356 
2 *166:8 *166:14 39.6421 
3 *166:14 *166:20 49.7438 
4 *166:20 NN4BEG[2] 45.0367 
*END

*D_NET *167 0.0145289
*CONN
*P NN4BEG[3] O
*I *1379:X O *D sg13g2_buf_1
*CAP
1 NN4BEG[3] 0.000196759
2 *1379:X 0
3 *167:18 0.000196759
4 *167:14 0.00213818
5 *167:12 0.00226739
6 *167:6 0.000129212
7 *167:14 *437:34 0.000984151
8 *167:14 *476:40 0.000334141
9 *167:14 *476:46 0
10 *167:14 *479:30 0.000342986
11 *167:14 *480:38 0.00339471
12 *167:14 *514:22 0.000503554
13 *167:14 *514:30 0.000235965
14 *167:14 *520:30 0.000586984
15 *167:14 *520:36 0
16 *167:14 *567:62 0
17 *144:30 *167:14 0.00296163
18 *156:16 *167:12 0.000176342
19 *160:36 NN4BEG[3] 8.00842e-05
*RES
1 *1379:X *167:6 40 
2 *167:6 *167:12 41.1845 
3 *167:12 *167:14 31.4974 
4 *167:14 *167:18 40 
5 *167:18 NN4BEG[3] 21.6789 
*END

*D_NET *168 0.0176071
*CONN
*P NN4BEG[4] O
*I *1380:X O *D sg13g2_buf_1
*CAP
1 NN4BEG[4] 0.000187038
2 *1380:X 0.000515613
3 *168:32 0.000914758
4 *168:22 0.00209004
5 *168:16 0.0015815
6 *168:10 0.000734788
7 *168:10 *372:12 0.00117922
8 *168:10 *431:35 0
9 *168:10 *496:44 7.47964e-05
10 *168:10 *499:82 0.000286704
11 *168:10 *530:92 0.00011101
12 *168:16 *343:44 7.90769e-05
13 *168:16 *496:50 4.63914e-05
14 *168:22 *169:24 0.000454935
15 *168:22 *534:14 0
16 *168:22 *615:22 0.00290838
17 *168:32 *192:11 0
18 *168:32 *400:28 0.000231238
19 *168:32 *405:98 0.000203173
20 *168:32 *479:36 0.00039125
21 N4BEG[14] *168:32 0.000548024
22 N4BEG[5] *168:32 0.000442066
23 N4BEG[9] *168:32 0.00086526
24 NN4BEG[0] *168:32 0.000181694
25 NN4BEG[15] *168:32 0
26 *128:22 *168:10 0.00011101
27 *140:20 *168:22 0.00285703
28 *144:26 *168:22 0
29 *148:20 *168:32 0
30 *151:32 *168:22 0
31 *157:18 *168:22 0.000612068
*RES
1 *1380:X *168:10 46.2933 
2 *168:10 *168:16 41.6171 
3 *168:16 *168:22 40.6 
4 *168:22 *168:32 49.9189 
5 *168:32 NN4BEG[4] 1.4626 
*END

*D_NET *169 0.0173263
*CONN
*P NN4BEG[5] O
*I *1381:X O *D sg13g2_buf_1
*CAP
1 NN4BEG[5] 0.000278704
2 *1381:X 9.93324e-05
3 *169:30 0.000728425
4 *169:24 0.00195921
5 *169:14 0.0016752
6 *169:8 0.000265049
7 *169:8 *431:35 0.000448259
8 *169:8 *532:42 0.00039467
9 *169:14 *170:14 0
10 *169:24 *171:20 0.000175861
11 *169:24 *359:12 0.000172446
12 *169:24 *359:16 0.00211352
13 *169:24 *488:66 0.000663707
14 *169:24 *500:28 0.000663619
15 *169:24 *500:48 0.000343063
16 *169:24 *533:26 0.000823985
17 *169:24 *615:22 0
18 *169:30 *192:11 0.00208396
19 *169:30 *203:9 0.00207599
20 *144:26 *169:24 0
21 *147:14 *169:14 0.000204783
22 *158:16 *169:24 0.000449892
23 *158:24 *169:24 0.00125173
24 *168:22 *169:24 0.000454935
*RES
1 *1381:X *169:8 42.0806 
2 *169:8 *169:14 41.4008 
3 *169:14 *169:24 42.4437 
4 *169:24 *169:30 49.7438 
5 *169:30 NN4BEG[5] 2.143 
*END

*D_NET *170 0.0182686
*CONN
*P NN4BEG[6] O
*I *1382:X O *D sg13g2_buf_1
*CAP
1 NN4BEG[6] 0.000538881
2 *1382:X 5.71071e-05
3 *170:28 0.00133134
4 *170:20 0.00207254
5 *170:14 0.00192242
6 *170:8 0.000699442
7 NN4BEG[6] NN4BEG[7] 0.00113668
8 *170:8 *544:49 7.92265e-05
9 *170:14 *418:20 0
10 *170:14 *515:36 7.78179e-05
11 *170:14 *544:43 0
12 *170:20 *403:41 0.00157254
13 *170:20 *513:46 0.000173781
14 *170:20 *530:40 0.000984744
15 *170:20 *566:45 0.00114441
16 *170:20 *591:32 0.000237892
17 *170:20 *594:26 0
18 *170:28 *171:26 0.000230949
19 *170:28 *173:34 0.000144768
20 *170:28 *479:48 0.000652193
21 *170:28 *483:48 0
22 *170:28 *546:102 0.000235086
23 N4BEG[7] *170:28 0
24 N4BEG[9] *170:28 0.000209451
25 NN4BEG[12] NN4BEG[6] 0.000287256
26 *141:20 *170:20 0.00242698
27 *143:24 *170:20 0
28 *146:18 *170:14 0
29 *154:18 *170:20 0
30 *157:18 *170:20 0
31 *165:22 *170:20 0.00205311
32 *169:14 *170:14 0
*RES
1 *1382:X *170:8 40.5356 
2 *170:8 *170:14 44.1562 
3 *170:14 *170:20 43.2883 
4 *170:20 *170:28 48.3636 
5 *170:28 NN4BEG[6] 47.5808 
*END

*D_NET *171 0.0167498
*CONN
*P NN4BEG[7] O
*I *1383:X O *D sg13g2_buf_1
*CAP
1 NN4BEG[7] 0.000459364
2 *1383:X 0.000222742
3 *171:38 0.000630933
4 *171:32 0.000757803
5 *171:26 0.00106725
6 *171:20 0.000608056
7 *171:12 0.000993873
8 *171:8 0.00108957
9 NN4BEG[7] NN4BEG[8] 0
10 *171:8 *928:A1 1.54008e-05
11 *171:12 *387:57 7.30101e-05
12 *171:12 *431:47 0.00121912
13 *171:12 *544:73 0
14 *171:12 *615:45 0.0010223
15 *171:20 *479:48 1.4965e-05
16 *171:20 *488:66 7.58215e-05
17 *171:20 *496:38 7.78179e-05
18 *171:20 *615:22 0.000289637
19 *171:26 *479:48 0
20 *171:26 *483:48 0.00137666
21 *171:32 *1028:GATE 0.0001122
22 *171:32 *554:68 0.000434201
23 N2BEGb[2] *171:12 0.000127853
24 N2BEGb[2] *171:26 0.000279386
25 N4BEG[4] *171:32 4.76973e-05
26 N4BEG[5] *171:32 0.000176873
27 NN4BEG[11] NN4BEG[7] 0.000500716
28 NN4BEG[12] NN4BEG[7] 0
29 NN4BEG[6] NN4BEG[7] 0.00113668
30 *132:50 *171:12 0.000799605
31 *149:34 *171:26 0.000489808
32 *156:20 *171:38 0.000396781
33 *165:10 *171:12 0.0010743
34 *165:26 *171:38 0.000772548
35 *169:24 *171:20 0.000175861
36 *170:28 *171:26 0.000230949
*RES
1 *1383:X *171:8 41.8334 
2 *171:8 *171:12 32.463 
3 *171:12 *171:20 41.8746 
4 *171:20 *171:26 46.7774 
5 *171:26 *171:32 45.7268 
6 *171:32 *171:38 43.5638 
7 *171:38 NN4BEG[7] 46.1697 
*END

*D_NET *172 0.0136074
*CONN
*P NN4BEG[8] O
*I *1384:X O *D sg13g2_buf_1
*CAP
1 NN4BEG[8] 0.000519339
2 *1384:X 0
3 *172:14 0.0024533
4 *172:10 0.00193396
5 *172:6 0
6 NN4BEG[8] NN4BEG[9] 0
7 NN4BEG[8] *437:46 0
8 *172:14 *343:36 0.00248793
9 *172:14 *410:42 0.00216642
10 *172:14 *471:44 0
11 *172:14 *488:58 0
12 *172:14 *492:28 0
13 *172:14 *500:20 0.00157198
14 *172:14 *500:44 0
15 *172:14 *526:28 0.000823969
16 *172:14 *532:34 0.000931327
17 NN4BEG[7] NN4BEG[8] 0
18 *146:18 *172:14 0
19 *151:38 *172:14 0.000719216
20 *166:20 *172:14 0
*RES
1 *1384:X *172:6 40 
2 *172:6 *172:10 40 
3 *172:10 *172:14 49.0254 
4 *172:14 NN4BEG[8] 43.9449 
*END

*D_NET *173 0.01211
*CONN
*P NN4BEG[9] O
*I *1385:X O *D sg13g2_buf_1
*CAP
1 NN4BEG[9] 0.000597477
2 *1385:X 0.000819473
3 *173:34 0.00147773
4 *173:22 0.00130738
5 *173:14 0.0012466
6 NN4BEG[9] *909:S 0.000208035
7 NN4BEG[9] *925:A1 4.77425e-05
8 NN4BEG[9] *583:14 7.9225e-05
9 NN4BEG[9] *583:22 0
10 *173:14 *897:S0 4.75151e-05
11 *173:14 *288:14 4.75151e-05
12 *173:14 *375:24 0.000751206
13 *173:14 *406:28 0
14 *173:14 *557:30 0.00117878
15 *173:22 *405:68 0.000111568
16 *173:22 *483:48 0
17 *173:22 *520:40 0.000755813
18 *173:22 *520:59 7.52158e-05
19 *173:22 *546:98 0.000334703
20 *173:34 *260:8 0.000959658
21 *173:34 *321:10 0.000754234
22 *173:34 *428:56 0
23 *173:34 *532:26 2.14736e-05
24 *173:34 *583:14 0
25 N4BEG[2] *173:22 7.48178e-05
26 NN4BEG[10] NN4BEG[9] 0
27 NN4BEG[8] NN4BEG[9] 0
28 *146:28 *173:34 0.000286042
29 *151:24 *173:14 0.000542064
30 *154:36 *173:22 0.000240935
31 *159:18 *173:14 0
32 *170:28 *173:34 0.000144768
*RES
1 *1385:X *173:14 49.7438 
2 *173:14 *173:22 45.4281 
3 *173:22 *173:34 49.7747 
4 *173:34 NN4BEG[9] 25.4075 
*END

*D_NET *174 0.00465524
*CONN
*P O_top0 I
*I *1193:A I *D sg13g2_buf_1
*CAP
1 O_top0 0.00155287
2 *1193:A 9.06297e-05
3 *174:13 0.0016435
4 *1193:A *453:10 1.54008e-05
5 *1193:A *482:30 0.000112507
6 *1193:A *498:20 7.92542e-05
7 *1193:A *572:16 0
8 *174:13 *1194:A 0
9 *174:13 *1205:A 0
10 *174:13 *1206:A 0.000144673
11 *174:13 *1208:A 0
12 *174:13 *453:10 0
13 *174:13 *497:16 0
14 *174:13 *520:8 0
15 *174:13 *541:8 0
16 *174:13 *544:10 0.000493542
17 *174:13 *545:10 0
18 *174:13 *562:8 0
19 *174:13 *564:16 0
20 *174:13 *575:16 0
21 *174:13 *576:8 0
22 *174:13 *577:20 0
23 *1188:A *174:13 0
24 *1189:A *174:13 0.00017594
25 *1190:A *174:13 0.000112684
26 *1192:A *174:13 0.000112228
27 *1211:A *174:13 0.000122012
28 *2:9 *174:13 0
29 *23:23 *174:13 0
30 *27:11 *174:13 0
*RES
1 O_top0 *174:13 34.8441 
2 *174:13 *1193:A 40.9682 
*END

*D_NET *175 0.00262476
*CONN
*P O_top1 I
*I *1194:A I *D sg13g2_buf_1
*CAP
1 O_top1 0.000975373
2 *1194:A 0.000975373
3 *1194:A *1195:A 4.76977e-05
4 *1194:A *1197:A 0
5 *1194:A *1205:A 0
6 *1194:A *1207:A 0.000208575
7 *1194:A *176:29 0
8 *1194:A *182:11 0
9 *1194:A *565:10 0
10 *1194:A *575:10 4.74703e-05
11 *1194:A *577:20 0.000370269
12 *28:9 *1194:A 0
13 *174:13 *1194:A 0
*RES
1 O_top1 *1194:A 28.9507 
*END

*D_NET *176 0.0104859
*CONN
*P O_top10 I
*I *1195:A I *D sg13g2_buf_1
*CAP
1 O_top10 0.00161174
2 *1195:A 6.0657e-05
3 *176:29 0.000599718
4 *176:21 0.00132559
5 *176:13 0.00239827
6 *1195:A *1197:A 0
7 *176:13 *345:14 0
8 *176:13 *357:20 0
9 *176:13 *432:20 0.00132595
10 *176:13 *432:30 0.000434427
11 *176:13 *461:26 0.000388363
12 *176:13 *547:14 7.31655e-05
13 *176:13 *550:31 0.000444048
14 *176:13 *550:65 0.000232418
15 *176:21 *182:11 0
16 *176:21 *337:28 8.00842e-05
17 *176:21 *432:12 0
18 *176:21 *569:10 0.000606084
19 *176:21 *577:20 0.000176711
20 *176:21 *588:44 0.00039602
21 *176:21 *610:22 0
22 *176:29 *1197:A 0.000122543
23 *176:29 *182:11 0
24 *176:29 *187:13 0
25 *176:29 *565:10 7.44263e-05
26 *1194:A *1195:A 4.76977e-05
27 *1194:A *176:29 0
28 *28:9 *176:29 0
29 *29:11 *176:29 0
30 *107:12 *176:29 8.79957e-05
*RES
1 O_top10 *176:13 36.3564 
2 *176:13 *176:21 47.5602 
3 *176:21 *176:29 44.6556 
4 *176:29 *1195:A 40.6695 
*END

*D_NET *177 0.0103039
*CONN
*P O_top11 I
*I *1196:A I *D sg13g2_buf_1
*CAP
1 O_top11 0.000782688
2 *1196:A 0.000492899
3 *177:9 0.00127559
4 *1196:A *1201:A 0.000207872
5 *1196:A *182:11 0.000207654
6 *1196:A *571:8 0.000208035
7 *177:9 *179:9 0.00354187
8 *177:9 *188:9 0.00247643
9 *177:9 *411:24 0.000715092
10 *177:9 *432:34 0.000395811
11 *177:9 *498:32 0
12 *177:9 *498:51 0
13 *13:13 *1196:A 0
*RES
1 O_top11 *177:9 37.7881 
2 *177:9 *1196:A 44.8822 
*END

*D_NET *178 0.0109339
*CONN
*P O_top12 I
*I *1197:A I *D sg13g2_buf_1
*CAP
1 O_top12 0.000887321
2 *1197:A 0.000646761
3 *178:23 0.00104895
4 *178:13 0.00128951
5 *1197:A *1319:A 0
6 *1197:A *1326:A 0.000393275
7 *1197:A *186:11 0
8 *1197:A *568:12 0
9 *178:13 *965:D 0
10 *178:13 *269:8 0
11 *178:13 *410:26 0.00181066
12 *178:23 *905:S1 7.96667e-05
13 *178:23 *1319:A 0.000393284
14 *178:23 *470:52 0.0007649
15 *178:23 *472:42 0.00124567
16 *178:23 *568:12 4.75151e-05
17 *1194:A *1197:A 0
18 *1195:A *1197:A 0
19 *107:12 *1197:A 0.000550177
20 *114:26 *178:13 0.00165371
21 *176:29 *1197:A 0.000122543
*RES
1 O_top12 *178:13 32.5866 
2 *178:13 *178:23 47.3233 
3 *178:23 *1197:A 46.5714 
*END

*D_NET *179 0.00783657
*CONN
*P O_top13 I
*I *1198:A I *D sg13g2_buf_1
*CAP
1 O_top13 0.0014199
2 *1198:A 0.000585825
3 *179:9 0.00200573
4 *1198:A *182:11 0
5 *179:9 *432:34 0
6 *179:9 *545:28 7.52149e-05
7 *13:13 *1198:A 0.000208035
8 *177:9 *179:9 0.00354187
*RES
1 O_top13 *179:9 40.5382 
2 *179:9 *1198:A 45.0985 
*END

*D_NET *180 0.00903108
*CONN
*P O_top14 I
*I *1199:A I *D sg13g2_buf_1
*CAP
1 O_top14 0.000259057
2 *1199:A 0
3 *180:25 0.000743539
4 *180:19 0.00141083
5 *180:13 0.00176525
6 *180:9 0.00135701
7 *180:9 *453:36 0
8 *180:13 *461:16 0.000396825
9 *180:13 *473:18 0.001102
10 *180:13 *542:16 0
11 *180:13 *547:45 0.000665151
12 *180:13 *573:14 0
13 *180:13 *576:20 0
14 *180:19 *361:20 0
15 *180:19 *499:60 0.000238725
16 *180:25 *425:16 0
17 *180:25 *461:36 0.0010927
18 *180:25 *527:22 0
19 *180:25 *561:14 0
*RES
1 O_top14 *180:9 42.1115 
2 *180:9 *180:13 32.7102 
3 *180:13 *180:19 44.8616 
4 *180:19 *180:25 48.0134 
5 *180:25 *1199:A 40 
*END

*D_NET *181 0.0127065
*CONN
*P O_top15 I
*I *1201:A I *D sg13g2_buf_1
*CAP
1 O_top15 0.00174348
2 *1201:A 0.000118517
3 *181:9 0.001862
4 *1201:A *182:11 0.000208012
5 *181:9 *186:11 0
6 *181:9 *377:14 0.00374616
7 *181:9 *531:26 0.000917769
8 *181:9 *531:36 0
9 *181:9 *576:14 0.00390272
10 *1196:A *1201:A 0.000207872
11 *117:8 *181:9 0
*RES
1 O_top15 *181:9 47.2435 
2 *181:9 *1201:A 41.4008 
*END

*D_NET *182 0.00272374
*CONN
*P O_top2 I
*I *1202:A I *D sg13g2_buf_1
*CAP
1 O_top2 0.000989645
2 *1202:A 0
3 *182:11 0.000989645
4 *182:11 *1061:A 0.000129367
5 *182:11 *1203:A 0
6 *182:11 *432:12 0.000120753
7 *182:11 *562:14 0
8 *182:11 *577:20 0
9 *182:11 *577:32 7.86681e-05
10 *1194:A *182:11 0
11 *1196:A *182:11 0.000207654
12 *1198:A *182:11 0
13 *1201:A *182:11 0.000208012
14 *176:21 *182:11 0
15 *176:29 *182:11 0
*RES
1 O_top2 *182:11 48.7035 
2 *182:11 *1202:A 20 
*END

*D_NET *183 0.000739242
*CONN
*P O_top3 I
*I *1203:A I *D sg13g2_buf_2
*CAP
1 O_top3 0.000369621
2 *1203:A 0.000369621
3 *182:11 *1203:A 0
*RES
1 O_top3 *1203:A 23.1106 
*END

*D_NET *184 0.00371715
*CONN
*P O_top4 I
*I *1204:A I *D sg13g2_buf_1
*CAP
1 O_top4 0.00107105
2 *1204:A 0
3 *184:23 0.000384351
4 *184:17 0.0014554
5 *184:17 *1326:A 0.000112426
6 *184:17 *189:19 0
7 *184:17 *410:12 0.000142231
8 *184:17 *542:12 0
9 *184:17 *578:14 0
10 *184:17 *580:14 0
11 *184:23 *1061:A 0.000144569
12 *184:23 *432:12 0
13 *184:23 *498:20 0
14 *184:23 *567:14 1.54008e-05
15 *184:23 *577:32 7.86681e-05
16 *13:33 *184:23 0
17 *106:8 *184:17 0.000232971
18 *114:8 *184:17 8.00842e-05
*RES
1 O_top4 *184:17 49.2288 
2 *184:17 *184:23 43.3475 
3 *184:23 *1204:A 20 
*END

*D_NET *185 0.00551763
*CONN
*P O_top5 I
*I *1205:A I *D sg13g2_buf_1
*CAP
1 O_top5 0.000534285
2 *1205:A 0.000471175
3 *185:11 0.00100546
4 *1205:A *1208:A 0.000337466
5 *185:11 *188:9 0.00183292
6 *185:11 *498:32 0.00103509
7 *185:11 *576:14 0
8 *1194:A *1205:A 0
9 *13:13 *185:11 0.000301237
10 *174:13 *1205:A 0
*RES
1 O_top5 *185:11 49.3215 
2 *185:11 *1205:A 24.3466 
*END

*D_NET *186 0.0046023
*CONN
*P O_top6 I
*I *1206:A I *D sg13g2_buf_1
*CAP
1 O_top6 0.00144607
2 *1206:A 8.99632e-05
3 *186:11 0.00153604
4 *1206:A *1208:A 0
5 *1206:A *576:8 0
6 *186:11 *1326:A 0.000503123
7 *186:11 *472:42 0
8 *186:11 *565:10 0
9 *186:11 *576:14 0
10 *1197:A *186:11 0
11 *13:13 *186:11 0
12 *107:12 *186:11 0.000644293
13 *117:8 *186:11 0.000238133
14 *174:13 *1206:A 0.000144673
15 *181:9 *186:11 0
*RES
1 O_top6 *186:11 33.9359 
2 *186:11 *1206:A 40.9682 
*END

*D_NET *187 0.00618334
*CONN
*P O_top7 I
*I *1207:A I *D sg13g2_buf_1
*CAP
1 O_top7 0.00153252
2 *1207:A 0.000119259
3 *187:13 0.00165178
4 *187:13 *337:28 0
5 *187:13 *410:26 0.000232837
6 *187:13 *565:10 0
7 *187:13 *568:12 0.00218869
8 *187:13 *578:14 0
9 *1194:A *1207:A 0.000208575
10 *28:9 *1207:A 0.000176206
11 *28:9 *187:13 7.34778e-05
12 *176:29 *187:13 0
*RES
1 O_top7 *187:13 35.7693 
2 *187:13 *1207:A 41.4008 
*END

*D_NET *188 0.00786633
*CONN
*P O_top8 I
*I *1208:A I *D sg13g2_buf_1
*CAP
1 O_top8 0.0007431
2 *1208:A 0.000241914
3 *188:9 0.000985014
4 *1208:A *576:8 0
5 *188:9 *498:32 0.00124948
6 *1205:A *1208:A 0.000337466
7 *1206:A *1208:A 0
8 *174:13 *1208:A 0
9 *177:9 *188:9 0.00247643
10 *185:11 *188:9 0.00183292
*RES
1 O_top8 *188:9 35.2852 
2 *188:9 *1208:A 42.4823 
*END

*D_NET *189 0.0081712
*CONN
*P O_top9 I
*I *1209:A I *D sg13g2_buf_1
*CAP
1 O_top9 0.000416964
2 *1209:A 0
3 *189:19 0.00108077
4 *189:11 0.00149774
5 *189:11 *576:14 0.0015679
6 *189:19 *337:28 0.000112426
7 *189:19 *363:8 0
8 *189:19 *471:68 0.000445943
9 *189:19 *473:24 0.000112426
10 *189:19 *567:14 0.000336105
11 *189:19 *578:14 0
12 *189:19 *610:22 0.00103123
13 *106:8 *189:19 0
14 *116:18 *189:11 0.0015697
15 *184:17 *189:19 0
*RES
1 O_top9 *189:11 48.5181 
2 *189:11 *189:19 31.4336 
3 *189:19 *1209:A 40 
*END

*D_NET *190 0.0112358
*CONN
*P S1END[0] I
*I *1210:A I *D sg13g2_buf_1
*CAP
1 S1END[0] 0.00158516
2 *1210:A 4.61224e-05
3 *190:9 0.00163128
4 *1210:A *483:48 4.77425e-05
5 *190:9 *904:A2 0.000496663
6 *190:9 *1212:A 0
7 *190:9 *202:13 0
8 *190:9 *203:9 0
9 *190:9 *405:82 0.000815452
10 *190:9 *483:52 7.51285e-05
11 *190:9 *533:38 0
12 *190:9 *612:24 0.000659949
13 Co *190:9 0.00435642
14 N4BEG[7] *190:9 0.00144178
15 *161:16 *1210:A 8.00842e-05
*RES
1 S1END[0] *190:9 43.8445 
2 *190:9 *1210:A 40.5356 
*END

*D_NET *191 0.00374932
*CONN
*P S1END[1] I
*I *1212:A I *D sg13g2_buf_2
*CAP
1 S1END[1] 0.00156963
2 *1212:A 0.00156963
3 *1212:A *1035:D 0
4 *1212:A *1120:A 0
5 *1212:A *192:11 0
6 *1212:A *202:13 0
7 *1212:A *205:21 0
8 *1212:A *420:34 0
9 *1212:A *559:130 0.000594663
10 *1212:A *582:10 1.54008e-05
11 *121:40 *1212:A 0
12 *190:9 *1212:A 0
*RES
1 S1END[1] *1212:A 33.596 
*END

*D_NET *192 0.00957648
*CONN
*P S1END[2] I
*I *1213:A I *D sg13g2_buf_1
*CAP
1 S1END[2] 0.00202253
2 *1213:A 0.000166099
3 *192:11 0.00218863
4 *192:11 *193:11 0
5 *192:11 *203:9 0
6 *192:11 *405:98 0.000285094
7 *192:11 *479:36 0.000396993
8 *192:11 *565:48 0
9 Co *192:11 0
10 N2BEG[7] *1213:A 0
11 N2BEGb[2] *1213:A 8.00842e-05
12 N2BEGb[3] *192:11 0.00022912
13 N2BEGb[6] *192:11 0.000343322
14 N2BEGb[7] *192:11 0
15 N4BEG[9] *192:11 0.000918563
16 NN4BEG[10] *192:11 0.000338615
17 NN4BEG[13] *192:11 0.000341717
18 NN4BEG[14] *192:11 0.000181756
19 *1212:A *192:11 0
20 *168:32 *192:11 0
21 *169:30 *192:11 0.00208396
*RES
1 S1END[2] *192:11 43.0823 
2 *192:11 *1213:A 41.4008 
*END

*D_NET *193 0.010217
*CONN
*P S1END[3] I
*I *1214:A I *D sg13g2_buf_1
*CAP
1 S1END[3] 0.000589093
2 *1214:A 0
3 *193:17 0.0028048
4 *193:11 0.00339389
5 *193:11 *202:13 0
6 *193:11 *203:9 0
7 *193:11 *565:48 0
8 *193:11 *612:24 0
9 *193:17 *246:14 0.000551982
10 *193:17 *400:24 0.000756443
11 *193:17 *410:50 0
12 *193:17 *432:46 0
13 *193:17 *439:34 0
14 *193:17 *479:30 0.00130127
15 *193:17 *488:30 0.000269242
16 *193:17 *499:14 0
17 *193:17 *513:30 0
18 *193:17 *516:14 0
19 *193:17 *538:36 0
20 *193:17 *579:34 0.000498552
21 *193:17 *579:45 5.16919e-05
22 *193:17 *596:14 0
23 *192:11 *193:11 0
*RES
1 S1END[3] *193:11 44.7174 
2 *193:11 *193:17 45.3895 
3 *193:17 *1214:A 40 
*END

*D_NET *194 0.00390805
*CONN
*P S2END[0] I
*I *1215:A I *D sg13g2_buf_1
*CAP
1 S2END[0] 0.00152072
2 *1215:A 0.00152072
3 *1215:A *988:GATE 0.00014391
4 *1215:A *1216:A 8.00842e-05
5 *1215:A *209:13 0.000272883
6 *1215:A *549:59 0.000369743
*RES
1 S2END[0] *1215:A 33.3797 
*END

*D_NET *195 0.00401561
*CONN
*P S2END[1] I
*I *1216:A I *D sg13g2_buf_1
*CAP
1 S2END[1] 0.00151876
2 *1216:A 0.00151876
3 *1216:A *941:A1 0
4 *1216:A *941:S 0.000240377
5 *1216:A *990:GATE 1.54008e-05
6 *1216:A *196:9 0
7 *1216:A *197:11 0
8 *1216:A *198:9 0
9 *1216:A *554:6 0
10 *1216:A *554:12 0.000594719
11 *1216:A *586:8 4.75151e-05
12 *1215:A *1216:A 8.00842e-05
*RES
1 S2END[1] *1216:A 33.9771 
*END

*D_NET *196 0.00552452
*CONN
*P S2END[2] I
*I *1217:A I *D sg13g2_buf_1
*CAP
1 S2END[2] 0.000860926
2 *1217:A 0.000164913
3 *196:9 0.00102584
4 *1217:A *214:9 0
5 *1217:A *215:13 0.000240404
6 *196:9 *197:11 0.00156632
7 *196:9 *199:9 0
8 *196:9 *201:9 0.00166612
9 *196:9 *211:9 0
10 *196:9 *405:106 0
11 *196:9 *565:58 0
12 *1216:A *196:9 0
*RES
1 S2END[2] *196:9 32.1334 
2 *196:9 *1217:A 41.6171 
*END

*D_NET *197 0.00377243
*CONN
*P S2END[3] I
*I *1218:A I *D sg13g2_buf_1
*CAP
1 S2END[3] 0.000838825
2 *1218:A 0.000136759
3 *197:11 0.000975584
4 *1218:A *211:9 4.68848e-05
5 *1218:A *212:13 0
6 *1218:A *225:13 0.000208062
7 *197:11 *198:9 0
8 *197:11 *217:9 0
9 *197:11 *220:9 0
10 *197:11 *565:58 0
11 *1216:A *197:11 0
12 *196:9 *197:11 0.00156632
*RES
1 S2END[3] *197:11 49.3833 
2 *197:11 *1218:A 21.4008 
*END

*D_NET *198 0.00467201
*CONN
*P S2END[4] I
*I *1219:A I *D sg13g2_buf_1
*CAP
1 S2END[4] 0.000804662
2 *1219:A 4.34621e-05
3 *198:9 0.000848124
4 *1219:A *1236:A 8.01116e-05
5 *1219:A *214:9 8.01116e-05
6 *198:9 *917:A1 0.000547738
7 *198:9 *199:9 0
8 *198:9 *200:13 0
9 *198:9 *217:9 0.00123959
10 *198:9 *219:11 0.00102821
11 *198:9 *365:10 0
12 *1216:A *198:9 0
13 *197:11 *198:9 0
*RES
1 S2END[4] *198:9 31.2373 
2 *198:9 *1219:A 40.5356 
*END

*D_NET *199 0.00488589
*CONN
*P S2END[5] I
*I *1220:A I *D sg13g2_buf_1
*CAP
1 S2END[5] 0.000978145
2 *1220:A 0.000247263
3 *199:9 0.00122541
4 *1220:A *215:13 0
5 *1220:A *226:9 4.77425e-05
6 *1220:A *233:19 0.000305252
7 *199:9 *200:13 0
8 *199:9 *201:9 0
9 *199:9 *210:9 0
10 *199:9 *218:9 0
11 *199:9 *223:9 0.00102974
12 *199:9 *226:9 7.51285e-05
13 *199:9 *405:106 0.000977219
14 *196:9 *199:9 0
15 *198:9 *199:9 0
*RES
1 S2END[5] *199:9 30.7738 
2 *199:9 *1220:A 42.4823 
*END

*D_NET *200 0.00688144
*CONN
*P S2END[6] I
*I *1221:A I *D sg13g2_buf_1
*CAP
1 S2END[6] 0.00114817
2 *1221:A 0.00014978
3 *200:13 0.00129795
4 *1221:A *234:11 0.000144217
5 *1221:A *235:9 0.000240684
6 *200:13 *917:S 0
7 *200:13 *941:A1 0
8 *200:13 *1019:GATE 0
9 *200:13 *201:9 0
10 *200:13 *217:9 0
11 *200:13 *221:9 0.00113028
12 *200:13 *514:10 0.000600575
13 *200:13 *604:20 0.00216978
14 *198:9 *200:13 0
15 *199:9 *200:13 0
*RES
1 S2END[6] *200:13 35.1828 
2 *200:13 *1221:A 41.6171 
*END

*D_NET *201 0.00601688
*CONN
*P S2END[7] I
*I *1223:A I *D sg13g2_buf_1
*CAP
1 S2END[7] 0.00074499
2 *1223:A 0.000169763
3 *201:9 0.000914753
4 *1223:A *233:19 8.00842e-05
5 *1223:A *235:9 0.000272911
6 *1223:A *236:9 8.00506e-05
7 *201:9 *210:9 0.00208821
8 *201:9 *211:9 0
9 *196:9 *201:9 0.00166612
10 *199:9 *201:9 0
11 *200:13 *201:9 0
*RES
1 S2END[7] *201:9 31.9171 
2 *201:9 *1223:A 41.8334 
*END

*D_NET *202 0.0114171
*CONN
*P S2MID[0] I
*I *1224:A I *D sg13g2_buf_1
*CAP
1 S2MID[0] 0.00163832
2 *1224:A 0
3 *202:13 0.00163832
4 *202:13 *904:A2 0.000495512
5 *202:13 *972:D 0.000232833
6 *202:13 *1020:D 4.77425e-05
7 *202:13 *1226:A 0
8 *202:13 *203:9 0.000144027
9 *202:13 *359:12 0
10 *202:13 *405:82 0.000816103
11 *202:13 *428:44 0.000810049
12 *202:13 *431:83 0.00319005
13 *202:13 *612:24 0.00111847
14 N4BEG[7] *202:13 0.00128569
15 *1212:A *202:13 0
16 *190:9 *202:13 0
17 *193:11 *202:13 0
*RES
1 S2MID[0] *202:13 44.9775 
2 *202:13 *1224:A 40 
*END

*D_NET *203 0.00983046
*CONN
*P S2MID[1] I
*I *1225:A I *D sg13g2_buf_1
*CAP
1 S2MID[1] 0.00162888
2 *1225:A 0.000109587
3 *203:9 0.00173847
4 *203:9 *1226:A 0
5 *203:9 *612:24 0
6 Co *203:9 0.00361291
7 NN4BEG[10] *203:9 0.000338408
8 NN4BEG[14] *203:9 0.000182181
9 *169:30 *203:9 0.00207599
10 *190:9 *203:9 0
11 *192:11 *203:9 0
12 *193:11 *203:9 0
13 *202:13 *203:9 0.000144027
*RES
1 S2MID[1] *203:9 42.4231 
2 *203:9 *1225:A 40.9682 
*END

*D_NET *204 0.00716776
*CONN
*P S2MID[2] I
*I *1226:A I *D sg13g2_buf_1
*CAP
1 S2MID[2] 0.00258121
2 *1226:A 0.00258121
3 *1226:A *937:A1 0
4 *1226:A *937:S 0
5 *1226:A *980:D 4.77425e-05
6 *1226:A *988:D 0.000208035
7 *1226:A *991:GATE 0.000434009
8 *1226:A *1006:D 0.00014454
9 *1226:A *1020:D 0
10 *1226:A *1077:A 7.98484e-05
11 *1226:A *205:13 0
12 *1226:A *206:13 0
13 *1226:A *463:14 0.00030487
14 *1226:A *520:85 7.98582e-05
15 *1226:A *558:61 0
16 *1226:A *585:18 0
17 *1226:A *603:36 0.000466053
18 I_top9 *1226:A 0.000240377
19 *202:13 *1226:A 0
20 *203:9 *1226:A 0
*RES
1 S2MID[2] *1226:A 43.3295 
*END

*D_NET *205 0.00717046
*CONN
*P S2MID[3] I
*I *1227:A I *D sg13g2_buf_1
*CAP
1 S2MID[3] 0.00112896
2 *1227:A 0.000177144
3 *205:21 0.00144457
4 *205:13 0.00239639
5 *1227:A *953:S 0
6 *205:13 *896:A2 0.000287935
7 *205:13 *933:S 0.000207525
8 *205:13 *206:13 0
9 *205:13 *542:47 0
10 *205:21 *267:12 0.000711725
11 *205:21 *559:130 0.000369743
12 *205:21 *587:16 0
13 *205:21 *616:22 0
14 *1212:A *205:21 0
15 *1226:A *205:13 0
16 *162:32 *205:21 0
17 *162:40 *205:21 0.000446463
*RES
1 S2MID[3] *205:13 49.6717 
2 *205:13 *205:21 31.8656 
3 *205:21 *1227:A 41.4008 
*END

*D_NET *206 0.00736464
*CONN
*P S2MID[4] I
*I *1228:A I *D sg13g2_buf_1
*CAP
1 S2MID[4] 0.00211836
2 *1228:A 0
3 *206:13 0.00211836
4 *206:13 *933:S 0.000402058
5 *206:13 *937:S 0
6 *206:13 *990:D 0.000112418
7 *206:13 *995:GATE 0
8 *206:13 *207:13 0.00101339
9 *206:13 *418:60 0.000282463
10 *206:13 *442:51 0
11 *206:13 *453:76 0
12 *206:13 *463:14 0
13 *206:13 *509:59 0
14 *206:13 *520:85 0.000207922
15 *206:13 *538:49 0
16 *206:13 *545:56 0.000418293
17 *206:13 *585:18 0.00069137
18 *206:13 *608:26 0
19 *1226:A *206:13 0
20 *205:13 *206:13 0
*RES
1 S2MID[4] *206:13 40.7751 
2 *206:13 *1228:A 40 
*END

*D_NET *207 0.00811978
*CONN
*P S2MID[5] I
*I *1229:A I *D sg13g2_buf_1
*CAP
1 S2MID[5] 0.00161172
2 *1229:A 0.00057166
3 *207:13 0.00218338
4 *1229:A *916:S 0
5 *1229:A *553:44 0.000401819
6 *207:13 *933:A0 0.000272692
7 *207:13 *208:9 0
8 *207:13 *306:8 7.48209e-05
9 *207:13 *403:14 7.48209e-05
10 *207:13 *415:40 0
11 *207:13 *467:30 0.000175833
12 *207:13 *479:24 0.000752202
13 *207:13 *483:32 0
14 *207:13 *483:38 0
15 *207:13 *520:85 7.86681e-05
16 *207:13 *554:35 0.000699405
17 *207:13 *565:50 0.000209378
18 *206:13 *207:13 0.00101339
*RES
1 S2MID[5] *207:13 36.8199 
2 *207:13 *1229:A 44.8616 
*END

*D_NET *208 0.00694977
*CONN
*P S2MID[6] I
*I *1230:A I *D sg13g2_buf_1
*CAP
1 S2MID[6] 0.00138587
2 *1230:A 0
3 *208:9 0.00138587
4 *208:9 *933:A0 0
5 *208:9 *209:13 0
6 *208:9 *253:30 0.00165993
7 *208:9 *406:44 0.000754676
8 *208:9 *483:38 0.000401668
9 *208:9 *520:69 0.000128779
10 *208:9 *520:75 0
11 *208:9 *559:130 0.000235378
12 *208:9 *565:50 0.000241765
13 *208:9 *612:20 0.000755837
14 *207:13 *208:9 0
*RES
1 S2MID[6] *208:9 36.7993 
2 *208:9 *1230:A 40 
*END

*D_NET *209 0.00485714
*CONN
*P S2MID[7] I
*I *1231:A I *D sg13g2_buf_1
*CAP
1 S2MID[7] 0.00180307
2 *1231:A 0
3 *209:13 0.00180307
4 *209:13 *981:D 0.000305545
5 *209:13 *988:GATE 0.00014391
6 *209:13 *1004:GATE 0.000143604
7 *209:13 *392:16 0
8 *209:13 *408:46 0
9 *209:13 *549:59 0.000369653
10 *209:13 *553:63 0
11 *209:13 *612:20 1.54008e-05
12 *1215:A *209:13 0.000272883
13 *208:9 *209:13 0
*RES
1 S2MID[7] *209:13 35.4603 
2 *209:13 *1231:A 40 
*END

*D_NET *210 0.00592775
*CONN
*P S4END[0] I
*I *1232:A I *D sg13g2_buf_1
*CAP
1 S4END[0] 0.00108638
2 *1232:A 0.000172414
3 *210:9 0.00125879
4 *1232:A *238:9 0.000305175
5 *1232:A *239:21 0.000305175
6 *210:9 *217:9 0
7 *210:9 *226:9 0.000711597
8 *199:9 *210:9 0
9 *201:9 *210:9 0.00208821
*RES
1 S4END[0] *210:9 32.6896 
2 *210:9 *1232:A 42.0497 
*END

*D_NET *211 0.00678957
*CONN
*P S4END[10] I
*I *1234:A I *D sg13g2_buf_1
*CAP
1 S4END[10] 0.00117805
2 *1234:A 0.00011788
3 *211:9 0.00129593
4 *211:9 *215:13 0
5 *211:9 *220:9 0.00219674
6 *211:9 *236:9 0.00177772
7 *211:9 *243:8 0
8 FrameStrobe_O[2] *1234:A 0
9 FrameStrobe_O[4] *1234:A 0.000176365
10 *1218:A *211:9 4.68848e-05
11 *196:9 *211:9 0
12 *201:9 *211:9 0
*RES
1 S4END[10] *211:9 35.5324 
2 *211:9 *1234:A 41.1845 
*END

*D_NET *212 0.00781824
*CONN
*P S4END[11] I
*I *1235:A I *D sg13g2_buf_1
*CAP
1 S4END[11] 0.000964695
2 *1235:A 0
3 *212:33 0.000175194
4 *212:25 0.000705616
5 *212:13 0.00149512
6 *212:13 *1236:A 0
7 *212:13 *214:9 0.000179386
8 *212:13 *221:9 0.000391514
9 *212:13 *225:13 0
10 *212:13 *553:90 0
11 *212:13 *587:8 0
12 *212:13 *589:8 0.000241895
13 *212:13 *590:8 0.000241868
14 *212:13 *591:16 4.77425e-05
15 *212:25 *224:9 0.000869
16 *212:25 *225:13 0.000488417
17 *212:25 *234:21 0.000173657
18 *212:25 *304:8 0.000814447
19 *212:25 *605:16 0.000383646
20 *212:25 *613:14 0
21 *212:33 *234:21 0.000282054
22 *212:33 *241:35 0.000284764
23 *212:33 *513:14 7.92265e-05
24 *1218:A *212:13 0
*RES
1 S4END[11] *212:13 49.0228 
2 *212:13 *212:25 48.1061 
3 *212:25 *212:33 42.3072 
4 *212:33 *1235:A 20 
*END

*D_NET *213 0.00430883
*CONN
*P S4END[12] I
*I *1236:A I *D sg13g2_buf_1
*CAP
1 S4END[12] 0.0018729
2 *1236:A 0.0018729
3 *1236:A *971:D 8.00842e-05
4 *1236:A *214:9 0
5 *1236:A *426:8 0
6 *1236:A *435:14 0
7 *1236:A *463:20 0
8 *1236:A *587:8 0
9 *1236:A *590:8 0.000402836
10 *1219:A *1236:A 8.01116e-05
11 *212:13 *1236:A 0
*RES
1 S4END[12] *1236:A 36.3873 
*END

*D_NET *214 0.00653396
*CONN
*P S4END[13] I
*I *1237:A I *D sg13g2_buf_1
*CAP
1 S4END[13] 0.0010301
2 *1237:A 0
3 *214:23 0.00032247
4 *214:15 0.000522969
5 *214:9 0.0012306
6 *214:9 *918:A0 0.000180885
7 *214:9 *1080:A 0.00086432
8 *214:9 *221:9 0
9 *214:9 *234:11 0
10 *214:9 *389:34 0.000261858
11 *214:9 *553:90 0.000337389
12 *214:9 *587:8 0.000274209
13 *214:15 *216:19 0.000556598
14 *214:15 *395:20 0
15 *214:15 *615:20 0
16 *214:23 *227:9 0.000540237
17 *214:23 *604:20 0
18 *214:23 *614:10 7.78179e-05
19 *1217:A *214:9 0
20 *1219:A *214:9 8.01116e-05
21 *1236:A *214:9 0
22 *97:14 *214:23 7.50134e-05
23 *212:13 *214:9 0.000179386
*RES
1 S4END[13] *214:9 31.1137 
2 *214:9 *214:15 42.575 
3 *214:15 *214:23 43.1106 
4 *214:23 *1237:A 40 
*END

*D_NET *215 0.00458177
*CONN
*P S4END[14] I
*I *1238:A I *D sg13g2_buf_1
*CAP
1 S4END[14] 0.00149701
2 *1238:A 0
3 *215:13 0.00149701
4 *215:13 *219:11 0.00134734
5 *215:13 *220:9 0
6 *215:13 *234:11 0
7 *215:13 *238:9 0
8 *215:13 *243:8 0
9 *215:13 *604:20 0
10 *1217:A *215:13 0.000240404
11 *1220:A *215:13 0
12 *98:10 *215:13 0
13 *211:9 *215:13 0
*RES
1 S4END[14] *215:13 35.8311 
2 *215:13 *1238:A 40 
*END

*D_NET *216 0.00472517
*CONN
*P S4END[15] I
*I *1239:A I *D sg13g2_buf_1
*CAP
1 S4END[15] 0.000525141
2 *1239:A 0
3 *216:23 0
4 *216:19 0.000941242
5 *216:11 0.00146638
6 *216:11 *476:18 4.669e-05
7 *216:19 *228:19 0.000534679
8 *216:19 *389:16 9.79478e-05
9 *216:19 *389:24 0.000556486
10 *216:19 *541:79 0
11 *216:19 *615:20 0
12 *214:15 *216:19 0.000556598
*RES
1 S4END[15] *216:11 45.459 
2 *216:11 *216:19 30.9077 
3 *216:19 *216:23 40 
4 *216:23 *1239:A 40 
*END

*D_NET *217 0.00618448
*CONN
*P S4END[1] I
*I *1240:A I *D sg13g2_buf_1
*CAP
1 S4END[1] 0.00107628
2 *1240:A 7.16337e-05
3 *217:9 0.00114791
4 *1240:A *241:21 0.000112426
5 *217:9 *218:9 0
6 *217:9 *219:11 0
7 *217:9 *220:9 0.00219636
8 *217:9 *233:19 0.000340288
9 *197:11 *217:9 0
10 *198:9 *217:9 0.00123959
11 *200:13 *217:9 0
12 *210:9 *217:9 0
*RES
1 S4END[1] *217:9 34.297 
2 *217:9 *1240:A 40.7519 
*END

*D_NET *218 0.00615413
*CONN
*P S4END[2] I
*I *1241:A I *D sg13g2_buf_1
*CAP
1 S4END[2] 0.0011322
2 *1241:A 0.000241985
3 *218:9 0.00137419
4 *1241:A *227:9 0.000434657
5 *1241:A *228:9 0.000434657
6 *218:9 *219:11 0
7 *218:9 *222:13 0
8 *218:9 *223:9 0.00208987
9 *218:9 *405:106 0.000446571
10 *199:9 *218:9 0
11 *217:9 *218:9 0
*RES
1 S4END[2] *218:9 32.8132 
2 *218:9 *1241:A 42.9149 
*END

*D_NET *219 0.00601475
*CONN
*P S4END[3] I
*I *1242:A I *D sg13g2_buf_1
*CAP
1 S4END[3] 0.00125793
2 *1242:A 5.05471e-05
3 *219:11 0.00130848
4 *1242:A *228:9 8.01118e-05
5 *1242:A *230:15 0
6 *219:11 *220:9 0
7 *219:11 *233:19 0.000340704
8 *219:11 *365:10 0.000601432
9 *219:11 *604:20 0
10 *198:9 *219:11 0.00102821
11 *215:13 *219:11 0.00134734
12 *217:9 *219:11 0
13 *218:9 *219:11 0
*RES
1 S4END[3] *219:11 35.5433 
2 *219:11 *1242:A 40.5356 
*END

*D_NET *220 0.00707248
*CONN
*P S4END[4] I
*I *1243:A I *D sg13g2_buf_1
*CAP
1 S4END[4] 0.00111727
2 *1243:A 7.76492e-05
3 *220:9 0.00119492
4 *1243:A *231:13 0.000144771
5 *1243:A *232:13 0.000144771
6 *220:9 *221:9 0
7 *197:11 *220:9 0
8 *211:9 *220:9 0.00219674
9 *215:13 *220:9 0
10 *217:9 *220:9 0.00219636
11 *219:11 *220:9 0
*RES
1 S4END[4] *220:9 35.7487 
2 *220:9 *1243:A 40.9682 
*END

*D_NET *221 0.00630968
*CONN
*P S4END[5] I
*I *1245:A I *D sg13g2_buf_1
*CAP
1 S4END[5] 0.00150173
2 *1245:A 0
3 *221:9 0.00150173
4 *221:9 *918:A0 0.0001813
5 *221:9 *1117:A 0
6 *221:9 *222:13 0
7 *221:9 *223:9 0
8 *221:9 *227:9 0.000233219
9 *221:9 *389:34 0.000387028
10 *221:9 *420:64 7.30101e-05
11 *221:9 *514:10 0.000285709
12 *221:9 *541:71 0.000391223
13 *221:9 *603:10 0.000232924
14 *221:9 *604:20 0
15 *200:13 *221:9 0.00113028
16 *212:13 *221:9 0.000391514
17 *214:9 *221:9 0
18 *220:9 *221:9 0
*RES
1 S4END[5] *221:9 36.0595 
2 *221:9 *1245:A 40 
*END

*D_NET *222 0.00473742
*CONN
*P S4END[6] I
*I *1246:A I *D sg13g2_buf_1
*CAP
1 S4END[6] 0.00145738
2 *1246:A 0.000266411
3 *222:13 0.00172379
4 *1246:A UserCLKo 0.000369859
5 *1246:A *232:13 0
6 *222:13 *223:9 0
7 *222:13 *229:11 0.000452981
8 FrameStrobe_O[0] *1246:A 0.000466999
9 *218:9 *222:13 0
10 *221:9 *222:13 0
*RES
1 S4END[6] *222:13 33.7917 
2 *222:13 *1246:A 43.1312 
*END

*D_NET *223 0.00729501
*CONN
*P S4END[7] I
*I *1247:A I *D sg13g2_buf_1
*CAP
1 S4END[7] 0.00110505
2 *1247:A 0.000224334
3 *223:9 0.00132938
4 *223:9 *226:9 0
5 *223:9 *229:11 0.000712012
6 FrameStrobe_O[1] *1247:A 0.000402316
7 FrameStrobe_O[2] *1247:A 0.000402316
8 *199:9 *223:9 0.00102974
9 *218:9 *223:9 0.00208987
10 *221:9 *223:9 0
11 *222:13 *223:9 0
*RES
1 S4END[7] *223:9 34.5127 
2 *223:9 *1247:A 42.6986 
*END

*D_NET *224 0.00594119
*CONN
*P S4END[8] I
*I *1248:A I *D sg13g2_buf_1
*CAP
1 S4END[8] 0.00162473
2 *1248:A 4.2898e-05
3 *224:9 0.00166763
4 *1248:A *417:14 0
5 *224:9 *971:GATE 0
6 *224:9 *1003:D 0
7 *224:9 *225:13 0
8 *224:9 *304:8 0
9 *224:9 *364:10 0.000177499
10 *224:9 *420:50 0.00039332
11 *224:9 *433:12 0
12 *224:9 *463:20 0
13 *224:9 *471:18 0
14 *224:9 *514:10 0.000176511
15 *224:9 *546:126 0
16 *224:9 *567:95 0
17 *224:9 *587:10 0.00060595
18 *224:9 *605:16 0.000383646
19 *224:9 *612:20 0
20 *212:25 *224:9 0.000869
*RES
1 S4END[8] *224:9 36.7993 
2 *224:9 *1248:A 40.3502 
*END

*D_NET *225 0.00760178
*CONN
*P S4END[9] I
*I *1249:A I *D sg13g2_buf_1
*CAP
1 S4END[9] 0.00175695
2 *1249:A 0.000227609
3 *225:13 0.00198456
4 *1249:A *232:13 8.00842e-05
5 *1249:A *607:12 0.000175693
6 *225:13 *1003:D 0.000208035
7 *225:13 *1080:A 0
8 *225:13 *230:15 0.000284403
9 *225:13 *235:9 0.00096794
10 *225:13 *291:10 0
11 *225:13 *304:8 0.00107957
12 *225:13 *587:10 0
13 *225:13 *589:8 0
14 *225:13 *592:14 0
15 *225:13 *605:16 0.00014046
16 *1218:A *225:13 0.000208062
17 *212:13 *225:13 0
18 *212:25 *225:13 0.000488417
19 *224:9 *225:13 0
*RES
1 S4END[9] *225:13 38.7666 
2 *225:13 *1249:A 42.0497 
*END

*D_NET *226 0.00515628
*CONN
*P SS4END[0] I
*I *1250:A I *D sg13g2_buf_1
*CAP
1 SS4END[0] 0.00138699
2 *1250:A 0.000185918
3 *226:9 0.00157291
4 *226:9 *236:9 0
5 *226:9 *240:9 0
6 FrameStrobe_O[7] *1250:A 0.000338307
7 FrameStrobe_O[8] *1250:A 0.000338307
8 *1220:A *226:9 4.77425e-05
9 *99:10 *226:9 0.000499383
10 *199:9 *226:9 7.51285e-05
11 *210:9 *226:9 0.000711597
12 *223:9 *226:9 0
*RES
1 SS4END[0] *226:9 33.4621 
2 *226:9 *1250:A 42.266 
*END

*D_NET *227 0.00524608
*CONN
*P SS4END[10] I
*I *1251:A I *D sg13g2_buf_1
*CAP
1 SS4END[10] 0.00102976
2 *1251:A 4.24304e-05
3 *227:15 0.000293792
4 *227:9 0.00128112
5 *1251:A *396:8 8.02267e-05
6 *227:9 *1080:A 0.000338845
7 *227:9 *228:9 0
8 *227:9 *232:13 0.000650972
9 *227:9 *241:21 0
10 *227:9 *451:8 0
11 *227:9 *604:20 0
12 *227:9 *612:14 0.000240596
13 *227:15 *389:16 0
14 *227:15 *397:14 0
15 FrameStrobe_O[4] *1251:A 8.02267e-05
16 *1241:A *227:9 0.000434657
17 *97:14 *227:9 0
18 *214:23 *227:9 0.000540237
19 *221:9 *227:9 0.000233219
*RES
1 SS4END[10] *227:9 31.1446 
2 *227:9 *227:15 42.4823 
3 *227:15 *1251:A 40.5356 
*END

*D_NET *228 0.00367613
*CONN
*P SS4END[11] I
*I *1252:A I *D sg13g2_buf_1
*CAP
1 SS4END[11] 0.000519576
2 *1252:A 0
3 *228:23 0
4 *228:19 0.000595715
5 *228:9 0.00111529
6 *228:9 *229:11 0
7 *228:9 *230:15 0
8 *228:9 *613:8 0
9 *228:19 *389:16 0
10 *228:19 *389:24 0.000396097
11 *1241:A *228:9 0.000434657
12 *1242:A *228:9 8.01118e-05
13 *216:19 *228:19 0.000534679
14 *227:9 *228:9 0
*RES
1 SS4END[11] *228:9 44.9234 
2 *228:9 *228:19 47.9413 
3 *228:19 *228:23 40 
4 *228:23 *1252:A 20 
*END

*D_NET *229 0.00413826
*CONN
*P SS4END[12] I
*I *1253:A I *D sg13g2_buf_1
*CAP
1 SS4END[12] 0.000846423
2 *1253:A 0.000245844
3 *229:11 0.00109227
4 FrameStrobe_O[11] *1253:A 8.03146e-05
5 FrameStrobe_O[13] *1253:A 0.000273507
6 FrameStrobe_O[14] *1253:A 0.000434915
7 *222:13 *229:11 0.000452981
8 *223:9 *229:11 0.000712012
9 *228:9 *229:11 0
*RES
1 SS4END[12] *229:11 49.8468 
2 *229:11 *1253:A 22.9149 
*END

*D_NET *230 0.00398981
*CONN
*P SS4END[13] I
*I *1254:A I *D sg13g2_buf_1
*CAP
1 SS4END[13] 0.000991981
2 *1254:A 0
3 *230:23 0.000389719
4 *230:15 0.0013817
5 *230:15 *1080:A 8.00842e-05
6 *230:15 *231:13 0.000284046
7 *230:15 *235:9 0
8 *230:15 *613:8 0.000111828
9 *230:23 *234:21 0.000111846
10 *230:23 *241:35 0.000112314
11 *230:23 *415:58 7.30101e-05
12 *230:23 *417:16 0
13 *230:23 *429:30 7.33225e-05
14 *230:23 *607:12 8.01545e-05
15 *230:23 *616:20 0
16 FrameStrobe_O[0] *230:23 1.54008e-05
17 *1242:A *230:15 0
18 *86:8 *230:23 0
19 *225:13 *230:15 0.000284403
20 *228:9 *230:15 0
*RES
1 SS4END[13] *230:15 49.1567 
2 *230:15 *230:23 43.605 
3 *230:23 *1254:A 20 
*END

*D_NET *231 0.00417277
*CONN
*P SS4END[14] I
*I *1256:A I *D sg13g2_buf_1
*CAP
1 SS4END[14] 0.00117544
2 *1256:A 0.000101456
3 *231:13 0.00127689
4 *1256:A *392:10 0
5 *1256:A *608:14 0.000112541
6 *1256:A *620:14 4.77699e-05
7 *231:13 *232:13 8.00444e-05
8 *231:13 *235:9 0.000806462
9 *231:13 *608:14 0
10 *231:13 *619:12 0.000143351
11 *1243:A *231:13 0.000144771
12 *86:8 *231:13 0
13 *230:15 *231:13 0.000284046
*RES
1 SS4END[14] *231:13 31.4124 
2 *231:13 *1256:A 41.1021 
*END

*D_NET *232 0.00478987
*CONN
*P SS4END[15] I
*I *1257:A I *D sg13g2_buf_1
*CAP
1 SS4END[15] 0.00110149
2 *1257:A 4.66635e-05
3 *232:13 0.00114815
4 *1257:A *402:10 8.00842e-05
5 *232:13 UserCLKo 0
6 *232:13 *451:8 0.00106982
7 FrameStrobe_O[0] *232:13 0
8 *1243:A *232:13 0.000144771
9 *1246:A *232:13 0
10 *1249:A *232:13 8.00842e-05
11 *97:14 *232:13 0
12 *104:10 *1257:A 4.77425e-05
13 *104:10 *232:13 0.000340051
14 *227:9 *232:13 0.000650972
15 *231:13 *232:13 8.00444e-05
*RES
1 SS4END[15] *232:13 32.3085 
2 *232:13 *1257:A 40.5356 
*END

*D_NET *233 0.00615925
*CONN
*P SS4END[1] I
*I *1258:A I *D sg13g2_buf_1
*CAP
1 SS4END[1] 0.000758499
2 *1258:A 0
3 *233:29 0.00078139
4 *233:19 0.00153989
5 *233:19 *234:11 0
6 *233:19 *235:9 0.00030528
7 *233:19 *237:9 0
8 *233:19 *593:10 1.54556e-05
9 *233:29 *971:GATE 0.000144352
10 *233:29 *235:9 0
11 *233:29 *237:9 0
12 *233:29 *241:35 0.000336487
13 *233:29 *320:10 0.000143192
14 *233:29 *380:18 0.000547768
15 *233:29 *433:12 0.000181825
16 *233:29 *513:14 8.00842e-05
17 *233:29 *567:110 7.93661e-05
18 *233:29 *589:14 0.000179339
19 *233:29 *593:22 0
20 *233:29 *612:20 0
21 *1220:A *233:19 0.000305252
22 *1223:A *233:19 8.00842e-05
23 *217:9 *233:19 0.000340288
24 *219:11 *233:19 0.000340704
*RES
1 SS4END[1] *233:19 48.2812 
2 *233:19 *233:29 48.2503 
3 *233:29 *1258:A 20 
*END

*D_NET *234 0.00555716
*CONN
*P SS4END[2] I
*I *1259:A I *D sg13g2_buf_1
*CAP
1 SS4END[2] 0.000881879
2 *1259:A 0
3 *234:21 0.000930046
4 *234:11 0.00181193
5 *234:11 *235:9 0
6 *234:11 *238:9 0.000495007
7 *234:11 *592:10 0
8 *234:11 *593:10 0.000287256
9 *234:21 *241:35 2.19775e-05
10 *234:21 *364:10 0
11 *234:21 *389:34 0
12 *234:21 *395:8 0.000232441
13 *234:21 *420:64 0
14 *234:21 *614:10 0
15 *234:21 *616:14 7.30101e-05
16 FrameStrobe_O[0] *234:21 0.000111846
17 *1221:A *234:11 0.000144217
18 *212:25 *234:21 0.000173657
19 *212:33 *234:21 0.000282054
20 *214:9 *234:11 0
21 *215:13 *234:11 0
22 *230:23 *234:21 0.000111846
23 *233:19 *234:11 0
*RES
1 SS4END[2] *234:11 48.5799 
2 *234:11 *234:21 47.7262 
3 *234:21 *1259:A 20 
*END

*D_NET *235 0.00714907
*CONN
*P SS4END[3] I
*I *1260:A I *D sg13g2_buf_1
*CAP
1 SS4END[3] 0.0014867
2 *1260:A 0.000124982
3 *235:9 0.00161168
4 *1260:A *608:14 0.00020815
5 *235:9 *918:S 0.00014391
6 *235:9 *1080:A 0
7 *235:9 *239:21 0.000285972
8 *235:9 *241:21 0.000127542
9 *235:9 *567:110 0.000391169
10 FrameStrobe_O[4] *1260:A 0.000175693
11 *1221:A *235:9 0.000240684
12 *1223:A *235:9 0.000272911
13 *225:13 *235:9 0.00096794
14 *230:15 *235:9 0
15 *231:13 *235:9 0.000806462
16 *233:19 *235:9 0.00030528
17 *233:29 *235:9 0
18 *234:11 *235:9 0
*RES
1 SS4END[3] *235:9 35.9341 
2 *235:9 *1260:A 41.4008 
*END

*D_NET *236 0.00613081
*CONN
*P SS4END[4] I
*I *1261:A I *D sg13g2_buf_1
*CAP
1 SS4END[4] 0.000888927
2 *1261:A 0.000148569
3 *236:9 0.0010375
4 *1261:A *1265:A 0
5 *236:9 *237:9 0
6 *236:9 *240:9 0.00198911
7 FrameStrobe_O[9] *1261:A 0.000208941
8 *1223:A *236:9 8.00506e-05
9 *211:9 *236:9 0.00177772
10 *226:9 *236:9 0
*RES
1 SS4END[4] *236:9 33.3385 
2 *236:9 *1261:A 41.4008 
*END

*D_NET *237 0.00527455
*CONN
*P SS4END[5] I
*I *1262:A I *D sg13g2_buf_1
*CAP
1 SS4END[5] 0.00142734
2 *1262:A 0
3 *237:9 0.00142734
4 *237:9 *238:9 0
5 *237:9 *241:35 0
6 *237:9 *320:10 0.000207876
7 *237:9 *380:18 0.000549576
8 *237:9 *389:55 0.000337357
9 *237:9 *403:14 0
10 *237:9 *567:110 0.000111568
11 *237:9 *589:14 0.000121065
12 *237:9 *593:10 0.00011123
13 *237:9 *603:10 0.000175913
14 *237:9 *619:12 0
15 *237:9 *619:14 0.000805281
16 *233:19 *237:9 0
17 *233:29 *237:9 0
18 *236:9 *237:9 0
*RES
1 SS4END[5] *237:9 34.3273 
2 *237:9 *1262:A 40 
*END

*D_NET *238 0.00519366
*CONN
*P SS4END[6] I
*I *1263:A I *D sg13g2_buf_1
*CAP
1 SS4END[6] 0.000956654
2 *1263:A 0.000365353
3 *238:9 0.00132201
4 *1263:A *396:8 0
5 *1263:A *604:10 0
6 *1263:A *608:20 1.54556e-05
7 *1263:A *609:18 0.000240634
8 *238:9 *239:21 0
9 *238:9 *603:10 0.00011123
10 *238:9 *604:20 0.00133463
11 FrameStrobe_O[1] *1263:A 4.75151e-05
12 *1232:A *238:9 0.000305175
13 *215:13 *238:9 0
14 *234:11 *238:9 0.000495007
15 *237:9 *238:9 0
*RES
1 SS4END[6] *238:9 30.7738 
2 *238:9 *1263:A 43.8213 
*END

*D_NET *239 0.00578469
*CONN
*P SS4END[7] I
*I *1264:A I *D sg13g2_buf_1
*CAP
1 SS4END[7] 0.00157448
2 *1264:A 7.97075e-05
3 *239:21 0.00165419
4 *1264:A *620:14 0.000144542
5 *239:21 *1051:A 4.77425e-05
6 *239:21 *1080:A 0.000124547
7 *239:21 *240:9 0
8 *239:21 *241:21 0.000127542
9 *239:21 *401:14 0.00012816
10 *239:21 *451:8 0.00107234
11 *239:21 *567:110 7.3236e-05
12 *239:21 *615:12 2.25194e-05
13 *1232:A *239:21 0.000305175
14 *97:14 *1264:A 0.000144542
15 *235:9 *239:21 0.000285972
16 *238:9 *239:21 0
*RES
1 SS4END[7] *239:21 35.5633 
2 *239:21 *1264:A 40.9682 
*END

*D_NET *240 0.00473001
*CONN
*P SS4END[8] I
*I *1265:A I *D sg13g2_buf_1
*CAP
1 SS4END[8] 0.0010191
2 *1265:A 0.000225207
3 *240:9 0.00124431
4 *240:9 *241:21 0
5 FrameStrobe_O[11] *1265:A 0.000177069
6 *1261:A *1265:A 0
7 *87:10 *240:9 7.52149e-05
8 *99:10 *240:9 0
9 *226:9 *240:9 0
10 *236:9 *240:9 0.00198911
11 *239:21 *240:9 0
*RES
1 SS4END[8] *240:9 31.639 
2 *240:9 *1265:A 42.2145 
*END

*D_NET *241 0.00486146
*CONN
*P SS4END[9] I
*I *1168:A I *D sg13g2_buf_1
*CAP
1 SS4END[9] 0.000979139
2 *1168:A 0
3 *241:35 0.000520109
4 *241:21 0.00149925
5 *241:21 *1067:A 4.77425e-05
6 *241:21 *417:14 0.000111567
7 *241:21 *433:12 0.000101323
8 *241:21 *612:14 0.000334923
9 *241:21 *618:8 0
10 *241:35 *403:14 0
11 *241:35 *433:12 2.19989e-05
12 *241:35 *609:18 0
13 *241:35 *616:14 7.48178e-05
14 FrameStrobe_O[0] *241:35 4.75425e-05
15 *1240:A *241:21 0.000112426
16 *212:33 *241:35 0.000284764
17 *227:9 *241:21 0
18 *230:23 *241:35 0.000112314
19 *233:29 *241:35 0.000336487
20 *234:21 *241:35 2.19775e-05
21 *235:9 *241:21 0.000127542
22 *237:9 *241:35 0
23 *239:21 *241:21 0.000127542
24 *240:9 *241:21 0
*RES
1 SS4END[9] *241:21 48.8757 
2 *241:21 *241:35 45.5208 
3 *241:35 *1168:A 20 
*END

*D_NET *242 0.013611
*CONN
*P UserCLK I
*I *1151:A I *D sg13g2_buf_1
*CAP
1 UserCLK 0.00190551
2 *1151:A 0
3 *242:19 0.000795861
4 *242:15 0.00126244
5 *242:9 0.00237209
6 *242:9 *571:24 0
7 *242:19 *433:20 0
8 *242:19 *435:24 0
9 *242:19 *437:70 0
10 I_top11 *242:9 0.00108905
11 I_top13 *242:9 0
12 I_top15 *242:9 0
13 *1082:A *242:15 0
14 *1084:A *242:15 0.000595577
15 *74:11 *242:19 0.00162219
16 *79:9 *242:9 0
17 *80:9 *242:9 0.00396825
*RES
1 UserCLK *242:9 48.4486 
2 *242:9 *242:15 44.6453 
3 *242:15 *242:19 30.7326 
4 *242:19 *1151:A 20 
*END

*D_NET *243 0.00267665
*CONN
*P UserCLKo O
*I *1386:X O *D sg13g2_buf_1
*CAP
1 UserCLKo 0.000301004
2 *1386:X 0.000852393
3 *243:8 0.0011534
4 FrameStrobe_O[0] UserCLKo 0
5 *1246:A UserCLKo 0.000369859
6 *87:10 *243:8 0
7 *89:20 *243:8 0
8 *90:10 *243:8 0
9 *103:12 *243:8 0
10 *211:9 *243:8 0
11 *215:13 *243:8 0
12 *232:13 UserCLKo 0
*RES
1 *1386:X *243:8 47.7662 
2 *243:8 UserCLKo 22.7604 
*END

*D_NET *246 0.00491715
*CONN
*I *906:S0 I *D sg13g2_mux4_1
*I *1015:Q O *D sg13g2_dlhq_1
*CAP
1 *906:S0 0
2 *1015:Q 6.84487e-05
3 *246:14 0.000902314
4 *246:10 0.000970763
5 *246:14 *931:A1 0
6 *246:14 *383:8 0
7 *246:14 *386:48 0
8 *246:14 *390:36 0.00172077
9 *246:14 *477:18 0
10 *246:14 *579:34 0.000394751
11 *246:14 *579:45 0
12 I_top8 *246:14 0
13 *66:13 *246:14 0.000180624
14 *78:17 *246:14 0.000127505
15 *193:17 *246:14 0.000551982
*RES
1 *1015:Q *246:10 40.6695 
2 *246:10 *246:14 31.4742 
3 *246:14 *906:S0 20 
*END

*D_NET *247 0.00130252
*CONN
*I *906:S1 I *D sg13g2_mux4_1
*I *1016:Q O *D sg13g2_dlhq_1
*CAP
1 *906:S1 0.000300383
2 *1016:Q 0.000300383
3 *906:S1 *1016:GATE 0.000257317
4 *906:S1 *556:116 7.46939e-05
5 *906:S1 *594:48 0
6 *906:S1 *594:56 0.000369743
*RES
1 *1016:Q *906:S1 43.5071 
*END

*D_NET *248 0.00127045
*CONN
*I *901:S0 I *D sg13g2_mux4_1
*I *1025:Q O *D sg13g2_dlhq_1
*CAP
1 *901:S0 0
2 *1025:Q 0.000296598
3 *248:10 0.000296598
4 *248:10 *1009:GATE 1.54008e-05
5 *248:10 *497:58 0.000330848
6 *136:12 *248:10 0.000331001
*RES
1 *1025:Q *248:10 43.2033 
2 *248:10 *901:S0 40 
*END

*D_NET *249 0.00223418
*CONN
*I *901:S1 I *D sg13g2_mux4_1
*I *1026:Q O *D sg13g2_dlhq_1
*CAP
1 *901:S1 0.000135204
2 *1026:Q 0.000153306
3 *249:8 0.000288511
4 *901:S1 *519:60 0.000234986
5 *249:8 *510:40 0.000594205
6 *249:8 *521:26 0.000592985
7 *130:40 *901:S1 0.000234986
*RES
1 *1026:Q *249:8 42.8222 
2 *249:8 *901:S1 41.5811 
*END

*D_NET *250 0.00269997
*CONN
*I *900:S0 I *D sg13g2_mux4_1
*I *1027:Q O *D sg13g2_dlhq_1
*CAP
1 *900:S0 5.58563e-05
2 *1027:Q 0.000753328
3 *250:10 0.000809184
4 *900:S0 *900:A0 1.54008e-05
5 *250:10 *1008:GATE 8.00842e-05
6 *250:10 *400:44 0
7 *250:10 *467:14 4.75166e-05
8 *250:10 *554:58 0.000442394
9 *250:10 *557:48 0
10 *250:10 *616:22 0.00031498
11 *250:10 *616:36 0.000181231
12 *162:32 *250:10 0
*RES
1 *1027:Q *250:10 47.622 
2 *250:10 *900:S0 40.5356 
*END

*D_NET *251 0.00342208
*CONN
*I *900:S1 I *D sg13g2_mux4_1
*I *1028:Q O *D sg13g2_dlhq_1
*CAP
1 *900:S1 1.21371e-05
2 *1028:Q 0.000737021
3 *251:12 0.000749158
4 *900:S1 *1128:A 1.73259e-05
5 *251:12 *283:8 0.000111286
6 *251:12 *415:40 0
7 *251:12 *474:8 0.000548872
8 *251:12 *554:58 0.00065129
9 *251:12 *554:60 0.000594995
*RES
1 *1028:Q *251:12 48.7138 
2 *251:12 *900:S1 40.1159 
*END

*D_NET *252 0.0237031
*CONN
*I *899:S0 I *D sg13g2_mux4_1
*I *1029:Q O *D sg13g2_dlhq_1
*CAP
1 *899:S0 0
2 *1029:Q 3.71218e-05
3 *252:50 0.000901842
4 *252:40 0.00185436
5 *252:32 0.00206584
6 *252:24 0.00260103
7 *252:18 0.00242744
8 *252:8 0.000976857
9 *252:8 *560:26 1.54008e-05
10 *252:18 *414:14 0.000525521
11 *252:18 *418:48 0
12 *252:18 *437:14 0.000678302
13 *252:18 *493:24 0.000235965
14 *252:18 *607:26 0
15 *252:24 *413:42 0.000720612
16 *252:24 *414:14 0
17 *252:24 *555:64 0
18 *252:24 *599:46 0.00301987
19 *252:24 *607:22 0
20 *252:24 *607:26 0.00129536
21 *252:32 *940:A0 0.000540534
22 *252:32 *267:12 0
23 *252:32 *392:16 0.000284798
24 *252:32 *442:51 0
25 *252:32 *549:59 0
26 *252:32 *608:26 0
27 *252:32 *611:18 0.000491529
28 *252:32 *616:22 0
29 *252:40 *282:14 0
30 *252:40 *382:10 0.000143673
31 *252:40 *464:78 0.000144542
32 *252:40 *548:8 0
33 *252:40 *552:101 0
34 *252:40 *553:44 0.000240667
35 *252:40 *590:16 0
36 *252:50 *899:A0 7.7004e-06
37 *252:50 *899:A3 0
38 *252:50 *430:10 0
39 *252:50 *476:10 0
40 *252:50 *549:78 0.00144534
41 *252:50 *549:107 0.000654625
42 *252:50 *552:124 0.000285112
43 *252:50 *552:149 0.0001122
44 *252:50 *603:36 0.0015496
45 *252:50 *609:43 0.000179615
46 *24:61 *252:24 0.000267621
*RES
1 *1029:Q *252:8 40.3193 
2 *252:8 *252:18 48.6932 
3 *252:18 *252:24 39.6318 
4 *252:24 *252:32 30.4133 
5 *252:32 *252:40 48.0237 
6 *252:40 *252:50 33.39 
7 *252:50 *899:S0 20 
*END

*D_NET *253 0.0242518
*CONN
*I *899:S1 I *D sg13g2_mux4_1
*I *1030:Q O *D sg13g2_dlhq_1
*CAP
1 *899:S1 0
2 *1030:Q 0.000383266
3 *253:48 0.000330713
4 *253:36 0.00143599
5 *253:30 0.0022131
6 *253:24 0.00202677
7 *253:18 0.00294023
8 *253:10 0.00240454
9 *253:10 *285:8 7.48178e-05
10 *253:10 *285:18 4.75151e-05
11 *253:10 *337:8 0
12 *253:10 *419:26 0
13 *253:10 *424:32 0.00112444
14 *253:10 *581:34 0.000550326
15 *253:18 *414:20 0
16 *253:18 *464:32 0
17 *253:18 *501:18 0
18 *253:18 *502:22 0
19 *253:18 *517:36 0
20 *253:24 *399:18 0
21 *253:24 *406:32 0
22 *253:24 *530:40 0.00066345
23 *253:24 *555:64 0
24 *253:30 *892:A0 7.52149e-05
25 *253:30 *343:12 0
26 *253:30 *403:29 0
27 *253:30 *406:44 0
28 *253:30 *410:50 0.000491412
29 *253:30 *420:38 0.00265347
30 *253:30 *509:59 0
31 *253:30 *520:69 0
32 *253:30 *542:47 0
33 *253:30 *556:153 0.00118151
34 *253:30 *580:54 0
35 *253:30 *587:24 0.000287492
36 *253:36 *391:20 0.000173111
37 *253:36 *405:110 0
38 *253:36 *423:40 0
39 *253:36 *424:52 0
40 *253:36 *424:56 0
41 *253:36 *437:60 0
42 *253:36 *468:16 0.000934751
43 *253:36 *483:20 0
44 *253:36 *517:14 0.000143613
45 *253:36 *578:28 4.63914e-05
46 *253:48 *958:S0 0
47 *253:48 *282:36 0.000121216
48 *253:48 *578:32 0.000970652
49 *253:48 *584:26 0.000112154
50 *253:48 *618:16 0.00102308
51 *24:37 *253:24 0.00018265
52 *208:9 *253:30 0.00165993
*RES
1 *1030:Q *253:10 45.6135 
2 *253:10 *253:18 34.3994 
3 *253:18 *253:24 49.4966 
4 *253:24 *253:30 38.6533 
5 *253:30 *253:36 30.0013 
6 *253:36 *253:48 46.0307 
7 *253:48 *899:S1 20 
*END

*D_NET *254 0.0051392
*CONN
*I *898:S0 I *D sg13g2_mux4_1
*I *1031:Q O *D sg13g2_dlhq_1
*CAP
1 *898:S0 0
2 *1031:Q 0
3 *254:12 0.00100873
4 *254:6 0.00100873
5 *254:12 *255:10 0.000285939
6 *254:12 *402:30 0.000286948
7 *254:12 *464:72 0
8 *254:12 *539:40 0.00204798
9 *254:12 *539:48 0
10 *254:12 *559:37 0.000500879
*RES
1 *1031:Q *254:6 40 
2 *254:6 *254:12 32.2879 
3 *254:12 *898:S0 20 
*END

*D_NET *255 0.00155971
*CONN
*I *898:S1 I *D sg13g2_mux4_1
*I *1032:Q O *D sg13g2_dlhq_1
*CAP
1 *898:S1 6.78031e-05
2 *1032:Q 0.000426664
3 *255:10 0.000494467
4 *255:10 *464:44 0.000179113
5 *255:10 *464:72 0.000105719
6 *255:10 *559:37 0
7 *255:10 *598:8 0
8 *254:12 *255:10 0.000285939
*RES
1 *1032:Q *255:10 44.2539 
2 *255:10 *898:S1 40.5485 
*END

*D_NET *256 0.00103147
*CONN
*I *897:S0 I *D sg13g2_mux4_1
*I *1033:Q O *D sg13g2_dlhq_1
*CAP
1 *897:S0 0.000444348
2 *1033:Q 0.000444348
3 *897:S0 *897:A0 1.54008e-05
4 *897:S0 *288:14 0
5 *897:S0 *467:8 0
6 *897:S0 *536:26 7.98582e-05
7 *173:14 *897:S0 4.75151e-05
*RES
1 *1033:Q *897:S0 43.8007 
*END

*D_NET *257 0.00263046
*CONN
*I *897:S1 I *D sg13g2_mux4_1
*I *1034:Q O *D sg13g2_dlhq_1
*CAP
1 *897:S1 0.000124773
2 *1034:Q 0.000312372
3 *257:10 0.000437146
4 *897:S1 *478:10 0.000170977
5 *897:S1 *547:126 0
6 *257:10 *423:28 0.000391528
7 *257:10 *546:31 0.000401036
8 *257:10 *581:16 0.000401036
9 *150:32 *257:10 0.00039159
*RES
1 *1034:Q *257:10 44.532 
2 *257:10 *897:S1 41.1484 
*END

*D_NET *258 0.00457615
*CONN
*I *905:S0 I *D sg13g2_mux4_1
*I *1017:Q O *D sg13g2_dlhq_1
*CAP
1 *905:S0 6.02972e-05
2 *1017:Q 0.000638509
3 *258:8 0.000698806
4 *258:8 *302:8 0.00106789
5 *258:8 *341:14 0.000128007
6 *258:8 *531:44 0.000230271
7 *258:8 *559:75 0.00175238
*RES
1 *1017:Q *258:8 49.2494 
2 *258:8 *905:S0 40.5356 
*END

*D_NET *259 0.000611882
*CONN
*I *896:S0 I *D sg13g2_mux4_1
*I *1035:Q O *D sg13g2_dlhq_1
*CAP
1 *896:S0 0.000265899
2 *1035:Q 0.000265899
3 *896:S0 *283:20 0
4 *896:S0 *583:69 8.00842e-05
*RES
1 *1035:Q *896:S0 42.4926 
*END

*D_NET *260 0.00456331
*CONN
*I *896:S1 I *D sg13g2_mux4_1
*I *1036:Q O *D sg13g2_dlhq_1
*CAP
1 *896:S1 6.19359e-05
2 *1036:Q 0.000718866
3 *260:8 0.000780802
4 *260:8 *896:A2 0.000549067
5 *260:8 *273:12 0.00149298
6 *260:8 *388:20 0
7 *260:8 *395:30 0
8 *260:8 *428:56 0
9 *260:8 *542:47 0
10 *260:8 *583:14 0
11 *173:34 *260:8 0.000959658
*RES
1 *1036:Q *260:8 49.991 
2 *260:8 *896:S1 40.4995 
*END

*D_NET *261 0.00148864
*CONN
*I *895:S0 I *D sg13g2_mux4_1
*I *1037:Q O *D sg13g2_dlhq_1
*CAP
1 *895:S0 2.90123e-05
2 *1037:Q 0.000319936
3 *261:8 0.000348948
4 *895:S0 *584:68 1.54008e-05
5 *895:S0 *603:24 4.77425e-05
6 *261:8 *275:10 0
7 *261:8 *471:12 0
8 *261:8 *488:24 0.000602744
9 *261:8 *505:18 0.000124862
10 *261:8 *545:88 0
*RES
1 *1037:Q *261:8 43.5638 
2 *261:8 *895:S0 40.3193 
*END

*D_NET *262 0.00588609
*CONN
*I *895:S1 I *D sg13g2_mux4_1
*I *1038:Q O *D sg13g2_dlhq_1
*CAP
1 *895:S1 0
2 *1038:Q 3.87849e-05
3 *262:14 0.000620616
4 *262:8 0.000659401
5 *262:14 *333:12 0.00218237
6 *262:14 *421:14 0.00218228
7 *262:14 *602:14 0.000202645
*RES
1 *1038:Q *262:8 40.3193 
2 *262:8 *262:14 31.6029 
3 *262:14 *895:S1 20 
*END

*D_NET *263 0.00984401
*CONN
*I *894:S0 I *D sg13g2_mux4_1
*I *1039:Q O *D sg13g2_dlhq_1
*CAP
1 *894:S0 0
2 *1039:Q 0.000233521
3 *263:26 0.000917441
4 *263:16 0.00161675
5 *263:8 0.00093283
6 *263:8 *898:A1 0.000240377
7 *263:8 *411:52 0
8 *263:16 *902:A0 7.92265e-05
9 *263:16 *343:16 0.00102787
10 *263:16 *397:46 0.00124541
11 *263:16 *539:40 0
12 *263:16 *545:36 0.00012816
13 *263:16 *556:106 0.000175693
14 *263:16 *581:63 0
15 *263:26 *919:S 0.000812932
16 *263:26 *955:S1 0.000202645
17 *263:26 *390:46 0
18 *263:26 *574:26 0
19 *263:26 *581:34 4.77425e-05
20 *263:26 *620:50 0.000288173
21 *66:37 *263:16 0.000337242
22 *117:8 *263:26 0.001558
*RES
1 *1039:Q *263:8 42.266 
2 *263:8 *263:16 49.8468 
3 *263:16 *263:26 32.0969 
4 *263:26 *894:S0 20 
*END

*D_NET *264 0.00179074
*CONN
*I *894:S1 I *D sg13g2_mux4_1
*I *1040:Q O *D sg13g2_dlhq_1
*CAP
1 *894:S1 0.000555879
2 *1040:Q 0.000555879
3 *894:S1 *285:26 0.000332287
4 *894:S1 *472:16 0.000202784
5 *894:S1 *557:48 0
6 *894:S1 *559:41 0
7 *66:59 *894:S1 0.000143908
*RES
1 *1040:Q *894:S1 45.4744 
*END

*D_NET *265 0.00098541
*CONN
*I *893:S0 I *D sg13g2_mux4_1
*I *1041:Q O *D sg13g2_dlhq_1
*CAP
1 *893:S0 2.60565e-05
2 *1041:Q 0.000178551
3 *265:12 0.000204607
4 *893:S0 *956:A3 4.77425e-05
5 *893:S0 *582:26 1.54008e-05
6 *893:S0 *582:43 3.23417e-05
7 *265:12 *1360:A 1.54008e-05
8 *265:12 *348:12 0.00023208
9 *265:12 *505:58 0.000233231
*RES
1 *1041:Q *265:12 42.472 
2 *265:12 *893:S0 40.3193 
*END

*D_NET *266 0.00255755
*CONN
*I *893:S1 I *D sg13g2_mux4_1
*I *1042:Q O *D sg13g2_dlhq_1
*CAP
1 *893:S1 4.41494e-05
2 *1042:Q 5.80841e-05
3 *266:16 0.000794129
4 *266:8 0.000808063
5 *893:S1 *897:A0 4.96676e-05
6 *266:8 *559:61 0.000128112
7 *266:8 *559:69 0.000180811
8 *266:8 *611:50 0.000287107
9 *266:16 *407:12 0
10 *266:16 *418:40 2.6026e-05
11 *266:16 *464:22 0.000140671
12 *266:16 *473:12 0
13 *266:16 *475:39 2.57683e-05
14 *266:16 *519:52 1.4965e-05
*RES
1 *1042:Q *266:8 41.339 
2 *266:8 *266:16 45.2015 
3 *266:16 *893:S1 40.4558 
*END

*D_NET *267 0.00235411
*CONN
*I *892:S0 I *D sg13g2_mux4_1
*I *1043:Q O *D sg13g2_dlhq_1
*CAP
1 *892:S0 0.000105423
2 *1043:Q 0.000551831
3 *267:12 0.000657255
4 *892:S0 *892:A0 1.54008e-05
5 *267:12 *442:51 0
6 *267:12 *616:22 0
7 *121:40 *267:12 7.9225e-05
8 *162:32 *267:12 0.000233251
9 *163:14 *267:12 0
10 *205:21 *267:12 0.000711725
11 *252:32 *267:12 0
*RES
1 *1043:Q *267:12 45.9019 
2 *267:12 *892:S0 40.9682 
*END

*D_NET *268 0.000548681
*CONN
*I *892:S1 I *D sg13g2_mux4_1
*I *1044:Q O *D sg13g2_dlhq_1
*CAP
1 *892:S1 0.00027434
2 *1044:Q 0.00027434
3 *892:S1 *1120:A 0
*RES
1 *1044:Q *892:S1 42.6007 
*END

*D_NET *269 0.00312389
*CONN
*I *905:S1 I *D sg13g2_mux4_1
*I *1018:Q O *D sg13g2_dlhq_1
*CAP
1 *905:S1 0.000955038
2 *1018:Q 0.00010941
3 *269:8 0.00106445
4 *905:S1 *322:10 7.9225e-05
5 *905:S1 *462:10 7.92265e-05
6 *905:S1 *547:152 8.00842e-05
7 *269:8 *470:52 0.000391638
8 *114:26 *269:8 0.000285154
9 *178:13 *269:8 0
10 *178:23 *905:S1 7.96667e-05
*RES
1 *1018:Q *269:8 41.8334 
2 *269:8 *905:S1 47.81 
*END

*D_NET *270 0.00222915
*CONN
*I *891:S0 I *D sg13g2_mux4_1
*I *1045:Q O *D sg13g2_dlhq_1
*CAP
1 *891:S0 0
2 *1045:Q 0.000601306
3 *270:10 0.000601306
4 *270:10 *324:14 0
5 *270:10 *539:61 0.00102654
6 *270:10 *560:115 0
7 *270:10 *573:22 0
8 *270:10 *584:18 0
*RES
1 *1045:Q *270:10 46.3551 
2 *270:10 *891:S0 40 
*END

*D_NET *271 0.00381215
*CONN
*I *891:S1 I *D sg13g2_mux4_1
*I *1046:Q O *D sg13g2_dlhq_1
*CAP
1 *891:S1 0.000181044
2 *1046:Q 0.000490704
3 *271:8 0.000671748
4 *891:S1 *402:30 0
5 *891:S1 *469:10 0
6 *271:8 *999:GATE 0.0004452
7 *271:8 *316:10 0.000709735
8 *271:8 *386:74 0
9 *271:8 *402:30 0.000815058
10 *271:8 *546:161 0
11 *271:8 *552:141 0.000498662
*RES
1 *1046:Q *271:8 47.519 
2 *271:8 *891:S1 41.4137 
*END

*D_NET *272 0.00616927
*CONN
*I *904:S0 I *D sg13g2_mux4_1
*I *1019:Q O *D sg13g2_dlhq_1
*CAP
1 *904:S0 0
2 *1019:Q 0
3 *272:12 0.00122585
4 *272:6 0.00122585
5 *272:12 *273:12 0
6 *272:12 *305:8 0.000597588
7 *272:12 *388:20 0.00223514
8 *272:12 *463:8 0.00039514
9 *272:12 *471:26 2.19989e-05
10 *272:12 *483:48 0
11 *272:12 *546:102 0
12 *272:12 *583:69 0.000285142
13 *272:12 *592:14 0
14 *272:12 *592:41 0.000182553
*RES
1 *1019:Q *272:6 40 
2 *272:6 *272:12 34.7599 
3 *272:12 *904:S0 20 
*END

*D_NET *273 0.00388176
*CONN
*I *904:S1 I *D sg13g2_mux4_1
*I *1020:Q O *D sg13g2_dlhq_1
*CAP
1 *904:S1 2.96684e-05
2 *1020:Q 0.000668812
3 *273:12 0.000698481
4 *904:S1 *576:75 4.23522e-05
5 *273:12 *1020:GATE 1.54008e-05
6 *273:12 *428:56 0.000751515
7 *273:12 *592:41 0.000182553
8 *260:8 *273:12 0.00149298
9 *272:12 *273:12 0
*RES
1 *1020:Q *273:12 48.7756 
2 *273:12 *904:S1 40.2832 
*END

*D_NET *274 0.00345208
*CONN
*I *903:S0 I *D sg13g2_mux4_1
*I *1021:Q O *D sg13g2_dlhq_1
*CAP
1 *903:S0 0
2 *1021:Q 0.00063009
3 *274:10 0.00063009
4 *274:10 *903:A2 0.000281125
5 *274:10 *926:A0 5.29839e-05
6 *274:10 *959:GATE 1.61708e-05
7 *274:10 *299:10 0
8 *274:10 *392:16 0
9 *274:10 *426:18 0.00139102
10 *274:10 *546:136 0.000210602
11 *274:10 *549:82 0.000239996
*RES
1 *1021:Q *274:10 48.1473 
2 *274:10 *903:S0 40 
*END

*D_NET *275 0.00263083
*CONN
*I *903:S1 I *D sg13g2_mux4_1
*I *1022:Q O *D sg13g2_dlhq_1
*CAP
1 *903:S1 0.000180587
2 *1022:Q 0.000342072
3 *275:10 0.000522658
4 *903:S1 *471:12 0.000240377
5 *903:S1 *589:20 0.000306985
6 *275:10 *471:12 0.000495775
7 *275:10 *549:82 0.00020799
8 *275:10 *603:24 0.000208035
9 *275:10 *605:28 0.000126354
10 *261:8 *275:10 0
*RES
1 *1022:Q *275:10 43.9758 
2 *275:10 *903:S1 42.0626 
*END

*D_NET *276 0.00123607
*CONN
*I *902:S0 I *D sg13g2_mux4_1
*I *1023:Q O *D sg13g2_dlhq_1
*CAP
1 *902:S0 0.00043842
2 *1023:Q 0.00043842
3 *902:S0 *907:S 0
4 *902:S0 *923:A0 0.000359228
5 *902:S0 *385:18 0
6 *66:55 *902:S0 0
*RES
1 *1023:Q *902:S0 44.2642 
*END

*D_NET *277 0.00049634
*CONN
*I *902:S1 I *D sg13g2_mux4_1
*I *1024:Q O *D sg13g2_dlhq_1
*CAP
1 *902:S1 0.00024817
2 *1024:Q 0.00024817
3 *902:S1 *509:42 0
4 *902:S1 *594:48 0
*RES
1 *1024:Q *902:S1 42.436 
*END

*D_NET *278 0.00125856
*CONN
*I *938:S I *D sg13g2_mux2_1
*I *983:Q O *D sg13g2_dlhq_1
*CAP
1 *938:S 3.53778e-05
2 *983:Q 9.31841e-05
3 *278:8 0.000128562
4 *278:8 *416:48 0.000501357
5 I_top8 *278:8 0.000500076
*RES
1 *983:Q *278:8 42.3278 
2 *278:8 *938:S 40.3193 
*END

*D_NET *279 0.003334
*CONN
*I *937:S I *D sg13g2_mux2_1
*I *984:Q O *D sg13g2_dlhq_1
*CAP
1 *937:S 0.000450983
2 *984:Q 0.000562704
3 *279:12 0.00101369
4 *937:S *585:18 7.99004e-05
5 *279:12 *1000:GATE 0
6 *279:12 *1136:A 0
7 *279:12 *391:36 0.000496991
8 *279:12 *545:56 0
9 *279:12 *550:155 0.000392589
10 *279:12 *582:16 0.000337141
11 *279:12 *597:14 0
12 *1226:A *937:S 0
13 *206:13 *937:S 0
*RES
1 *984:Q *279:12 46.3357 
2 *279:12 *937:S 43.5638 
*END

*D_NET *280 0.00174026
*CONN
*I *928:S I *D sg13g2_mux2_1
*I *993:Q O *D sg13g2_dlhq_1
*CAP
1 *928:S 0.00069603
2 *993:Q 0.00069603
3 *928:S *1009:GATE 0
4 *928:S *1025:GATE 0.000272718
5 *928:S *556:10 5.40389e-05
6 *928:S *556:63 2.14475e-05
*RES
1 *993:Q *928:S 45.9946 
*END

*D_NET *281 0.00270393
*CONN
*I *927:S I *D sg13g2_mux2_1
*I *994:Q O *D sg13g2_dlhq_1
*CAP
1 *927:S 0.000884493
2 *994:Q 0.000884493
3 *927:S *943:A1 0.000166433
4 *927:S *1040:D 0.000272718
5 *927:S *327:18 0.000143908
6 *927:S *405:68 0
7 *927:S *552:51 0.000127486
8 *927:S *581:24 0.000112198
9 *927:S *598:29 0.0001122
*RES
1 *994:Q *927:S 48.5655 
*END

*D_NET *282 0.0166344
*CONN
*I *926:S I *D sg13g2_mux2_1
*I *995:Q O *D sg13g2_dlhq_1
*CAP
1 *926:S 0
2 *995:Q 0.00035701
3 *282:52 0.000236042
4 *282:44 0.000719534
5 *282:36 0.00161626
6 *282:24 0.00165315
7 *282:14 0.00143009
8 *282:8 0.00126671
9 *282:8 *543:60 0
10 *282:8 *548:10 0.00060439
11 *282:8 *548:16 0.000547687
12 *282:8 *580:46 0.000652057
13 *282:14 *1118:A 0.000787163
14 *282:14 *464:78 0.000272718
15 *282:14 *549:43 0
16 *282:24 *308:22 0.000498831
17 *282:24 *386:48 0.00108168
18 *282:24 *386:61 0.000395811
19 *282:24 *386:74 7.9225e-05
20 *282:24 *477:18 0.00158232
21 *282:24 *620:28 0
22 *282:36 *958:S0 0.000369553
23 *282:36 *476:10 4.77425e-05
24 *282:36 *552:124 0.000110965
25 *282:36 *584:26 0
26 *282:36 *584:68 0
27 *282:44 *396:27 0.000111567
28 *282:44 *436:16 0
29 *282:44 *505:18 0.00107408
30 *282:44 *605:28 0.000337302
31 *282:52 *394:14 0.000143797
32 *282:52 *396:27 7.45103e-05
33 *282:52 *426:18 0
34 *282:52 *505:18 0
35 *282:52 *573:59 0.000126047
36 *282:52 *573:67 0
37 *66:25 *282:14 0.000336984
38 *108:10 *282:36 0
39 *252:40 *282:14 0
40 *253:48 *282:36 0.000121216
*RES
1 *995:Q *282:8 45.2942 
2 *282:8 *282:14 48.755 
3 *282:14 *282:24 49.6408 
4 *282:24 *282:36 30.094 
5 *282:36 *282:44 45.7989 
6 *282:44 *282:52 42.3072 
7 *282:52 *926:S 20 
*END

*D_NET *283 0.00624687
*CONN
*I *925:S I *D sg13g2_mux2_1
*I *996:Q O *D sg13g2_dlhq_1
*CAP
1 *925:S 0
2 *996:Q 7.71529e-05
3 *283:20 0.00146431
4 *283:8 0.00154146
5 *283:8 *467:14 0
6 *283:20 *925:A1 0.000208593
7 *283:20 *949:A0 4.77425e-05
8 *283:20 *311:12 0
9 *283:20 *403:29 0.00144286
10 *283:20 *406:28 0.000283265
11 *283:20 *587:24 0.00086216
12 *283:20 *601:24 0.000208035
13 *896:S0 *283:20 0
14 *159:18 *283:20 0
15 *251:12 *283:8 0.000111286
*RES
1 *996:Q *283:8 40.7519 
2 *283:8 *283:20 36.3358 
3 *283:20 *925:S 20 
*END

*D_NET *284 0.00245632
*CONN
*I *924:S I *D sg13g2_mux2_1
*I *997:Q O *D sg13g2_dlhq_1
*CAP
1 *924:S 0.000442036
2 *997:Q 0.000129361
3 *284:8 0.000571397
4 *924:S *337:28 0.000176062
5 *924:S *357:20 0
6 *924:S *424:16 4.77425e-05
7 *924:S *482:14 0
8 *284:8 *508:12 0.00054423
9 *284:8 *610:22 0.000545488
*RES
1 *997:Q *284:8 42.575 
2 *284:8 *924:S 43.914 
*END

*D_NET *285 0.0070285
*CONN
*I *923:S I *D sg13g2_mux2_1
*I *998:Q O *D sg13g2_dlhq_1
*CAP
1 *923:S 0
2 *998:Q 0.000310289
3 *285:26 0.000311007
4 *285:18 0.00112152
5 *285:8 0.00112081
6 *285:8 *935:A0 0.000542491
7 *285:8 *337:8 0.000697796
8 *285:8 *424:32 0
9 *285:8 *516:34 0.000228663
10 *285:18 *289:12 1.54008e-05
11 *285:18 *413:26 0
12 *285:18 *509:36 0
13 *285:18 *563:42 0.00097472
14 *285:18 *563:53 0.000362572
15 *285:26 *923:A1 0
16 *285:26 *927:A0 0.000444304
17 *285:26 *560:53 0.000444304
18 *285:26 *563:70 0
19 *894:S1 *285:26 0.000332287
20 *253:10 *285:8 7.48178e-05
21 *253:10 *285:18 4.75151e-05
*RES
1 *998:Q *285:8 44.5526 
2 *285:8 *285:18 47.7868 
3 *285:18 *285:26 44.3466 
4 *285:26 *923:S 40 
*END

*D_NET *286 0.000207985
*CONN
*I *922:S I *D sg13g2_mux2_1
*I *999:Q O *D sg13g2_dlhq_1
*CAP
1 *922:S 0.000103993
2 *999:Q 0.000103993
3 *922:S *946:A0 0
4 *922:S *571:40 0
*RES
1 *999:Q *922:S 41.1639 
*END

*D_NET *287 0.000586338
*CONN
*I *921:S I *D sg13g2_mux2_1
*I *1000:Q O *D sg13g2_dlhq_1
*CAP
1 *921:S 0.000191484
2 *1000:Q 0.000101686
3 *287:8 0.000293169
4 *921:S *594:48 0
*RES
1 *1000:Q *287:8 40.8446 
2 *287:8 *921:S 41.6171 
*END

*D_NET *288 0.00324782
*CONN
*I *920:S I *D sg13g2_mux2_1
*I *1001:Q O *D sg13g2_dlhq_1
*CAP
1 *920:S 0
2 *1001:Q 0.00113683
3 *288:14 0.00113683
4 *288:14 *897:A0 7.29217e-05
5 *288:14 *1001:GATE 0
6 *288:14 *467:8 0.000530036
7 *288:14 *497:58 4.77425e-05
8 *288:14 *569:70 0.000164799
9 *897:S0 *288:14 0
10 *160:22 *288:14 0.000111149
11 *173:14 *288:14 4.75151e-05
*RES
1 *1001:Q *288:14 30.7388 
2 *288:14 *920:S 20 
*END

*D_NET *289 0.00475094
*CONN
*I *919:S I *D sg13g2_mux2_1
*I *1002:Q O *D sg13g2_dlhq_1
*CAP
1 *919:S 0.000318914
2 *1002:Q 0.000808711
3 *289:12 0.00112763
4 *919:S *919:A0 0.000127878
5 *919:S *314:8 0
6 *919:S *390:46 5.29341e-05
7 *289:12 *319:12 0.000143351
8 *289:12 *437:10 0.000240377
9 *289:12 *558:12 0.000551293
10 I_top0 *919:S 0.000551519
11 *117:8 *919:S 0
12 *263:26 *919:S 0.000812932
13 *285:18 *289:12 1.54008e-05
*RES
1 *1002:Q *289:12 47.9104 
2 *289:12 *919:S 44.7998 
*END

*D_NET *290 0.00427202
*CONN
*I *936:S I *D sg13g2_mux2_1
*I *985:Q O *D sg13g2_dlhq_1
*CAP
1 *936:S 3.34444e-05
2 *985:Q 0.000409721
3 *290:24 0.00012106
4 *290:16 0.000185687
5 *290:8 0.000507792
6 *936:S *905:A0 4.77425e-05
7 *290:8 *977:GATE 0
8 *290:8 *415:22 0.00127417
9 *290:8 *516:46 0.000177497
10 *290:8 *548:41 0
11 *290:8 *556:63 0
12 *290:8 *569:37 7.31655e-05
13 *290:8 *572:30 0.000594072
14 *290:16 *414:14 0.000182539
15 *290:16 *476:64 7.78179e-05
16 *290:16 *493:24 0.000182539
17 *290:16 *522:20 0
18 *290:24 *505:58 7.78179e-05
19 *290:24 *517:42 7.78609e-05
20 *290:24 *569:52 0.000124547
21 *290:24 *607:40 0.000124547
*RES
1 *985:Q *290:8 46.0358 
2 *290:8 *290:16 41.3802 
3 *290:16 *290:24 41.133 
4 *290:24 *936:S 40.3193 
*END

*D_NET *291 0.000815807
*CONN
*I *918:S I *D sg13g2_mux2_1
*I *1003:Q O *D sg13g2_dlhq_1
*CAP
1 *918:S 0.000107293
2 *1003:Q 0.000165284
3 *291:10 0.000272577
4 *291:10 *591:16 0
5 *291:10 *592:10 4.75166e-05
6 *291:10 *593:22 7.92265e-05
7 *225:13 *291:10 0
8 *235:9 *918:S 0.00014391
*RES
1 *1003:Q *291:10 41.3802 
2 *291:10 *918:S 40.9682 
*END

*D_NET *292 0.00204934
*CONN
*I *917:S I *D sg13g2_mux2_1
*I *1004:Q O *D sg13g2_dlhq_1
*CAP
1 *917:S 0.00041238
2 *1004:Q 0.000540337
3 *292:8 0.000952717
4 *917:S *388:35 0
5 *917:S *553:8 0.00014391
6 *292:8 *553:10 0
7 *292:8 *587:10 0
8 *292:8 *587:16 0
9 *77:35 *917:S 0
10 *200:13 *917:S 0
*RES
1 *1004:Q *292:8 43.5638 
2 *292:8 *917:S 43.5638 
*END

*D_NET *293 0.00201363
*CONN
*I *916:S I *D sg13g2_mux2_1
*I *1005:Q O *D sg13g2_dlhq_1
*CAP
1 *916:S 0.000643226
2 *1005:Q 0.000643226
3 *916:S *940:A0 0.000465352
4 *916:S *549:43 0.000261824
5 *916:S *549:51 0
6 *1229:A *916:S 0
*RES
1 *1005:Q *916:S 46.2109 
*END

*D_NET *294 0.00140827
*CONN
*I *915:S I *D sg13g2_mux2_1
*I *1006:Q O *D sg13g2_dlhq_1
*CAP
1 *915:S 0.000439116
2 *1006:Q 0.000439116
3 *915:S *505:28 0.000530036
4 *915:S *553:63 0
*RES
1 *1006:Q *915:S 44.4084 
*END

*D_NET *295 0.00461458
*CONN
*I *914:S I *D sg13g2_mux2_1
*I *1007:Q O *D sg13g2_dlhq_1
*CAP
1 *914:S 0.000134365
2 *1007:Q 0.000397728
3 *295:8 0.000532093
4 *914:S *946:A0 0.000240889
5 *914:S *571:61 0.000240889
6 *295:8 *324:14 0.00149706
7 *295:8 *430:10 0.0014434
8 *295:8 *552:124 0.00012816
*RES
1 *1007:Q *295:8 47.7662 
2 *295:8 *914:S 41.6171 
*END

*D_NET *296 0.00445883
*CONN
*I *913:S I *D sg13g2_mux2_1
*I *1008:Q O *D sg13g2_dlhq_1
*CAP
1 *913:S 0.000352137
2 *1008:Q 0.000741893
3 *296:10 0.00109403
4 *296:10 *300:8 0.000282249
5 *296:10 *483:48 0.000864104
6 *296:10 *520:59 0
7 *296:10 *558:24 0.00062672
8 *160:36 *913:S 0.000497694
*RES
1 *1008:Q *296:10 48.2709 
2 *296:10 *913:S 43.3475 
*END

*D_NET *297 0.00405796
*CONN
*I *912:S I *D sg13g2_mux2_1
*I *1009:Q O *D sg13g2_dlhq_1
*CAP
1 *912:S 0.000556644
2 *1009:Q 0.000194629
3 *297:8 0.000751273
4 *912:S *893:A1 0.000400556
5 *912:S *912:A0 0
6 *912:S *1001:D 8.00842e-05
7 *912:S *431:41 0.000208035
8 *912:S *547:170 0.000368771
9 *297:8 *406:28 0.000748981
10 *151:24 *297:8 0.000748981
*RES
1 *1009:Q *297:8 43.5638 
2 *297:8 *912:S 45.5105 
*END

*D_NET *298 0.00546344
*CONN
*I *911:S I *D sg13g2_mux2_1
*I *1010:Q O *D sg13g2_dlhq_1
*CAP
1 *911:S 0.000661333
2 *1010:Q 0.000414858
3 *298:12 0.00107619
4 *911:S *951:A1 1.54008e-05
5 *911:S *319:12 0.000334311
6 *911:S *416:20 0.00148295
7 *911:S *550:100 0.000491654
8 *911:S *552:51 1.53556e-05
9 *911:S *563:26 0.000491092
10 *911:S *574:54 0.000369743
11 *911:S *610:57 0
12 *298:12 *1042:GATE 4.77425e-05
13 *298:12 *344:8 1.54008e-05
14 *298:12 *423:24 4.74021e-05
15 *298:12 *610:38 0
*RES
1 *1010:Q *298:12 43.8316 
2 *298:12 *911:S 49.5069 
*END

*D_NET *299 0.00205605
*CONN
*I *910:S I *D sg13g2_mux2_1
*I *1011:Q O *D sg13g2_dlhq_1
*CAP
1 *910:S 0.000219811
2 *1011:Q 0.000220297
3 *299:10 0.000440108
4 *910:S *950:A0 0.000144768
5 *910:S *618:8 0.000337402
6 *299:10 *903:A2 0.000179104
7 *299:10 *1011:GATE 0.000176134
8 *299:10 *392:16 0.00033843
9 *299:10 *618:8 0
10 *274:10 *299:10 0
*RES
1 *1011:Q *299:10 42.7707 
2 *299:10 *910:S 42.266 
*END

*D_NET *300 0.0034045
*CONN
*I *909:S I *D sg13g2_mux2_1
*I *1012:Q O *D sg13g2_dlhq_1
*CAP
1 *909:S 0.000328785
2 *1012:Q 0.000233308
3 *300:8 0.000562093
4 *909:S *583:22 0.000143351
5 *300:8 *904:A1 0.00012816
6 *300:8 *483:48 0.000496421
7 *300:8 *576:75 0.000492066
8 *300:8 *601:24 0
9 NN4BEG[9] *909:S 0.000208035
10 *159:18 *909:S 0.000530036
11 *160:36 *300:8 0
12 *296:10 *300:8 0.000282249
*RES
1 *1012:Q *300:8 43.811 
2 *300:8 *909:S 43.5638 
*END

*D_NET *301 0.00204755
*CONN
*I *935:S I *D sg13g2_mux2_1
*I *986:Q O *D sg13g2_dlhq_1
*CAP
1 *935:S 0
2 *986:Q 0.00030347
3 *301:10 0.00030347
4 *301:10 *1360:A 0.00011101
5 *301:10 *516:34 0.000648825
6 *301:10 *551:56 0.000649976
7 *301:10 *577:52 3.08016e-05
*RES
1 *986:Q *301:10 44.4702 
2 *301:10 *935:S 40 
*END

*D_NET *302 0.00388607
*CONN
*I *908:S I *D sg13g2_mux2_1
*I *1013:Q O *D sg13g2_dlhq_1
*CAP
1 *908:S 3.47831e-05
2 *1013:Q 0.000413344
3 *302:8 0.000448127
4 *302:8 *394:62 0.000965033
5 *302:8 *416:20 0.000442845
6 *302:8 *531:44 0.000388458
7 *302:8 *563:26 0.00012559
8 *258:8 *302:8 0.00106789
*RES
1 *1013:Q *302:8 47.519 
2 *302:8 *908:S 40.3193 
*END

*D_NET *303 0.000696869
*CONN
*I *907:S I *D sg13g2_mux2_1
*I *1014:Q O *D sg13g2_dlhq_1
*CAP
1 *907:S 0.000308821
2 *1014:Q 0.000308821
3 *907:S *902:A0 7.92265e-05
4 *907:S *907:A1 0
5 *907:S *923:A0 0
6 *907:S *551:33 0
7 *902:S0 *907:S 0
*RES
1 *1014:Q *907:S 42.9561 
*END

*D_NET *304 0.0027015
*CONN
*I *934:S I *D sg13g2_mux2_1
*I *987:Q O *D sg13g2_dlhq_1
*CAP
1 *934:S 2.60565e-05
2 *987:Q 0.000239345
3 *304:8 0.000265401
4 *934:S *380:10 4.77425e-05
5 *934:S *389:55 4.77425e-05
6 *304:8 *587:10 0.000181192
7 *212:25 *304:8 0.000814447
8 *224:9 *304:8 0
9 *225:13 *304:8 0.00107957
*RES
1 *987:Q *304:8 45.047 
2 *304:8 *934:S 40.3193 
*END

*D_NET *305 0.00256626
*CONN
*I *933:S I *D sg13g2_mux2_1
*I *988:Q O *D sg13g2_dlhq_1
*CAP
1 *933:S 0.000239437
2 *988:Q 0.000141004
3 *305:8 0.000380441
4 *305:8 *592:14 0.000598208
5 *205:13 *933:S 0.000207525
6 *206:13 *933:S 0.000402058
7 *272:12 *305:8 0.000597588
*RES
1 *988:Q *305:8 42.8222 
2 *305:8 *933:S 42.6986 
*END

*D_NET *306 0.00112903
*CONN
*I *932:S I *D sg13g2_mux2_1
*I *989:Q O *D sg13g2_dlhq_1
*CAP
1 *932:S 0.00017081
2 *989:Q 0.000178556
3 *306:8 0.000349366
4 *306:8 *403:14 0
5 *306:8 *415:40 0.000230615
6 *306:8 *590:16 0.000124859
7 *207:13 *306:8 7.48209e-05
*RES
1 *989:Q *306:8 41.8334 
2 *306:8 *932:S 41.4008 
*END

*D_NET *307 0.000718801
*CONN
*I *931:S I *D sg13g2_mux2_1
*I *990:Q O *D sg13g2_dlhq_1
*CAP
1 *931:S 0.000239212
2 *990:Q 0.000239212
3 *931:S *931:A1 0
4 *931:S *599:58 0.000240377
*RES
1 *990:Q *931:S 42.4617 
*END

*D_NET *308 0.0132663
*CONN
*I *930:S I *D sg13g2_mux2_1
*I *991:Q O *D sg13g2_dlhq_1
*CAP
1 *930:S 0
2 *991:Q 0.000578011
3 *308:22 0.00164878
4 *308:14 0.00225138
5 *308:8 0.00118061
6 *308:8 *501:12 0
7 *308:8 *501:18 0.000338086
8 *308:8 *599:58 0.000809108
9 *308:14 *1038:D 0.000240377
10 *308:14 *1126:A 0.000369553
11 *308:14 *421:8 0.000143351
12 *308:14 *453:76 0.000175693
13 *308:14 *464:72 0.000240377
14 *308:14 *549:12 4.75166e-05
15 *308:22 *938:A0 0.000562518
16 *308:22 *982:GATE 0
17 *308:22 *402:30 0.000369181
18 *308:22 *425:52 0.00124254
19 *308:22 *435:24 0.00178286
20 *308:22 *439:62 0.000611358
21 *308:22 *477:18 0
22 *308:22 *539:48 0
23 *308:22 *549:33 0
24 *308:22 *599:80 0
25 *308:22 *609:26 0.000176139
26 *308:22 *620:28 0
27 *282:24 *308:22 0.000498831
*RES
1 *991:Q *308:8 45.5414 
2 *308:8 *308:14 46.1594 
3 *308:14 *308:22 40.6412 
4 *308:22 *930:S 20 
*END

*D_NET *309 0.00299454
*CONN
*I *929:S I *D sg13g2_mux2_1
*I *992:Q O *D sg13g2_dlhq_1
*CAP
1 *929:S 0.000779508
2 *992:Q 0.000157271
3 *309:8 0.000936779
4 *929:S *1012:GATE 0.000288586
5 *929:S *385:18 0.00030487
6 *929:S *545:50 0.000175693
7 *929:S *547:74 0
8 *929:S *550:155 0
9 *929:S *551:10 0.000111455
10 *929:S *610:61 0.000240377
11 *309:8 *439:14 0
12 *309:8 *561:46 0
13 *309:8 *610:57 0
*RES
1 *992:Q *309:8 41.0918 
2 *309:8 *929:S 47.5911 
*END

*D_NET *310 0.00554062
*CONN
*I *957:S0 I *D sg13g2_mux4_1
*I *961:Q O *D sg13g2_dlhq_1
*CAP
1 *957:S0 0
2 *961:Q 0
3 *310:12 0.00101061
4 *310:6 0.00101061
5 *310:12 *957:A0 1.54008e-05
6 *310:12 *420:34 0.000444501
7 *310:12 *496:30 0.000855267
8 *310:12 *547:74 4.77425e-05
9 *310:12 *547:134 0.000176236
10 *310:12 *555:52 0.000179461
11 *310:12 *557:38 0.000336412
12 *310:12 *576:34 0.00117712
13 *310:12 *616:36 0.000287256
14 *121:30 *310:12 0
15 *154:28 *310:12 0
*RES
1 *961:Q *310:6 40 
2 *310:6 *310:12 32.5351 
3 *310:12 *957:S0 20 
*END

*D_NET *311 0.0057473
*CONN
*I *957:S1 I *D sg13g2_mux4_1
*I *962:Q O *D sg13g2_dlhq_1
*CAP
1 *957:S1 0
2 *962:Q 0
3 *311:12 0.000884258
4 *311:6 0.000884258
5 *311:12 *892:A0 7.51285e-05
6 *311:12 *957:A0 0.000282118
7 *311:12 *406:28 0.00096474
8 *311:12 *583:22 4.77425e-05
9 *311:12 *583:24 0.000441184
10 *311:12 *587:24 0.000703116
11 *121:30 *311:12 0.00139159
12 *154:28 *311:12 7.31628e-05
13 *283:20 *311:12 0
*RES
1 *962:Q *311:6 40 
2 *311:6 *311:12 32.4682 
3 *311:12 *957:S1 20 
*END

*D_NET *312 0.00249893
*CONN
*I *956:S0 I *D sg13g2_mux4_1
*I *963:Q O *D sg13g2_dlhq_1
*CAP
1 *956:S0 0
2 *963:Q 0.000612949
3 *312:10 0.000612949
4 *312:10 *502:40 0
5 *312:10 *586:28 0.00127304
6 *149:26 *312:10 0
*RES
1 *963:Q *312:10 46.3551 
2 *312:10 *956:S0 40 
*END

*D_NET *313 0.00666419
*CONN
*I *956:S1 I *D sg13g2_mux4_1
*I *964:Q O *D sg13g2_dlhq_1
*CAP
1 *956:S1 0.000717185
2 *964:Q 0.000509194
3 *313:18 0.000928974
4 *313:12 0.000720983
5 *956:S1 *1378:A 0
6 *956:S1 *423:28 0.000229349
7 *956:S1 *502:40 0
8 *956:S1 *519:52 0.00038595
9 *956:S1 *530:58 0.00106721
10 *956:S1 *582:43 0.000357575
11 *313:12 *964:GATE 0.000465239
12 *313:12 *399:34 7.34121e-05
13 *313:12 *467:14 0.000180015
14 *313:12 *547:126 8.00842e-05
15 *313:18 *595:22 0.00030506
16 *149:26 *956:S1 0.000643956
17 *150:32 *956:S1 0
18 *154:28 *313:12 0
*RES
1 *964:Q *313:12 45.1912 
2 *313:12 *313:18 42.0497 
3 *313:18 *956:S1 48.9765 
*END

*D_NET *314 0.00402806
*CONN
*I *955:S0 I *D sg13g2_mux4_1
*I *965:Q O *D sg13g2_dlhq_1
*CAP
1 *955:S0 0.000193144
2 *965:Q 0.00036178
3 *314:8 0.000554924
4 *955:S0 *581:46 0.000176252
5 *314:8 *919:A0 0.00012816
6 *314:8 *390:46 0.00018211
7 *314:8 *425:32 0.00150653
8 I_top0 *314:8 0.000925158
9 *919:S *314:8 0
*RES
1 *965:Q *314:8 47.0246 
2 *314:8 *955:S0 41.8334 
*END

*D_NET *315 0.000762949
*CONN
*I *955:S1 I *D sg13g2_mux4_1
*I *966:Q O *D sg13g2_dlhq_1
*CAP
1 *955:S1 0.000280152
2 *966:Q 0.000280152
3 *263:26 *955:S1 0.000202645
*RES
1 *966:Q *955:S1 43.023 
*END

*D_NET *316 0.00355274
*CONN
*I *954:S I *D sg13g2_mux2_1
*I *967:Q O *D sg13g2_dlhq_1
*CAP
1 *954:S 0.000603682
2 *967:Q 0.000299358
3 *316:10 0.00090304
4 *954:S *930:A1 0.000143351
5 *954:S *946:A0 0
6 *954:S *368:10 0
7 *954:S *394:14 0.000240377
8 *954:S *402:30 0
9 *954:S *469:10 4.77425e-05
10 *316:10 *999:GATE 0
11 *316:10 *402:30 0.000605458
12 *316:10 *433:20 0
13 *316:10 *599:105 0
14 *271:8 *316:10 0.000709735
*RES
1 *967:Q *316:10 44.3775 
2 *316:10 *954:S 45.4281 
*END

*D_NET *317 0.00248865
*CONN
*I *953:S I *D sg13g2_mux2_1
*I *968:Q O *D sg13g2_dlhq_1
*CAP
1 *953:S 0.00105175
2 *968:Q 0.00105175
3 *953:S *1157:A 0
4 *953:S *339:12 0
5 *953:S *375:12 0
6 *953:S *547:74 0
7 *953:S *587:24 0.000369743
8 *1227:A *953:S 0
9 *160:36 *953:S 1.54008e-05
*RES
1 *968:Q *953:S 49.4657 
*END

*D_NET *318 0.000582786
*CONN
*I *952:S I *D sg13g2_mux2_1
*I *969:Q O *D sg13g2_dlhq_1
*CAP
1 *952:S 0.000235294
2 *969:Q 0.000235294
3 *952:S *502:46 0.000112198
*RES
1 *969:Q *952:S 41.9982 
*END

*D_NET *319 0.00187299
*CONN
*I *951:S I *D sg13g2_mux2_1
*I *970:Q O *D sg13g2_dlhq_1
*CAP
1 *951:S 0
2 *970:Q 0.000391679
3 *319:12 0.000391679
4 *319:12 *416:20 0
5 *319:12 *550:100 0
6 *319:12 *550:115 1.54008e-05
7 *319:12 *610:57 0.000596572
8 *911:S *319:12 0.000334311
9 *289:12 *319:12 0.000143351
*RES
1 *970:Q *319:12 44.5732 
2 *319:12 *951:S 40 
*END

*D_NET *320 0.00217976
*CONN
*I *950:S I *D sg13g2_mux2_1
*I *971:Q O *D sg13g2_dlhq_1
*CAP
1 *950:S 0
2 *971:Q 0.000590993
3 *320:10 0.000590993
4 *320:10 *942:S 4.76977e-05
5 *320:10 *403:14 0
6 *320:10 *589:20 0
7 *320:10 *593:22 0
8 *320:10 *616:22 0.000599004
9 *233:29 *320:10 0.000143192
10 *237:9 *320:10 0.000207876
*RES
1 *971:Q *320:10 46.1697 
2 *320:10 *950:S 40 
*END

*D_NET *321 0.00515677
*CONN
*I *949:S I *D sg13g2_mux2_1
*I *972:Q O *D sg13g2_dlhq_1
*CAP
1 *949:S 3.34444e-05
2 *972:Q 0.000311738
3 *321:18 0.000471538
4 *321:10 0.000749831
5 *949:S *601:24 4.77425e-05
6 *321:10 *385:18 0.00011101
7 *321:10 *479:42 0.000111042
8 *321:10 *583:14 0.000913351
9 *321:18 *904:A2 0.000112198
10 *321:18 *909:A1 0.000273049
11 *321:18 *467:22 0.000605258
12 *321:18 *576:60 4.77425e-05
13 *321:18 *576:75 4.77425e-05
14 *321:18 *596:18 0
15 *321:18 *601:24 0.000551443
16 *159:18 *321:18 1.54008e-05
17 *173:34 *321:10 0.000754234
*RES
1 *972:Q *321:10 45.0573 
2 *321:10 *321:18 45.7371 
3 *321:18 *949:S 40.3193 
*END

*D_NET *322 0.00541118
*CONN
*I *948:S I *D sg13g2_mux2_1
*I *973:Q O *D sg13g2_dlhq_1
*CAP
1 *948:S 8.28444e-05
2 *973:Q 0.000521049
3 *322:10 0.000603893
4 *948:S *970:D 0.00014391
5 *948:S *423:24 0.00014391
6 *322:10 *924:A0 0.000546093
7 *322:10 *341:14 0.0011793
8 *322:10 *453:22 7.9225e-05
9 *322:10 *559:75 0.000650032
10 *322:10 *611:50 0.0013817
11 *905:S1 *322:10 7.9225e-05
*RES
1 *973:Q *322:10 49.5378 
2 *322:10 *948:S 40.9682 
*END

*D_NET *323 0.00175251
*CONN
*I *947:S I *D sg13g2_mux2_1
*I *974:Q O *D sg13g2_dlhq_1
*CAP
1 *947:S 0
2 *974:Q 0.000600132
3 *323:10 0.000600132
4 *323:10 *472:10 0.00011101
5 *323:10 *509:42 0
6 *323:10 *585:35 0.000441239
7 *323:10 *590:45 0
*RES
1 *974:Q *323:10 45.6444 
2 *323:10 *947:S 40 
*END

*D_NET *324 0.005499
*CONN
*I *946:S I *D sg13g2_mux2_1
*I *975:Q O *D sg13g2_dlhq_1
*CAP
1 *946:S 0
2 *975:Q 0.000123095
3 *324:14 0.00097888
4 *324:8 0.00110198
5 *324:8 *1045:GATE 0.000175693
6 *324:14 *393:33 0
7 *324:14 *539:61 0.00112851
8 *324:14 *549:113 0
9 *324:14 *552:105 0
10 *324:14 *606:10 0.000493786
11 *270:10 *324:14 0
12 *295:8 *324:14 0.00149706
*RES
1 *975:Q *324:8 41.1845 
2 *324:8 *324:14 32.257 
3 *324:14 *946:S 20 
*END

*D_NET *325 0.00235978
*CONN
*I *945:S I *D sg13g2_mux2_1
*I *976:Q O *D sg13g2_dlhq_1
*CAP
1 *945:S 2.60565e-05
2 *976:Q 0.000476778
3 *325:8 0.000502834
4 *945:S *335:12 4.77425e-05
5 *945:S *339:12 4.77425e-05
6 *325:8 *408:46 2.14736e-05
7 *325:8 *550:155 0
8 *325:8 *551:10 0
9 *325:8 *570:24 0.00108072
10 *325:8 *570:35 0.000156438
11 *325:8 *582:16 0
12 *325:8 *597:14 0
*RES
1 *976:Q *325:8 45.7886 
2 *325:8 *945:S 40.3193 
*END

*D_NET *326 0.00468261
*CONN
*I *944:S I *D sg13g2_mux2_1
*I *977:Q O *D sg13g2_dlhq_1
*CAP
1 *944:S 0.000118164
2 *977:Q 0.000681876
3 *326:10 0.000800039
4 *944:S *595:22 8.00842e-05
5 *326:10 *378:16 8.00764e-05
6 *326:10 *405:46 0
7 *326:10 *415:22 0.000390282
8 *326:10 *541:36 0.000437332
9 *326:10 *569:52 0.000542258
10 *326:10 *570:24 0
11 *326:10 *582:16 0.000622893
12 *326:10 *582:18 0.000264598
13 *326:10 *582:20 0.000313077
14 *326:10 *582:26 0.000176236
15 *162:12 *944:S 0.000175693
*RES
1 *977:Q *326:10 49.0434 
2 *326:10 *944:S 41.1845 
*END

*D_NET *327 0.00854405
*CONN
*I *943:S I *D sg13g2_mux2_1
*I *978:Q O *D sg13g2_dlhq_1
*CAP
1 *943:S 0.000614224
2 *978:Q 0.000650489
3 *327:18 0.00123443
4 *327:10 0.0012707
5 *943:S *1008:D 1.54008e-05
6 *327:10 *978:GATE 0.000143351
7 *327:10 *337:28 0.000449404
8 *327:10 *394:46 0
9 *327:10 *410:26 0.000502556
10 *327:10 *545:36 0.00103403
11 *327:10 *568:54 0.00108563
12 *327:18 *943:A1 0.000707826
13 *327:18 *416:20 0
14 *327:18 *560:18 0.000177812
15 *327:18 *568:58 0.000112426
16 *327:18 *574:26 0.000401857
17 *927:S *327:18 0.000143908
*RES
1 *978:Q *327:10 49.7232 
2 *327:10 *327:18 46.5714 
3 *327:18 *943:S 44.8616 
*END

*D_NET *328 0.00024808
*CONN
*I *942:S I *D sg13g2_mux2_1
*I *979:Q O *D sg13g2_dlhq_1
*CAP
1 *942:S 0.000100191
2 *979:Q 0.000100191
3 *942:S *593:22 0
4 *320:10 *942:S 4.76977e-05
*RES
1 *979:Q *942:S 41.1639 
*END

*D_NET *329 0.000659391
*CONN
*I *941:S I *D sg13g2_mux2_1
*I *980:Q O *D sg13g2_dlhq_1
*CAP
1 *941:S 0.000209507
2 *980:Q 0.000209507
3 *1216:A *941:S 0.000240377
*RES
1 *980:Q *941:S 41.9673 
*END

*D_NET *330 0.00126192
*CONN
*I *940:S I *D sg13g2_mux2_1
*I *981:Q O *D sg13g2_dlhq_1
*CAP
1 *940:S 0.000478432
2 *981:Q 0.000478432
3 *940:S *556:159 0.00030506
*RES
1 *981:Q *940:S 44.5114 
*END

*D_NET *331 0.000733207
*CONN
*I *939:S I *D sg13g2_mux2_1
*I *982:Q O *D sg13g2_dlhq_1
*CAP
1 *939:S 0.00017474
2 *982:Q 0.00017474
3 *939:S *939:A0 0.000240377
4 *939:S *603:36 0.000143351
*RES
1 *982:Q *939:S 41.9673 
*END

*D_NET *332 0.00163396
*CONN
*I *958:S0 I *D sg13g2_mux4_1
*I *959:Q O *D sg13g2_dlhq_1
*CAP
1 *958:S0 0.000463615
2 *959:Q 0.000463615
3 *958:S0 *589:20 0
4 *958:S0 *593:22 0.000192634
5 *958:S0 *593:30 0.000144542
6 *253:48 *958:S0 0
7 *282:36 *958:S0 0.000369553
*RES
1 *959:Q *958:S0 45.0058 
*END

*D_NET *333 0.00710139
*CONN
*I *958:S1 I *D sg13g2_mux4_1
*I *960:Q O *D sg13g2_dlhq_1
*CAP
1 *958:S1 0
2 *960:Q 0
3 *333:12 0.00126996
4 *333:6 0.00126996
5 *333:12 *421:14 0
6 *333:12 *463:26 0
7 *333:12 *468:22 0
8 *333:12 *517:14 0
9 *333:12 *552:101 0.000704672
10 *333:12 *559:25 0.00139196
11 *333:12 *571:61 0.000282464
12 *333:12 *584:68 0
13 *262:14 *333:12 0.00218237
*RES
1 *960:Q *333:6 40 
2 *333:6 *333:12 36.6396 
3 *333:12 *958:S1 20 
*END

*D_NET *334 0.00358472
*CONN
*I *1099:A I *D sg13g2_buf_1
*I *958:X O *D sg13g2_mux4_1
*CAP
1 *1099:A 0.000104174
2 *958:X 0.000428883
3 *334:10 0.000533057
4 *1099:A *401:22 0.000143908
5 *1099:A *620:14 0.000176205
6 *334:10 *368:10 0.000656567
7 *334:10 *422:34 0.0012848
8 *334:10 *578:47 0.000177894
9 *334:10 *617:30 7.92265e-05
10 *1089:A *1099:A 0
*RES
1 *958:X *334:10 46.5714 
2 *334:10 *1099:A 41.1845 
*END

*D_NET *335 0.00355482
*CONN
*I *1100:A I *D sg13g2_buf_1
*I *957:X O *D sg13g2_mux4_1
*CAP
1 *1100:A 0
2 *957:X 0.00083137
3 *335:12 0.00083137
4 *335:12 *1112:A 0.000208035
5 *335:12 *339:12 0.000465647
6 *335:12 *509:48 0.00023289
7 *335:12 *561:46 0.000231739
8 *335:12 *594:48 0.000595014
9 *945:S *335:12 4.77425e-05
10 *121:30 *335:12 0.00011101
*RES
1 *957:X *335:12 49.1773 
2 *335:12 *1100:A 40 
*END

*D_NET *336 0.00297529
*CONN
*I *1101:A I *D sg13g2_buf_1
*I *956:X O *D sg13g2_mux4_1
*CAP
1 *1101:A 0.000191049
2 *956:X 0.000597517
3 *336:8 0.000788566
4 *1101:A *1369:A 0.000337356
5 *1101:A *504:12 0.000337402
6 *336:8 *1105:A 0
7 *336:8 *408:22 0
8 *336:8 *514:54 0
9 *336:8 *575:30 0.000441518
10 *130:40 *336:8 0.000281884
*RES
1 *956:X *336:8 45.5414 
2 *336:8 *1101:A 42.266 
*END

*D_NET *337 0.0108483
*CONN
*I *1102:A I *D sg13g2_buf_1
*I *955:X O *D sg13g2_mux4_1
*CAP
1 *1102:A 0
2 *955:X 0.00027303
3 *337:28 0.00109861
4 *337:18 0.00130178
5 *337:8 0.000476193
6 *337:8 *419:26 0.000961053
7 *337:28 *1122:A 0
8 *337:28 *363:8 0.00165511
9 *337:28 *410:26 0
10 *337:28 *526:10 7.45103e-05
11 *337:28 *551:56 0
12 *337:28 *578:14 0.000448167
13 *337:28 *610:30 0.00170676
14 *924:S *337:28 0.000176062
15 *119:10 *337:28 0.00133732
16 *176:21 *337:28 8.00842e-05
17 *187:13 *337:28 0
18 *189:19 *337:28 0.000112426
19 *253:10 *337:8 0
20 *285:8 *337:8 0.000697796
21 *327:10 *337:28 0.000449404
*RES
1 *955:X *337:8 44.5217 
2 *337:8 *337:18 41.9467 
3 *337:18 *337:28 37.5924 
4 *337:28 *1102:A 20 
*END

*D_NET *338 0.00184331
*CONN
*I *1103:A I *D sg13g2_buf_1
*I *954:X O *D sg13g2_mux2_1
*CAP
1 *1103:A 0.000467829
2 *954:X 0.000188646
3 *338:8 0.000656476
4 *1103:A *1111:A 0.000530358
5 *1103:A *1119:A 0
6 *1103:A *1127:A 0
7 *1103:A *1143:A 0
8 *1103:A *439:62 0
9 *1103:A *571:61 0
10 *338:8 *414:52 0
11 *338:8 *517:14 0
*RES
1 *954:X *338:8 41.339 
2 *338:8 *1103:A 44.7133 
*END

*D_NET *339 0.00354943
*CONN
*I *1104:A I *D sg13g2_buf_1
*I *953:X O *D sg13g2_mux2_1
*CAP
1 *1104:A 0
2 *953:X 0.00142213
3 *339:12 0.00142213
4 *339:12 *957:A3 0
5 *339:12 *992:D 0
6 *339:12 *409:59 4.77425e-05
7 *945:S *339:12 4.77425e-05
8 *953:S *339:12 0
9 *121:30 *339:12 0.000144027
10 *159:18 *339:12 0
11 *335:12 *339:12 0.000465647
*RES
1 *953:X *339:12 32.154 
2 *339:12 *1104:A 20 
*END

*D_NET *340 0.00509122
*CONN
*I *1105:A I *D sg13g2_buf_1
*I *952:X O *D sg13g2_mux2_1
*CAP
1 *1105:A 0.000827536
2 *952:X 0.000478507
3 *340:10 0.00130604
4 *1105:A *1129:A 4.77425e-05
5 *1105:A *1344:A 1.54008e-05
6 *1105:A *406:12 0.000393027
7 *1105:A *575:30 0
8 *340:10 *1378:A 4.77425e-05
9 *340:10 *572:30 0
10 *130:34 *1105:A 0.00175134
11 *132:36 *340:10 0.000144768
12 *166:8 *340:10 7.9112e-05
13 *336:8 *1105:A 0
*RES
1 *952:X *340:10 43.9411 
2 *340:10 *1105:A 49.0743 
*END

*D_NET *341 0.00973438
*CONN
*I *1106:A I *D sg13g2_buf_1
*I *951:X O *D sg13g2_mux2_1
*CAP
1 *1106:A 7.91661e-05
2 *951:X 0.000125146
3 *341:26 7.91661e-05
4 *341:22 0.00105221
5 *341:14 0.00170411
6 *341:8 0.000777045
7 *341:8 *574:54 0.000176883
8 *341:14 *373:14 4.63914e-05
9 *341:14 *416:20 0.00206845
10 *341:14 *505:58 4.63914e-05
11 *341:14 *559:57 0.000493361
12 *341:14 *560:18 0.000338077
13 *341:14 *580:38 0
14 *341:22 *442:22 0.000668896
15 *341:22 *509:20 0
16 *341:22 *538:30 0.000771778
17 *341:22 *543:20 0
18 *341:22 *580:26 0
19 *258:8 *341:14 0.000128007
20 *322:10 *341:14 0.0011793
*RES
1 *951:X *341:8 41.1845 
2 *341:8 *341:14 31.0519 
3 *341:14 *341:22 30.8768 
4 *341:22 *341:26 40 
5 *341:26 *1106:A 40.7519 
*END

*D_NET *342 0.000282603
*CONN
*I *1107:A I *D sg13g2_buf_1
*I *950:X O *D sg13g2_mux2_1
*CAP
1 *1107:A 0.000130394
2 *950:X 0.000130394
3 *1107:A *394:14 0
4 *1107:A *513:14 2.18151e-05
*RES
1 *950:X *1107:A 41.5141 
*END

*D_NET *343 0.0271699
*CONN
*I *1108:A I *D sg13g2_buf_1
*I *949:X O *D sg13g2_mux2_1
*CAP
1 *1108:A 6.66083e-05
2 *949:X 1.99046e-05
3 *343:44 0.000363215
4 *343:36 0.000900139
5 *343:32 0.00219481
6 *343:22 0.00287013
7 *343:16 0.00205167
8 *343:12 0.00269529
9 *343:8 0.00194238
10 *1108:A *544:49 1.54008e-05
11 *343:8 *403:29 7.33256e-05
12 *343:8 *467:22 7.33256e-05
13 *343:12 *408:42 0.000140714
14 *343:12 *439:28 0.00058854
15 *343:12 *484:14 0
16 *343:12 *488:46 0.000492882
17 *343:12 *520:69 0.00020604
18 *343:12 *541:46 4.63914e-05
19 *343:12 *542:47 0
20 *343:12 *543:46 0
21 *343:12 *590:51 0
22 *343:16 *919:A1 0.000285602
23 *343:16 *923:A0 0
24 *343:16 *499:40 0.00176862
25 *343:16 *539:40 0.000605405
26 *343:16 *545:36 0
27 *343:16 *568:54 0.000392939
28 *343:16 *603:52 7.33256e-05
29 *343:22 *555:35 0
30 *343:22 *576:34 0
31 *343:32 *397:58 0.000129197
32 *343:32 *414:14 0.000663467
33 *343:32 *496:38 0.00067527
34 *343:32 *519:36 0.000140671
35 *343:32 *548:35 0
36 *343:36 *496:38 0.000932625
37 *343:36 *500:44 0.000828442
38 *343:36 *522:26 0
39 *343:44 *359:26 0.000768742
40 *343:44 *372:12 0.000752739
41 *343:44 *522:20 0
42 *121:14 *343:22 0
43 *143:18 *343:44 0
44 *146:22 *343:36 0
45 *153:22 *343:32 0.000172097
46 *165:22 *343:32 0.000645102
47 *168:16 *343:44 7.90769e-05
48 *172:14 *343:36 0.00248793
49 *253:30 *343:12 0
50 *263:16 *343:16 0.00102787
*RES
1 *949:X *343:8 40.3502 
2 *343:8 *343:12 35.1875 
3 *343:12 *343:16 32.2158 
4 *343:16 *343:22 47.7995 
5 *343:22 *343:32 34.2243 
6 *343:32 *343:36 31.4742 
7 *343:36 *343:44 44.532 
8 *343:44 *1108:A 40.6695 
*END

*D_NET *344 0.00698599
*CONN
*I *1109:A I *D sg13g2_buf_1
*I *948:X O *D sg13g2_mux2_1
*CAP
1 *1109:A 0
2 *948:X 8.02273e-05
3 *344:28 0.000616503
4 *344:18 0.00207506
5 *344:12 0.00145855
6 *344:8 8.02273e-05
7 *344:18 *442:41 0
8 *344:18 *464:32 0.000129007
9 *344:18 *484:30 0
10 *344:18 *527:32 0.000204783
11 *344:18 *538:30 0
12 *344:18 *543:20 0.000129113
13 *344:18 *555:12 0
14 *344:28 *376:14 0.00111864
15 *344:28 *491:18 0.000234803
16 *344:28 *540:33 0.000540534
17 *344:28 *588:18 0.000287743
18 *344:28 *599:26 0
19 *13:33 *344:28 1.54008e-05
20 *298:12 *344:8 1.54008e-05
*RES
1 *948:X *344:8 40.7519 
2 *344:8 *344:12 40 
3 *344:12 *344:18 31.639 
4 *344:18 *344:28 47.9104 
5 *344:28 *1109:A 20 
*END

*D_NET *345 0.0127744
*CONN
*I *1110:A I *D sg13g2_buf_1
*I *947:X O *D sg13g2_mux2_1
*CAP
1 *1110:A 0
2 *947:X 0
3 *345:14 0.00239207
4 *345:6 0.00239207
5 *345:14 *894:A2 5.27212e-05
6 *345:14 *411:8 0.00033706
7 *345:14 *416:8 0.000333806
8 *345:14 *423:10 4.77425e-05
9 *345:14 *432:20 0.000805314
10 *345:14 *432:30 0
11 *345:14 *461:26 0.000489689
12 *345:14 *509:36 0
13 *345:14 *547:14 7.30101e-05
14 *345:14 *550:65 0.000335499
15 *345:14 *563:42 0.00100995
16 *345:14 *563:53 0.000491152
17 *345:14 *563:70 0.000126354
18 *345:14 *574:14 0
19 *345:14 *585:35 0.000809085
20 *345:14 *598:12 0.00206394
21 *345:14 *606:28 0.00101497
22 *176:13 *345:14 0
*RES
1 *947:X *345:6 40 
2 *345:6 *345:14 49.4477 
3 *345:14 *1110:A 20 
*END

*D_NET *346 0.00133479
*CONN
*I *1111:A I *D sg13g2_buf_1
*I *946:X O *D sg13g2_mux2_1
*CAP
1 *1111:A 0.000378342
2 *946:X 0.000378342
3 *1111:A *914:A1 4.77425e-05
4 *1111:A *571:61 0
5 *1111:A *609:18 0
6 *1103:A *1111:A 0.000530358
*RES
1 *946:X *1111:A 43.914 
*END

*D_NET *347 0.000773551
*CONN
*I *1112:A I *D sg13g2_buf_1
*I *945:X O *D sg13g2_mux2_1
*CAP
1 *1112:A 0.000282758
2 *945:X 0.000282758
3 *1112:A *892:A0 0
4 *1112:A *945:A0 0
5 *335:12 *1112:A 0.000208035
*RES
1 *945:X *1112:A 42.7398 
*END

*D_NET *348 0.00625062
*CONN
*I *1113:A I *D sg13g2_buf_1
*I *944:X O *D sg13g2_mux2_1
*CAP
1 *1113:A 0
2 *944:X 0
3 *348:12 0.00118274
4 *348:6 0.00118274
5 *348:12 *1041:GATE 0
6 *348:12 *378:16 0.00138565
7 *348:12 *415:26 0.000964178
8 *348:12 *481:10 0
9 *348:12 *505:58 0
10 *348:12 *528:8 0.00117449
11 *348:12 *544:26 0.000128742
12 *348:12 *558:95 0
13 *265:12 *348:12 0.00023208
*RES
1 *944:X *348:6 40 
2 *348:6 *348:12 34.1775 
3 *348:12 *1113:A 20 
*END

*D_NET *349 0.0169407
*CONN
*I *1114:A I *D sg13g2_buf_1
*I *943:X O *D sg13g2_mux2_1
*CAP
1 *1114:A 0.00016183
2 *943:X 0.000345299
3 *349:22 0.000539895
4 *349:16 0.00139077
5 *349:12 0.00276559
6 *349:8 0.00209818
7 *1114:A *1122:A 4.77425e-05
8 *1114:A *471:68 0.000240377
9 *349:8 *415:26 0.000911942
10 *349:8 *544:104 0.000230347
11 *349:12 *410:26 0
12 *349:12 *418:48 0.000613676
13 *349:12 *461:16 0.000646012
14 *349:12 *550:92 0.000110503
15 *349:12 *563:26 0.000299062
16 *349:16 *411:36 0
17 *349:16 *545:20 0.00365868
18 *349:16 *571:16 0
19 *349:16 *571:18 0.00242341
20 *24:15 *349:22 0
21 *118:20 *349:12 0
22 *119:16 *349:12 0.000457345
23 *150:32 *349:8 0
24 *162:32 *349:8 0
*RES
1 *943:X *349:8 44.3054 
2 *349:8 *349:12 34.3788 
3 *349:12 *349:16 37.6542 
4 *349:16 *349:22 42.6986 
5 *349:22 *1114:A 41.6171 
*END

*D_NET *350 0.000247854
*CONN
*I *1115:A I *D sg13g2_buf_1
*I *942:X O *D sg13g2_mux2_1
*CAP
1 *1115:A 0.000123927
2 *942:X 0.000123927
3 *1115:A *612:14 0
*RES
1 *942:X *1115:A 41.4111 
*END

*D_NET *351 0.000556646
*CONN
*I *1116:A I *D sg13g2_buf_1
*I *941:X O *D sg13g2_mux2_1
*CAP
1 *1116:A 0.000174305
2 *941:X 0.000174305
3 *1116:A *556:159 0.000208035
*RES
1 *941:X *1116:A 41.751 
*END

*D_NET *352 0.00142216
*CONN
*I *1117:A I *D sg13g2_buf_1
*I *940:X O *D sg13g2_mux2_1
*CAP
1 *1117:A 0.000558571
2 *940:X 0.000558571
3 *1117:A *541:60 4.77425e-05
4 *1117:A *541:71 0.000257274
5 *1117:A *553:38 0
6 *77:35 *1117:A 0
7 *221:9 *1117:A 0
*RES
1 *940:X *1117:A 45.4075 
*END

*D_NET *353 0.00553201
*CONN
*I *1118:A I *D sg13g2_buf_1
*I *939:X O *D sg13g2_mux2_1
*CAP
1 *1118:A 0.000769923
2 *939:X 0.000448715
3 *353:10 0.00121864
4 *1118:A *1031:GATE 0.000240187
5 *1118:A *1142:A 0
6 *1118:A *556:120 0
7 *353:10 *584:10 0.000926549
8 *353:10 *620:40 0.00114084
9 I_top8 *353:10 0
10 *282:14 *1118:A 0.000787163
*RES
1 *939:X *353:10 46.9113 
2 *353:10 *1118:A 46.8204 
*END

*D_NET *354 0.00344117
*CONN
*I *1119:A I *D sg13g2_buf_1
*I *938:X O *D sg13g2_mux2_1
*CAP
1 *1119:A 0.0005067
2 *938:X 0.000375449
3 *354:10 0.000882149
4 *1119:A *1143:A 0
5 *1119:A *1325:A 0
6 *1119:A *404:8 0.000143351
7 *1119:A *439:62 0
8 *1119:A *549:113 0.000240684
9 *354:10 *412:10 0.00034245
10 *354:10 *468:28 0.000448428
11 *354:10 *477:18 0
12 *354:10 *571:36 0.000501961
13 *1103:A *1119:A 0
14 *120:8 *354:10 0
*RES
1 *938:X *354:10 45.0882 
2 *354:10 *1119:A 44.5629 
*END

*D_NET *355 0.00109679
*CONN
*I *1120:A I *D sg13g2_buf_1
*I *937:X O *D sg13g2_mux2_1
*CAP
1 *1120:A 0.000492892
2 *937:X 0.000492892
3 *1120:A *510:8 0
4 *1120:A *559:130 0
5 *1120:A *582:10 0.00011101
6 I_top9 *1120:A 0
7 *892:S1 *1120:A 0
8 *1212:A *1120:A 0
9 *121:40 *1120:A 0
*RES
1 *937:X *1120:A 44.6144 
*END

*D_NET *356 0.00489548
*CONN
*I *1129:A I *D sg13g2_buf_1
*I *928:X O *D sg13g2_mux2_1
*CAP
1 *1129:A 0.0007153
2 *928:X 0.00067807
3 *356:10 0.00139337
4 *1129:A *1344:A 0
5 *1129:A *1345:A 0
6 *1129:A *485:14 7.9225e-05
7 *356:10 *928:A1 0
8 *356:10 *387:30 0
9 *356:10 *418:20 2.21468e-05
10 *356:10 *504:24 0.000815249
11 *356:10 *510:40 0
12 *356:10 *521:26 0.00112291
13 *1105:A *1129:A 4.77425e-05
14 *125:16 *356:10 2.14736e-05
*RES
1 *928:X *356:10 48.2091 
2 *356:10 *1129:A 46.5508 
*END

*D_NET *357 0.00931547
*CONN
*I *1130:A I *D sg13g2_buf_1
*I *927:X O *D sg13g2_mux2_1
*CAP
1 *1130:A 0
2 *927:X 0.000428052
3 *357:20 0.000878572
4 *357:14 0.00114443
5 *357:8 0.000693906
6 *357:8 *472:28 0
7 *357:8 *472:34 0.00112472
8 *357:8 *562:22 0.00180308
9 *357:8 *599:40 0.000599152
10 *357:14 *588:85 4.77425e-05
11 *357:14 *610:38 0
12 *357:20 *423:24 0.00186144
13 *357:20 *461:26 0
14 *357:20 *508:12 0
15 *357:20 *550:31 0.000522529
16 *357:20 *550:65 0.000211845
17 *924:S *357:20 0
18 *176:13 *357:20 0
*RES
1 *927:X *357:8 48.5078 
2 *357:8 *357:14 42.266 
3 *357:14 *357:20 30.2485 
4 *357:20 *1130:A 20 
*END

*D_NET *358 0.000534889
*CONN
*I *1131:A I *D sg13g2_buf_1
*I *926:X O *D sg13g2_mux2_1
*CAP
1 *1131:A 3.00952e-05
2 *926:X 9.82095e-05
3 *358:8 0.000128305
4 *1131:A *396:8 4.76977e-05
5 *1131:A *429:30 0
6 *358:8 *392:16 0.000230582
7 *358:8 *426:18 0
*RES
1 *926:X *358:8 41.0918 
2 *358:8 *1131:A 40.3193 
*END

*D_NET *359 0.0161876
*CONN
*I *1132:A I *D sg13g2_buf_1
*I *925:X O *D sg13g2_mux2_1
*CAP
1 *1132:A 0
2 *925:X 0
3 *359:26 0.000402314
4 *359:16 0.00116081
5 *359:12 0.00179966
6 *359:6 0.00104116
7 *359:12 *904:A3 0.000232418
8 *359:12 *972:D 0.00023292
9 *359:12 *395:30 0.000389224
10 *359:12 *428:44 7.30101e-05
11 *359:12 *431:83 0.0018345
12 *359:12 *470:10 7.30101e-05
13 *359:12 *565:36 0.000172097
14 *359:12 *583:14 0
15 *359:16 *470:22 0.000663596
16 *359:16 *533:26 0.0008773
17 *359:26 *372:12 0
18 *359:26 *522:20 0
19 N4BEG[10] *359:12 0.000494267
20 *146:18 *359:16 0
21 *146:22 *359:16 0.0026181
22 *165:10 *359:26 0.00106848
23 *169:24 *359:12 0.000172446
24 *169:24 *359:16 0.00211352
25 *202:13 *359:12 0
26 *343:44 *359:26 0.000768742
*RES
1 *925:X *359:6 40 
2 *359:6 *359:12 32.6587 
3 *359:12 *359:16 35.9238 
4 *359:16 *359:26 45.7165 
5 *359:26 *1132:A 40 
*END

*D_NET *360 0.00163445
*CONN
*I *1133:A I *D sg13g2_buf_1
*I *924:X O *D sg13g2_mux2_1
*CAP
1 *1133:A 2.9594e-05
2 *924:X 0.000161842
3 *360:8 0.000191436
4 *1133:A *491:18 4.77425e-05
5 *360:8 *491:10 0.000602379
6 *360:8 *599:26 0.000601461
7 *13:33 *1133:A 0
*RES
1 *924:X *360:8 43.0694 
2 *360:8 *1133:A 40.3193 
*END

*D_NET *361 0.00956262
*CONN
*I *1134:A I *D sg13g2_buf_1
*I *923:X O *D sg13g2_mux2_1
*CAP
1 *1134:A 0
2 *923:X 0.000176118
3 *361:32 7.06352e-05
4 *361:26 0.000602048
5 *361:20 0.00287005
6 *361:14 0.00253922
7 *361:8 0.0003767
8 *361:8 *472:28 0.000496484
9 *361:8 *562:22 0.000651914
10 *361:8 *598:12 0
11 *361:14 *413:26 0.00023495
12 *361:20 *461:36 0
13 *361:20 *516:46 0
14 *361:20 *527:22 0
15 *361:20 *543:32 0
16 *361:20 *547:18 0
17 *361:20 *561:14 0
18 *361:26 *425:16 0
19 *361:26 *464:16 0.00141712
20 *361:26 *527:22 0
21 *361:32 *1122:A 0.000112426
22 *115:24 *361:20 0
23 *115:34 *361:14 1.4965e-05
24 *180:19 *361:20 0
*RES
1 *923:X *361:8 43.0694 
2 *361:8 *361:14 41.6171 
3 *361:14 *361:20 38.0662 
4 *361:20 *361:26 46.5302 
5 *361:26 *361:32 40.7519 
6 *361:32 *1134:A 20 
*END

*D_NET *362 0.00547809
*CONN
*I *1121:A I *D sg13g2_buf_1
*I *936:X O *D sg13g2_mux2_1
*CAP
1 *1121:A 0
2 *936:X 0.000191078
3 *362:14 0.000588865
4 *362:8 0.000779943
5 *362:8 *956:A3 0.000208035
6 *362:14 *415:22 0
7 *362:14 *424:10 0.000554992
8 *362:14 *475:24 0.00076383
9 *362:14 *475:39 0.00125713
10 *362:14 *495:22 0.000112426
11 *362:14 *570:24 0.00102179
*RES
1 *936:X *362:8 41.8334 
2 *362:8 *362:14 30.2485 
3 *362:14 *1121:A 20 
*END

*D_NET *363 0.00527725
*CONN
*I *1122:A I *D sg13g2_buf_1
*I *935:X O *D sg13g2_mux2_1
*CAP
1 *1122:A 0.00030553
2 *935:X 0.000510643
3 *363:8 0.000816173
4 *1122:A *495:22 0
5 *363:8 *471:68 0.000342666
6 *363:8 *508:12 0
7 *363:8 *550:10 0
8 *363:8 *551:56 0.000861236
9 *363:8 *588:50 0.000496064
10 *1114:A *1122:A 4.77425e-05
11 *106:8 *363:8 0.000129659
12 *189:19 *363:8 0
13 *337:28 *1122:A 0
14 *337:28 *363:8 0.00165511
15 *361:32 *1122:A 0.000112426
*RES
1 *935:X *363:8 49.2494 
2 *363:8 *1122:A 42.9355 
*END

*D_NET *364 0.00123648
*CONN
*I *1123:A I *D sg13g2_buf_1
*I *934:X O *D sg13g2_mux2_1
*CAP
1 *1123:A 0
2 *934:X 0.000378217
3 *364:10 0.000378217
4 *364:10 *395:8 0.000124702
5 *364:10 *433:12 0
6 *364:10 *605:16 0.000177843
7 *224:9 *364:10 0.000177499
8 *234:21 *364:10 0
*RES
1 *934:X *364:10 43.3887 
2 *364:10 *1123:A 40 
*END

*D_NET *365 0.00356031
*CONN
*I *1124:A I *D sg13g2_buf_1
*I *933:X O *D sg13g2_mux2_1
*CAP
1 *1124:A 0
2 *933:X 0.000773717
3 *365:10 0.000773717
4 *365:10 *917:A1 0.000578673
5 *365:10 *381:8 0.000442201
6 *365:10 *565:58 0.00039057
7 *365:10 *604:20 0
8 *77:35 *365:10 0
9 *198:9 *365:10 0
10 *219:11 *365:10 0.000601432
*RES
1 *933:X *365:10 49.0743 
2 *365:10 *1124:A 40 
*END

*D_NET *366 0.00268287
*CONN
*I *1125:A I *D sg13g2_buf_1
*I *932:X O *D sg13g2_mux2_1
*CAP
1 *1125:A 0.000940273
2 *932:X 0.000940273
3 *1125:A *975:GATE 0.000175693
4 *1125:A *426:8 0
5 *1125:A *471:18 0
6 *1125:A *505:18 0
7 *1125:A *543:60 0.000337166
8 *1125:A *543:67 0.000289469
*RES
1 *932:X *1125:A 48.4563 
*END

*D_NET *367 0.000993931
*CONN
*I *1126:A I *D sg13g2_buf_1
*I *931:X O *D sg13g2_mux2_1
*CAP
1 *1126:A 0.000224056
2 *931:X 0.000224056
3 *1126:A *1142:A 0
4 *1126:A *584:16 0.000176266
5 *308:14 *1126:A 0.000369553
*RES
1 *931:X *1126:A 42.4823 
*END

*D_NET *368 0.00213851
*CONN
*I *1127:A I *D sg13g2_buf_1
*I *930:X O *D sg13g2_mux2_1
*CAP
1 *1127:A 9.86954e-05
2 *930:X 0.000402106
3 *368:10 0.000500801
4 *1127:A *439:62 0
5 *368:10 *914:A1 0.000261858
6 *368:10 *946:A0 0
7 *368:10 *394:14 0.000143351
8 *368:10 *414:52 0
9 *368:10 *517:14 0
10 *368:10 *578:60 7.51285e-05
11 *954:S *368:10 0
12 *1103:A *1127:A 0
13 *334:10 *368:10 0.000656567
*RES
1 *930:X *368:10 44.6865 
2 *368:10 *1127:A 40.9347 
*END

*D_NET *369 0.00212371
*CONN
*I *1128:A I *D sg13g2_buf_1
*I *929:X O *D sg13g2_mux2_1
*CAP
1 *1128:A 0.000772663
2 *929:X 0.000772663
3 *1128:A *929:A1 7.98582e-05
4 *1128:A *385:18 0.000481197
5 *1128:A *558:24 0
6 *900:S1 *1128:A 1.73259e-05
*RES
1 *929:X *1128:A 47.4263 
*END

*D_NET *370 0.00117449
*CONN
*I *1135:A I *D sg13g2_buf_1
*I *922:X O *D sg13g2_mux2_1
*CAP
1 *1135:A 3.64765e-05
2 *922:X 0.000264129
3 *370:8 0.000300605
4 *1135:A *412:14 0
5 *1135:A *439:62 0
6 *370:8 *386:74 0.000128991
7 *370:8 *393:16 0
8 *370:8 *435:24 0.000444284
*RES
1 *922:X *370:8 43.0694 
2 *370:8 *1135:A 40.3193 
*END

*D_NET *371 0.000724066
*CONN
*I *1136:A I *D sg13g2_buf_1
*I *921:X O *D sg13g2_mux2_1
*CAP
1 *1136:A 0.000338162
2 *921:X 0.000338162
3 *1136:A *892:A3 4.77425e-05
4 *1136:A *559:31 0
5 *1136:A *559:130 0
6 *279:12 *1136:A 0
*RES
1 *921:X *1136:A 42.8325 
*END

*D_NET *372 0.00787459
*CONN
*I *1145:A I *D sg13g2_buf_1
*I *912:X O *D sg13g2_mux2_1
*CAP
1 *1145:A 0
2 *912:X 0.000715359
3 *372:22 0.000914933
4 *372:12 0.00163029
5 *372:12 *499:82 2.20248e-05
6 *372:12 *572:40 0.000392929
7 *372:12 *575:83 0.000128663
8 *372:22 *418:12 4.77425e-05
9 *372:22 *431:24 0.000272718
10 *372:22 *431:35 4.77425e-05
11 *372:22 *499:82 0
12 *372:22 *567:34 0.000281461
13 *128:16 *372:22 2.17531e-05
14 *129:10 *372:22 0.000648364
15 *130:20 *372:22 0.000492711
16 *132:10 *372:22 0.000120753
17 *138:12 *372:22 0.000125963
18 *156:10 *372:22 7.9225e-05
19 *165:10 *372:12 0
20 *168:10 *372:12 0.00117922
21 *343:44 *372:12 0.000752739
22 *359:26 *372:12 0
*RES
1 *912:X *372:12 49.3009 
2 *372:12 *372:22 49.8571 
3 *372:22 *1145:A 40 
*END

*D_NET *373 0.010336
*CONN
*I *1146:A I *D sg13g2_buf_1
*I *911:X O *D sg13g2_mux2_1
*CAP
1 *1146:A 0
2 *911:X 7.67592e-05
3 *373:24 0.000156194
4 *373:18 0.00100341
5 *373:14 0.00197384
6 *373:8 0.00120338
7 *373:8 *535:34 7.92265e-05
8 *373:8 *550:115 7.86681e-05
9 *373:14 *386:12 0
10 *373:14 *439:14 2.14736e-05
11 *373:14 *505:58 0.000375621
12 *373:14 *535:34 0.000858065
13 *373:14 *564:45 0.000127224
14 *373:14 *564:60 0.000261643
15 *373:14 *564:75 0.000551223
16 *373:14 *595:51 0.000497627
17 *373:14 *595:59 0.000283983
18 *373:18 *419:18 0.00222349
19 *373:18 *543:28 0
20 *373:18 *561:14 0
21 *373:24 *471:60 0
22 *373:24 *569:16 0
23 *107:38 *373:14 0.000517788
24 *341:14 *373:14 4.63914e-05
*RES
1 *911:X *373:8 40.7519 
2 *373:8 *373:14 32.8132 
3 *373:14 *373:18 30.2382 
4 *373:18 *373:24 41.1845 
5 *373:24 *1146:A 40 
*END

*D_NET *374 0.000259679
*CONN
*I *1147:A I *D sg13g2_buf_1
*I *910:X O *D sg13g2_mux2_1
*CAP
1 *1147:A 0.000129839
2 *910:X 0.000129839
3 *1147:A *394:14 0
*RES
1 *910:X *1147:A 41.5141 
*END

*D_NET *375 0.0130319
*CONN
*I *1148:A I *D sg13g2_buf_1
*I *909:X O *D sg13g2_mux2_1
*CAP
1 *1148:A 0.000538686
2 *909:X 0.000747965
3 *375:24 0.00122496
4 *375:18 0.00189607
5 *375:12 0.00195775
6 *1148:A *558:114 0.000240377
7 *1148:A *558:124 0.000482433
8 *375:12 *900:A0 0.000176252
9 *375:12 *904:A3 0.000208035
10 *375:12 *576:60 0.000241339
11 *375:18 *962:GATE 0.000112426
12 *375:18 *415:40 0
13 *375:18 *467:14 0.00102001
14 *375:18 *554:35 0.000388274
15 *375:18 *576:34 7.35518e-05
16 *375:18 *576:45 0.000739003
17 *375:18 *576:60 0.000106064
18 *375:18 *586:28 0
19 *375:24 *406:28 0.00189643
20 *953:S *375:12 0
21 *130:40 *1148:A 0
22 *151:24 *375:24 0.00023103
23 *173:14 *375:24 0.000751206
*RES
1 *909:X *375:12 46.8289 
2 *375:12 *375:18 32.3497 
3 *375:18 *375:24 49.0022 
4 *375:24 *1148:A 25.2942 
*END

*D_NET *376 0.00743899
*CONN
*I *1149:A I *D sg13g2_buf_1
*I *908:X O *D sg13g2_mux2_1
*CAP
1 *1149:A 0
2 *908:X 0.000207178
3 *376:14 0.000804177
4 *376:8 0.00101135
5 *376:8 *405:46 0.000272718
6 *376:8 *416:14 0.000208035
7 *376:14 *405:36 0
8 *376:14 *409:24 0.000916006
9 *376:14 *424:26 0.00148632
10 *376:14 *472:34 0.000543031
11 *376:14 *491:10 0
12 *376:14 *495:22 4.77425e-05
13 *376:14 *559:69 0.000387131
14 *376:14 *588:30 4.77425e-05
15 *376:14 *599:26 0.000388908
16 *344:28 *376:14 0.00111864
*RES
1 *908:X *376:8 42.266 
2 *376:8 *376:14 33.2767 
3 *376:14 *1149:A 20 
*END

*D_NET *377 0.010394
*CONN
*I *1150:A I *D sg13g2_buf_1
*I *907:X O *D sg13g2_mux2_1
*CAP
1 *1150:A 0
2 *907:X 0.000155557
3 *377:14 0.00173057
4 *377:8 0.00188612
5 *377:8 *907:A1 8.00842e-05
6 *377:14 *411:16 0.000453045
7 *377:14 *411:40 0
8 *377:14 *505:40 0.00173092
9 *377:14 *531:26 0
10 I_top3 *377:14 0.000611502
11 *116:22 *377:14 0
12 *117:8 *377:14 0
13 *181:9 *377:14 0.00374616
*RES
1 *907:X *377:8 41.4008 
2 *377:8 *377:14 44.0299 
3 *377:14 *1150:A 20 
*END

*D_NET *378 0.00597151
*CONN
*I *1137:A I *D sg13g2_buf_1
*I *920:X O *D sg13g2_mux2_1
*CAP
1 *1137:A 0
2 *920:X 0.000264177
3 *378:16 0.000599639
4 *378:8 0.000863815
5 *378:8 *977:GATE 0.000126358
6 *378:8 *518:18 0.000863631
7 *378:8 *548:41 0.000316722
8 *378:8 *569:52 0
9 *378:8 *607:40 7.31628e-05
10 *378:16 *977:GATE 4.77425e-05
11 *378:16 *1041:GATE 4.77425e-05
12 *378:16 *1360:A 0
13 *378:16 *475:39 0
14 *378:16 *486:23 0.000599262
15 *378:16 *505:58 0.000703529
16 *378:16 *572:30 0
17 *326:10 *378:16 8.00764e-05
18 *348:12 *378:16 0.00138565
*RES
1 *920:X *378:8 44.0582 
2 *378:8 *378:16 49.0125 
3 *378:16 *1137:A 40 
*END

*D_NET *379 0.0132482
*CONN
*I *1138:A I *D sg13g2_buf_1
*I *919:X O *D sg13g2_mux2_1
*CAP
1 *1138:A 0
2 *919:X 0.000183408
3 *379:26 0
4 *379:22 0.00184946
5 *379:16 0.00198938
6 *379:10 0.000323321
7 *379:22 *498:26 0
8 *379:22 *516:20 0.0013582
9 *379:22 *571:16 0.00174082
10 *379:22 *571:18 0
11 *379:22 *573:12 0
12 *379:22 *573:14 0.00537252
13 *24:15 *379:22 0.000431058
*RES
1 *919:X *379:10 41.5347 
2 *379:10 *379:16 40.7834 
3 *379:16 *379:22 48.3868 
4 *379:22 *379:26 40 
5 *379:26 *1138:A 20 
*END

*D_NET *380 0.00283931
*CONN
*I *1139:A I *D sg13g2_buf_1
*I *918:X O *D sg13g2_mux2_1
*CAP
1 *1139:A 2.60565e-05
2 *918:X 0.000381178
3 *380:18 0.00028212
4 *380:10 0.000637241
5 *1139:A *417:14 4.77425e-05
6 *1139:A *618:8 4.77425e-05
7 *380:10 *1051:A 4.77425e-05
8 *380:10 *389:55 7.98582e-05
9 *380:10 *605:28 0.000144542
10 *380:18 *567:95 0
11 *380:18 *611:12 0
12 *934:S *380:10 4.77425e-05
13 *233:29 *380:18 0.000547768
14 *237:9 *380:18 0.000549576
*RES
1 *918:X *380:10 43.4814 
2 *380:10 *380:18 43.5432 
3 *380:18 *1139:A 40.3193 
*END

*D_NET *381 0.00083979
*CONN
*I *1140:A I *D sg13g2_buf_1
*I *917:X O *D sg13g2_mux2_1
*CAP
1 *1140:A 3.47831e-05
2 *917:X 0.000164011
3 *381:8 0.000198794
4 *381:8 *604:20 0
5 *365:10 *381:8 0.000442201
*RES
1 *917:X *381:8 42.0806 
2 *381:8 *1140:A 40.3193 
*END

*D_NET *382 0.00247613
*CONN
*I *1141:A I *D sg13g2_buf_1
*I *916:X O *D sg13g2_mux2_1
*CAP
1 *1141:A 0
2 *916:X 0.000679973
3 *382:10 0.000679973
4 *382:10 *392:16 0
5 *382:10 *424:52 0.000232574
6 *382:10 *553:38 0.000337402
7 *382:10 *590:16 0.000402533
8 *252:40 *382:10 0.000143673
*RES
1 *916:X *382:10 46.5405 
2 *382:10 *1141:A 40 
*END

*D_NET *383 0.00192736
*CONN
*I *1142:A I *D sg13g2_buf_1
*I *915:X O *D sg13g2_mux2_1
*CAP
1 *1142:A 0.000485256
2 *915:X 0.000293973
3 *383:8 0.000779229
4 *1142:A *1031:GATE 0.000240141
5 *383:8 *931:A1 0.000128765
6 *383:8 *477:18 0
7 *1118:A *1142:A 0
8 *1126:A *1142:A 0
9 *246:14 *383:8 0
*RES
1 *915:X *383:8 42.3278 
2 *383:8 *1142:A 44.1303 
*END

*D_NET *384 0.000250343
*CONN
*I *1143:A I *D sg13g2_buf_1
*I *914:X O *D sg13g2_mux2_1
*CAP
1 *1143:A 0.000125171
2 *914:X 0.000125171
3 *1143:A *439:62 0
4 *1103:A *1143:A 0
5 *1119:A *1143:A 0
*RES
1 *914:X *1143:A 41.5141 
*END

*D_NET *385 0.00431582
*CONN
*I *1144:A I *D sg13g2_buf_1
*I *913:X O *D sg13g2_mux2_1
*CAP
1 *1144:A 0
2 *913:X 0.00155749
3 *385:18 0.00155749
4 *385:18 *1036:GATE 8.00842e-05
5 *385:18 *479:42 0
6 *385:18 *551:10 0.000111455
7 *385:18 *610:61 0.000112236
8 *902:S0 *385:18 0
9 *929:S *385:18 0.00030487
10 *1128:A *385:18 0.000481197
11 *321:10 *385:18 0.00011101
*RES
1 *913:X *385:18 35.0586 
2 *385:18 *1144:A 20 
*END

*D_NET *386 0.0360482
*CONN
*I *1047:A I *D sg13g2_buf_1
*I *983:D I *D sg13g2_dlhq_1
*I *1015:D I *D sg13g2_dlhq_1
*I *1166:X O *D sg13g2_buf_1
*CAP
1 *1047:A 0
2 *983:D 3.6364e-05
3 *1015:D 4.28817e-05
4 *1166:X 0.000102782
5 *386:74 0.00104673
6 *386:61 0.00124523
7 *386:48 0.000463283
8 *386:44 0.00136366
9 *386:38 0.00135693
10 *386:28 0.00103353
11 *386:22 0.00164042
12 *386:12 0.00289581
13 *386:8 0.00214016
14 *983:D *620:40 8.00842e-05
15 *1015:D *394:24 0
16 *386:8 *453:16 0.000144169
17 *386:8 *491:42 0.000176511
18 *386:12 *439:14 0
19 *386:12 *453:22 0.00233072
20 *386:12 *563:26 0.00353783
21 *386:12 *564:45 0
22 *386:12 *564:75 0.000549441
23 *386:12 *595:59 0.000490679
24 *386:12 *610:57 0.00185116
25 *386:22 *424:32 0.00086324
26 *386:22 *509:36 0.000861291
27 *386:22 *559:41 0
28 *386:28 *424:38 0.00229294
29 *386:28 *464:44 0.000390551
30 *386:28 *464:72 2.17531e-05
31 *386:28 *472:10 0.000866791
32 *386:28 *559:37 0
33 *386:38 *407:24 0.00011187
34 *386:38 *411:62 0.000518179
35 *386:38 *517:30 0.000263351
36 *386:38 *596:14 0
37 *386:44 *397:38 0
38 *386:44 *411:62 0
39 *386:44 *422:22 0
40 *386:44 *434:16 0
41 *386:44 *517:30 0.00151104
42 *386:61 *477:18 0
43 *386:74 *393:16 0
44 *386:74 *435:14 0
45 *386:74 *435:24 0
46 *386:74 *546:161 0.000603728
47 *386:74 *552:141 0
48 *386:74 *599:80 0.000125175
49 *386:74 *599:95 0.000922257
50 *386:74 *599:105 0.00129801
51 *386:74 *620:40 4.77425e-05
52 *2:17 *386:8 0
53 *66:13 *386:48 0.0010296
54 *66:13 *386:61 0.000106566
55 *121:14 *386:12 0
56 *246:14 *386:48 0
57 *271:8 *386:74 0
58 *282:24 *386:48 0.00108168
59 *282:24 *386:61 0.000395811
60 *282:24 *386:74 7.9225e-05
61 *370:8 *386:74 0.000128991
62 *373:14 *386:12 0
*RES
1 *1166:X *386:8 41.1845 
2 *386:8 *386:12 47.7894 
3 *386:12 *386:22 48.989 
4 *386:22 *386:28 31.33 
5 *386:28 *386:38 43.4402 
6 *386:38 *386:44 30.5472 
7 *386:44 *386:48 25.2942 
8 *386:48 *1015:D 40.5356 
9 *386:48 *386:61 22.0806 
10 *386:61 *983:D 20.5356 
11 *386:61 *386:74 33.0913 
12 *386:74 *1047:A 40 
*END

*D_NET *387 0.0135147
*CONN
*I *1065:A I *D sg13g2_buf_1
*I *969:D I *D sg13g2_dlhq_1
*I *1001:D I *D sg13g2_dlhq_1
*I *1033:D I *D sg13g2_dlhq_1
*I *1167:X O *D sg13g2_buf_1
*CAP
1 *1065:A 7.10927e-05
2 *969:D 6.83813e-05
3 *1001:D 4.37077e-05
4 *1033:D 0
5 *1167:X 0.000312014
6 *387:57 0.000271352
7 *387:40 0.00058181
8 *387:34 0.000555787
9 *387:30 0.00083971
10 *387:22 0.00118898
11 *387:12 0.000865618
12 *969:D *1025:GATE 9.7025e-05
13 *1001:D *547:170 8.00842e-05
14 *1065:A *482:30 0.000112426
15 *387:12 *497:20 4.77699e-05
16 *387:12 *497:24 0.000753318
17 *387:12 *575:30 0
18 *387:22 *1345:A 0.000272718
19 *387:22 *497:24 0
20 *387:22 *503:22 0
21 *387:22 *575:30 0.00043624
22 *387:30 *928:A1 0.000208035
23 *387:30 *406:28 0.000231497
24 *387:30 *497:39 0
25 *387:30 *497:58 0
26 *387:34 *499:68 0.00043953
27 *387:34 *615:45 0.000336767
28 *387:40 *1025:GATE 0.000175693
29 *387:40 *530:68 0
30 *387:40 *566:57 0.000279469
31 *387:40 *575:47 0.000492173
32 *387:57 *952:A0 7.30101e-05
33 *387:57 *534:20 0.00014102
34 *387:57 *566:57 0.000124547
35 *387:57 *600:36 4.63914e-05
36 *912:S *1001:D 8.00842e-05
37 *1169:A *387:12 0
38 *1174:A *387:12 0.00049264
39 *19:9 *387:12 4.79124e-05
40 *129:10 *387:22 8.00842e-05
41 *129:18 *387:30 0.000143351
42 *130:20 *387:30 0.000339018
43 *132:10 *387:30 0.000653183
44 *135:36 *387:40 0.000856927
45 *135:36 *387:57 0.000104884
46 *151:24 *387:30 0.00149747
47 *171:12 *387:57 7.30101e-05
48 *356:10 *387:30 0
*RES
1 *1167:X *387:12 44.4496 
2 *387:12 *387:22 44.6659 
3 *387:22 *387:30 49.7232 
4 *387:30 *387:34 22.0806 
5 *387:34 *387:40 25.2427 
6 *387:40 *1033:D 40 
7 *387:40 *387:57 42.3484 
8 *387:57 *1001:D 40.5356 
9 *387:34 *969:D 20.7519 
10 *387:12 *1065:A 40.7519 
*END

*D_NET *388 0.0126003
*CONN
*I *917:A0 I *D sg13g2_mux2_1
*I *896:A3 I *D sg13g2_mux4_1
*I *1251:X O *D sg13g2_buf_1
*CAP
1 *917:A0 0
2 *896:A3 0
3 *1251:X 0
4 *388:35 0.000234755
5 *388:20 0.000565472
6 *388:16 0.00291792
7 *388:10 0.0021177
8 *388:6 0
9 *388:16 *389:16 0
10 *388:16 *395:20 0
11 *388:16 *399:18 0
12 *388:16 *400:12 0.000984699
13 *388:16 *420:56 0.00125134
14 *388:16 *471:26 7.90769e-05
15 *388:16 *492:24 0
16 *388:16 *534:10 0
17 *388:16 *535:18 0
18 *388:16 *591:24 0
19 *388:16 *591:32 0
20 *388:20 *1019:GATE 0.000315227
21 *388:20 *556:169 0.00154589
22 *388:35 *471:26 0.000208097
23 *388:35 *476:40 0.000144946
24 *917:S *388:35 0
25 *77:35 *388:35 0
26 *260:8 *388:20 0
27 *272:12 *388:20 0.00223514
*RES
1 *1251:X *388:6 40 
2 *388:6 *388:10 40 
3 *388:10 *388:16 40.2869 
4 *388:16 *388:20 30.4854 
5 *388:20 *896:A3 40 
6 *388:16 *388:35 42.369 
7 *388:35 *917:A0 20 
*END

*D_NET *389 0.00823854
*CONN
*I *895:A3 I *D sg13g2_mux4_1
*I *918:A0 I *D sg13g2_mux2_1
*I *1252:X O *D sg13g2_buf_1
*CAP
1 *895:A3 0
2 *918:A0 3.59094e-05
3 *1252:X 4.36852e-05
4 *389:55 0.00109878
5 *389:34 0.0013018
6 *389:24 0.000370255
7 *389:16 0.000824111
8 *389:8 0.000664648
9 *389:8 *1309:A 8.00425e-05
10 *389:16 *400:12 0
11 *389:24 *614:10 0
12 *389:34 *1080:A 7.33256e-05
13 *389:34 *420:64 4.6693e-05
14 *389:55 *573:38 0.000112198
15 *389:55 *589:20 0
16 *389:55 *605:28 0.000980492
17 *934:S *389:55 4.77425e-05
18 *97:14 *389:8 8.00425e-05
19 *214:9 *918:A0 0.000180885
20 *214:9 *389:34 0.000261858
21 *216:19 *389:16 9.79478e-05
22 *216:19 *389:24 0.000556486
23 *221:9 *918:A0 0.0001813
24 *221:9 *389:34 0.000387028
25 *227:15 *389:16 0
26 *228:19 *389:16 0
27 *228:19 *389:24 0.000396097
28 *234:21 *389:34 0
29 *237:9 *389:55 0.000337357
30 *380:10 *389:55 7.98582e-05
31 *388:16 *389:16 0
*RES
1 *1252:X *389:8 40.5356 
2 *389:8 *389:16 46.0461 
3 *389:16 *389:24 43.1106 
4 *389:24 *389:34 42.5029 
5 *389:34 *918:A0 40.8446 
6 *389:34 *389:55 30.5266 
7 *389:55 *895:A3 20 
*END

*D_NET *390 0.026674
*CONN
*I *894:A3 I *D sg13g2_mux4_1
*I *919:A0 I *D sg13g2_mux2_1
*I *1253:X O *D sg13g2_buf_1
*CAP
1 *894:A3 0.000463491
2 *919:A0 5.32781e-05
3 *1253:X 0.00247871
4 *390:46 0.000897508
5 *390:44 0.00117602
6 *390:36 0.00125369
7 *390:26 0.00176066
8 *390:18 0.00197877
9 *390:10 0.00315524
10 *894:A3 *955:A1 4.77425e-05
11 *894:A3 *559:41 0.000175693
12 *894:A3 *581:34 8.00842e-05
13 *919:A0 *919:A1 4.77425e-05
14 *390:10 *402:10 0
15 *390:10 *412:14 0
16 *390:10 *452:12 0.000274555
17 *390:10 *459:14 0.000112561
18 *390:18 *404:14 0.000713531
19 *390:18 *435:24 0
20 *390:18 *439:62 0.00124405
21 *390:18 *477:18 0
22 *390:18 *620:28 0.000768411
23 *390:26 *422:16 0.000129197
24 *390:26 *502:14 0
25 *390:26 *531:16 0.00352752
26 *390:44 *394:30 0
27 *390:44 *411:40 0
28 *390:44 *453:42 0
29 *390:44 *453:61 4.77425e-05
30 *390:44 *547:74 0.000144542
31 *390:44 *579:28 0
32 *390:44 *581:73 0.000453395
33 *390:44 *620:40 0
34 *390:46 *394:40 0.000338219
35 *390:46 *425:32 0
36 *390:46 *556:110 0.000234744
37 *390:46 *620:50 0.000552607
38 FrameStrobe_O[11] *390:10 1.54008e-05
39 I_top8 *390:36 0.00156027
40 *919:S *919:A0 0.000127878
41 *919:S *390:46 5.29341e-05
42 *1088:A *390:10 0
43 *24:83 *390:26 0
44 *98:10 *390:10 0.000111759
45 *104:10 *390:10 0
46 *117:8 *390:44 0.000664979
47 *246:14 *390:36 0.00172077
48 *263:26 *390:46 0
49 *314:8 *919:A0 0.00012816
50 *314:8 *390:46 0.00018211
*RES
1 *1253:X *390:10 40.6721 
2 *390:10 *390:18 49.4451 
3 *390:18 *390:26 36.8405 
4 *390:26 *390:36 48.8683 
5 *390:36 *390:44 49.2288 
6 *390:44 *390:46 5.047 
7 *390:46 *919:A0 40.9167 
8 *390:46 *894:A3 44.2333 
*END

*D_NET *391 0.0229614
*CONN
*I *920:A0 I *D sg13g2_mux2_1
*I *893:A3 I *D sg13g2_mux4_1
*I *1254:X O *D sg13g2_buf_1
*CAP
1 *920:A0 0.000253542
2 *893:A3 0
3 *1254:X 0
4 *391:58 0.000253542
5 *391:56 0
6 *391:52 0.0013255
7 *391:48 0.00241299
8 *391:42 0.00115692
9 *391:36 0.000978475
10 *391:28 0.00133787
11 *391:20 0.00197476
12 *391:12 0.00163682
13 *391:6 9.08889e-05
14 *920:A0 *956:A0 0
15 *920:A0 *569:52 8.00842e-05
16 *920:A0 *569:70 1.54008e-05
17 *391:12 *415:52 0.000145718
18 *391:12 *607:18 0
19 *391:20 *405:110 0
20 *391:20 *424:58 0
21 *391:20 *427:12 0
22 *391:20 *468:16 0.000129113
23 *391:20 *488:14 0
24 *391:20 *523:18 0
25 *391:20 *530:20 0
26 *391:28 *471:18 0
27 *391:28 *505:18 4.75151e-05
28 *391:28 *533:10 0.000144027
29 *391:28 *548:8 0
30 *391:28 *590:16 0
31 *391:28 *608:26 0.000388943
32 *391:28 *611:18 0.000389767
33 *391:36 *488:30 0.00169625
34 *391:36 *545:56 0
35 *391:36 *555:70 0.000234604
36 *391:36 *585:10 0
37 *391:36 *590:22 0.000856816
38 *391:36 *597:14 0
39 *391:36 *602:14 0
40 *391:48 *397:58 0.00018265
41 *391:48 *510:14 0.00158116
42 *391:48 *527:12 0
43 *391:48 *590:51 0
44 *391:52 *442:41 0
45 *391:52 *501:24 0
46 *391:52 *519:28 0
47 *391:52 *519:44 0.000823657
48 *391:52 *525:18 0.00226835
49 *391:52 *586:24 0.001573
50 *24:67 *391:48 7.67467e-05
51 *158:32 *391:48 0.000236211
52 *253:36 *391:20 0.000173111
53 *279:12 *391:36 0.000496991
*RES
1 *1254:X *391:6 40 
2 *391:6 *391:12 40.9682 
3 *391:12 *391:20 34.2449 
4 *391:20 *391:28 44.7483 
5 *391:28 *391:36 31.8965 
6 *391:36 *391:42 40.5356 
7 *391:42 *391:48 31.5463 
8 *391:48 *391:52 37.9014 
9 *391:52 *391:56 40 
10 *391:56 *391:58 20 
11 *391:58 *893:A3 20 
12 *391:58 *920:A0 22.1836 
*END

*D_NET *392 0.0138473
*CONN
*I *892:A3 I *D sg13g2_mux4_1
*I *921:A0 I *D sg13g2_mux2_1
*I *1256:X O *D sg13g2_buf_1
*CAP
1 *892:A3 0.000240558
2 *921:A0 8.89376e-05
3 *1256:X 0.000579203
4 *392:16 0.0032054
5 *392:10 0.00345511
6 *921:A0 *442:51 0.000181298
7 *921:A0 *570:46 7.49652e-05
8 *392:10 *1312:A 8.00394e-05
9 *392:10 *414:52 0.000176178
10 *392:10 *439:62 0
11 *392:10 *620:14 0
12 *392:16 *926:A0 0
13 *392:16 *937:A1 0.00023256
14 *392:16 *940:A0 0.000540689
15 *392:16 *405:118 0
16 *392:16 *408:46 0
17 *392:16 *424:52 0
18 *392:16 *426:18 0
19 *392:16 *437:64 0.00297068
20 *392:16 *442:51 0.00107229
21 *392:16 *549:51 0
22 *392:16 *553:44 0
23 *392:16 *553:63 0
24 *392:16 *611:18 0
25 FrameStrobe_O[4] *392:10 4.78498e-05
26 *1136:A *892:A3 4.77425e-05
27 *1256:A *392:10 0
28 *209:13 *392:16 0
29 *252:32 *392:16 0.000284798
30 *274:10 *392:16 0
31 *299:10 *392:16 0.00033843
32 *358:8 *392:16 0.000230582
33 *382:10 *392:16 0
*RES
1 *1256:X *392:10 45.2118 
2 *392:10 *392:16 30.6528 
3 *392:16 *921:A0 41.1639 
4 *392:16 *892:A3 42.0497 
*END

*D_NET *393 0.00861714
*CONN
*I *891:A3 I *D sg13g2_mux4_1
*I *922:A0 I *D sg13g2_mux2_1
*I *1257:X O *D sg13g2_buf_1
*CAP
1 *891:A3 0
2 *922:A0 2.52636e-05
3 *1257:X 0.00187608
4 *393:33 0.000411747
5 *393:16 0.000832916
6 *393:10 0.00227198
7 *922:A0 *922:A1 5.00526e-06
8 *922:A0 *571:40 3.73746e-05
9 *393:10 *1309:A 0
10 *393:10 *401:22 0
11 *393:10 *402:10 0.000177184
12 *393:10 *412:14 0.000627903
13 *393:10 *422:40 4.70274e-05
14 *393:10 *439:62 0
15 *393:10 *620:14 0
16 *393:16 *452:8 0.00023547
17 *393:16 *599:105 0.000181192
18 *393:16 *620:22 0
19 *393:33 *938:A0 4.76973e-05
20 *393:33 *469:10 0.000447702
21 *393:33 *549:113 0.000813451
22 *393:33 *552:149 0
23 *393:33 *571:40 0.000193512
24 *393:33 *620:22 0
25 *1089:A *393:10 0.000240816
26 *101:10 *393:10 0.000144815
27 *324:14 *393:33 0
28 *370:8 *393:16 0
29 *386:74 *393:16 0
*RES
1 *1257:X *393:10 37.2113 
2 *393:10 *393:16 44.0582 
3 *393:16 *922:A0 20.2498 
4 *393:16 *393:33 45.5311 
5 *393:33 *891:A3 20 
*END

*D_NET *394 0.0319427
*CONN
*I *908:A0 I *D sg13g2_mux2_1
*I *905:A3 I *D sg13g2_mux4_1
*I *1258:X O *D sg13g2_buf_1
*CAP
1 *908:A0 0
2 *905:A3 0
3 *1258:X 0.00103616
4 *394:62 0.000223119
5 *394:56 0.000437794
6 *394:52 0.00107297
7 *394:46 0.00138207
8 *394:40 0.00072166
9 *394:30 0.00264702
10 *394:24 0.00334949
11 *394:18 0.00190907
12 *394:14 0.00204487
13 *394:14 *903:A0 0.000770843
14 *394:14 *950:A0 0.000176178
15 *394:14 *417:14 0.000111157
16 *394:14 *513:14 0
17 *394:14 *617:22 0
18 *394:18 *899:A3 0
19 *394:18 *464:86 0.00043822
20 *394:18 *476:10 0.000177894
21 *394:18 *552:124 0
22 *394:18 *552:149 0.000180968
23 *394:18 *589:20 0.000283922
24 *394:18 *603:36 0
25 *394:18 *609:26 0.000442445
26 *394:18 *617:38 0
27 *394:18 *618:16 0.00154718
28 *394:24 *539:48 4.76973e-05
29 *394:24 *539:61 0.00028921
30 *394:24 *556:120 0
31 *394:24 *556:131 0
32 *394:24 *599:74 0.000207845
33 *394:24 *599:80 8.0039e-05
34 *394:30 *411:40 0
35 *394:30 *432:34 0.000500847
36 *394:30 *505:34 0
37 *394:30 *620:40 0
38 *394:40 *425:32 0.000338219
39 *394:40 *464:32 0
40 *394:40 *502:22 0
41 *394:46 *425:32 0.00181953
42 *394:46 *545:36 0.00108118
43 *394:46 *581:46 7.34081e-05
44 *394:52 *472:34 0.00102065
45 *394:52 *478:10 0.000626948
46 *394:52 *559:61 0.000469208
47 *394:52 *559:69 0.000338088
48 *394:52 *580:38 0
49 *394:56 *908:A1 1.54008e-05
50 *394:62 *563:26 0.000963574
51 I_top13 *394:30 0.000607524
52 I_top3 *394:30 0
53 *954:S *394:14 0.000240377
54 *1015:D *394:24 0
55 *1107:A *394:14 0
56 *1147:A *394:14 0
57 *78:17 *394:24 7.98582e-05
58 *108:14 *394:30 0.00188528
59 *110:10 *394:30 0
60 *115:34 *394:40 0
61 *116:22 *394:30 0.000714418
62 *282:52 *394:14 0.000143797
63 *302:8 *394:62 0.000965033
64 *327:10 *394:46 0
65 *368:10 *394:14 0.000143351
66 *390:44 *394:30 0
67 *390:46 *394:40 0.000338219
*RES
1 *1258:X *394:14 30.8665 
2 *394:14 *394:18 32.463 
3 *394:18 *394:24 48.3224 
4 *394:24 *394:30 46.3165 
5 *394:30 *394:40 42.7192 
6 *394:40 *394:46 48.5078 
7 *394:46 *394:52 30.094 
8 *394:52 *394:56 21.7366 
9 *394:56 *394:62 44.5526 
10 *394:62 *905:A3 20 
11 *394:56 *908:A0 20 
*END

*D_NET *395 0.0140789
*CONN
*I *909:A0 I *D sg13g2_mux2_1
*I *904:A3 I *D sg13g2_mux4_1
*I *1259:X O *D sg13g2_buf_1
*CAP
1 *909:A0 0.000127491
2 *904:A3 0.000207405
3 *1259:X 7.28598e-05
4 *395:30 0.000812995
5 *395:24 0.00135388
6 *395:20 0.00268914
7 *395:14 0.00189854
8 *395:8 0.000158039
9 *904:A3 *583:14 0.000232418
10 *909:A0 *904:A2 0.000149048
11 *909:A0 *909:A1 7.98582e-05
12 *395:20 *400:12 0.000556632
13 *395:20 *400:24 0
14 *395:20 *420:56 0.00125167
15 *395:20 *437:54 0
16 *395:20 *471:26 0.00027191
17 *395:20 *492:16 0
18 *395:20 *514:16 0.000144946
19 *395:20 *591:32 0.000129113
20 *395:24 *410:42 0.00153053
21 *395:24 *428:60 0
22 *395:24 *500:14 0.000912034
23 *395:24 *500:20 0
24 *395:24 *532:22 0
25 *395:30 *431:83 0
26 *395:30 *542:47 0
27 *395:30 *583:14 0.000313575
28 *214:15 *395:20 0
29 *234:21 *395:8 0.000232441
30 *260:8 *395:30 0
31 *359:12 *904:A3 0.000232418
32 *359:12 *395:30 0.000389224
33 *364:10 *395:8 0.000124702
34 *375:12 *904:A3 0.000208035
35 *388:16 *395:20 0
*RES
1 *1259:X *395:8 41.0918 
2 *395:8 *395:14 40.5356 
3 *395:14 *395:20 37.7881 
4 *395:20 *395:24 31.7214 
5 *395:24 *395:30 44.7998 
6 *395:30 *904:A3 42.4926 
7 *395:30 *909:A0 41.4214 
*END

*D_NET *396 0.00690483
*CONN
*I *903:A3 I *D sg13g2_mux4_1
*I *910:A0 I *D sg13g2_mux2_1
*I *1260:X O *D sg13g2_buf_1
*CAP
1 *903:A3 0
2 *910:A0 0
3 *1260:X 0.000941055
4 *396:27 0.000447013
5 *396:12 0.000730629
6 *396:8 0.00122467
7 *396:8 *429:30 0
8 *396:8 *439:62 0.000885592
9 *396:8 *505:8 0
10 *396:8 *608:20 0
11 *396:12 *426:18 0
12 *396:12 *436:16 0.000863442
13 *396:12 *505:18 0
14 *396:12 *573:67 0.00039188
15 *396:27 *950:A0 0.000156024
16 *396:27 *1011:GATE 0.0001122
17 *396:27 *426:18 0
18 *396:27 *573:38 0
19 *396:27 *573:59 7.98567e-05
20 *396:27 *597:14 0.000342386
21 *396:27 *602:14 0.00012816
22 *396:27 *605:28 0.0001122
23 FrameStrobe_O[4] *396:8 0.000175721
24 *1131:A *396:8 4.76977e-05
25 *1251:A *396:8 8.02267e-05
26 *1263:A *396:8 0
27 *282:44 *396:27 0.000111567
28 *282:52 *396:27 7.45103e-05
*RES
1 *1260:X *396:8 49.1876 
2 *396:8 *396:12 24.0582 
3 *396:12 *910:A0 20 
4 *396:12 *396:27 44.7586 
5 *396:27 *903:A3 20 
*END

*D_NET *397 0.0275787
*CONN
*I *902:A3 I *D sg13g2_mux4_1
*I *911:A0 I *D sg13g2_mux2_1
*I *1261:X O *D sg13g2_buf_1
*CAP
1 *902:A3 0
2 *911:A0 0
3 *1261:X 0.000350404
4 *397:62 0
5 *397:58 0.00056945
6 *397:52 0.00140653
7 *397:46 0.00245586
8 *397:38 0.00180864
9 *397:32 0.000474734
10 *397:26 0.000774444
11 *397:18 0.00210222
12 *397:14 0.00311733
13 *397:10 0.00185508
14 *397:14 *415:52 0.000824226
15 *397:14 *418:72 0
16 *397:14 *419:48 0
17 *397:14 *535:12 0
18 *397:14 *617:14 0
19 *397:18 *405:122 0
20 *397:18 *407:48 0
21 *397:18 *419:40 0
22 *397:18 *432:50 0.001999
23 *397:18 *614:14 0
24 *397:26 *402:30 0.000180071
25 *397:26 *418:66 7.78179e-05
26 *397:26 *419:36 0
27 *397:26 *467:46 0.000585974
28 *397:26 *584:18 0.000179649
29 *397:32 *419:36 0
30 *397:32 *513:22 0.000718668
31 *397:38 *422:22 0
32 *397:38 *432:46 0
33 *397:38 *519:24 0.000174615
34 *397:46 *477:18 0
35 *397:46 *509:42 0
36 *397:46 *516:8 0.00119023
37 *397:46 *547:74 0
38 *397:46 *581:63 0.00108594
39 *397:52 *409:44 0
40 *397:52 *409:59 0
41 *397:52 *439:22 0
42 *397:52 *499:32 0
43 *397:52 *527:18 0
44 *397:52 *590:51 0
45 *397:58 *414:14 0
46 *397:58 *548:35 0.00146465
47 *397:58 *590:51 0.00173169
48 FrameStrobe_O[8] *397:10 0.00011101
49 FrameStrobe_O[9] *397:10 4.75166e-05
50 *66:37 *397:46 0
51 *97:14 *397:10 0
52 *98:10 *397:10 0.000657923
53 *102:8 *397:10 0
54 *158:32 *397:58 0
55 *158:42 *397:52 7.78179e-05
56 *227:15 *397:14 0
57 *263:16 *397:46 0.00124541
58 *343:32 *397:58 0.000129197
59 *386:44 *397:38 0
60 *391:48 *397:58 0.00018265
*RES
1 *1261:X *397:10 43.8213 
2 *397:10 *397:14 33.7299 
3 *397:14 *397:18 35.9238 
4 *397:18 *397:26 44.841 
5 *397:26 *397:32 43.3166 
6 *397:32 *397:38 41.6171 
7 *397:38 *397:46 38.231 
8 *397:46 *397:52 46.1594 
9 *397:52 *397:58 49.991 
10 *397:58 *397:62 40 
11 *397:62 *911:A0 20 
12 *397:46 *902:A3 20 
*END

*D_NET *398 0.0164
*CONN
*I *1002:D I *D sg13g2_dlhq_1
*I *970:D I *D sg13g2_dlhq_1
*I *1034:D I *D sg13g2_dlhq_1
*I *1066:A I *D sg13g2_buf_1
*I *1169:X O *D sg13g2_buf_1
*CAP
1 *1002:D 3.02081e-05
2 *970:D 0.000218739
3 *1034:D 0
4 *1066:A 0
5 *1169:X 0.000432141
6 *398:52 0.000575626
7 *398:39 0.00054741
8 *398:33 0.00115266
9 *398:24 0.000692075
10 *398:12 0.00219368
11 *398:8 0.00100181
12 *970:D *559:57 0.000111567
13 *398:8 *479:72 0.000231017
14 *398:8 *497:71 0.000181192
15 *398:8 *567:34 0.000137431
16 *398:12 *501:30 0.000666445
17 *398:12 *511:20 0.000404528
18 *398:12 *541:14 0
19 *398:12 *544:20 0
20 *398:12 *580:14 0.000209967
21 *398:24 *1017:D 0
22 *398:24 *490:12 0
23 *398:24 *507:14 0
24 *398:24 *540:33 0
25 *398:24 *541:14 0
26 *398:24 *544:20 0
27 *398:24 *564:16 0
28 *398:24 *580:14 0.000403118
29 *398:33 *420:18 0.00366946
30 *398:33 *522:20 0.00103743
31 *398:33 *548:35 0.000556655
32 *398:33 *555:12 0
33 *398:33 *556:88 0
34 *398:33 *569:22 0
35 *398:39 *405:46 0.000758614
36 *398:39 *408:34 7.30101e-05
37 *398:39 *536:16 0
38 *398:39 *569:70 0.000393214
39 *398:52 *405:46 0.00022762
40 *398:52 *408:34 0.000206146
41 *948:S *970:D 0.00014391
42 *1172:A *398:8 0
43 *2:17 *398:24 0
44 *13:33 *398:24 0.000144352
45 *16:9 *398:8 0
46 *107:16 *398:24 0
47 *130:20 *398:8 0
*RES
1 *1169:X *398:8 43.811 
2 *398:8 *398:12 26.1594 
3 *398:12 *398:24 46.0667 
4 *398:24 *1066:A 20 
5 *398:12 *398:33 36.9126 
6 *398:33 *398:39 43.5638 
7 *398:39 *1034:D 40 
8 *398:39 *398:52 23.3578 
9 *398:52 *970:D 22.1836 
10 *398:52 *1002:D 20.3502 
*END

*D_NET *399 0.0220123
*CONN
*I *901:A3 I *D sg13g2_mux4_1
*I *912:A0 I *D sg13g2_mux2_1
*I *1262:X O *D sg13g2_buf_1
*CAP
1 *901:A3 2.60565e-05
2 *912:A0 0.000891004
3 *1262:X 0
4 *399:34 0.00150109
5 *399:30 0.00154024
6 *399:24 0.00117399
7 *399:18 0.00348715
8 *399:12 0.00334088
9 *399:6 7.15202e-05
10 *901:A3 *893:A1 4.77425e-05
11 *901:A3 *547:170 4.77425e-05
12 *912:A0 *901:A1 4.77425e-05
13 *912:A0 *952:A0 0.000175693
14 *912:A0 *519:66 0.000240332
15 *912:A0 *547:170 9.17262e-05
16 *912:A0 *575:61 0.000466632
17 *912:A0 *575:83 0.000240377
18 *399:12 *607:18 0
19 *399:12 *614:10 0
20 *399:18 *406:32 0.00211958
21 *399:18 *437:54 0.000663305
22 *399:18 *535:18 0
23 *399:18 *555:64 0
24 *399:18 *591:32 0
25 *399:24 *400:38 0
26 *399:24 *530:34 0
27 *399:30 *403:41 0
28 *399:30 *535:18 0.00205434
29 *399:30 *555:64 0.00151913
30 *399:30 *558:91 0.000230189
31 *399:30 *591:38 0
32 *399:34 *467:14 0
33 *399:34 *473:8 0.000176239
34 *399:34 *536:26 0
35 *399:34 *575:61 0.000103073
36 *912:S *912:A0 0
37 *136:20 *912:A0 0.000386548
38 *136:20 *399:34 0.00117064
39 *154:28 *399:34 0.000125963
40 *166:14 *399:34 0
41 *253:24 *399:18 0
42 *313:12 *399:34 7.34121e-05
43 *388:16 *399:18 0
*RES
1 *1262:X *399:6 40 
2 *399:6 *399:12 40.5356 
3 *399:12 *399:18 34.3608 
4 *399:18 *399:24 41.6171 
5 *399:24 *399:30 33.2767 
6 *399:30 *399:34 26.5302 
7 *399:34 *912:A0 49.4039 
8 *399:34 *901:A3 40.3193 
*END

*D_NET *400 0.0191476
*CONN
*I *913:A0 I *D sg13g2_mux2_1
*I *900:A3 I *D sg13g2_mux4_1
*I *1263:X O *D sg13g2_buf_1
*CAP
1 *913:A0 0
2 *900:A3 0
3 *1263:X 0
4 *400:44 7.27495e-05
5 *400:38 0.00122984
6 *400:32 0.00136625
7 *400:28 0.00103722
8 *400:24 0.00301668
9 *400:18 0.00230742
10 *400:12 0.000348257
11 *400:6 0.000229448
12 *400:24 *410:50 0
13 *400:24 *534:14 0.00103788
14 *400:24 *591:32 0.00146562
15 *400:24 *600:20 0
16 *400:24 *615:20 0
17 *400:24 *615:22 0
18 *400:28 *405:98 0
19 *400:28 *405:106 0
20 *400:28 *565:48 0.00208761
21 *400:32 *576:75 1.54008e-05
22 *400:38 *470:16 0.000109244
23 *400:38 *530:34 0
24 *400:38 *567:68 0
25 *400:44 *554:58 0.000231766
26 *400:44 *616:36 0.00012816
27 NN4BEG[0] *400:28 7.51285e-05
28 NN4BEG[15] *400:28 0.0015085
29 NN4BEG[2] *400:32 0.00030506
30 NN4BEG[2] *400:38 4.63914e-05
31 *168:32 *400:28 0.000231238
32 *193:17 *400:24 0.000756443
33 *250:10 *400:44 0
34 *388:16 *400:12 0.000984699
35 *389:16 *400:12 0
36 *395:20 *400:12 0.000556632
37 *395:20 *400:24 0
38 *399:24 *400:38 0
*RES
1 *1263:X *400:6 40 
2 *400:6 *400:12 44.5526 
3 *400:12 *400:18 40.7519 
4 *400:18 *400:24 43.8754 
5 *400:24 *400:28 32.463 
6 *400:28 *400:32 22.0497 
7 *400:32 *400:38 47.8898 
8 *400:38 *400:44 41.0918 
9 *400:44 *900:A3 20 
10 *400:32 *913:A0 20 
*END

*D_NET *401 0.00912398
*CONN
*I *914:A0 I *D sg13g2_mux2_1
*I *899:A3 I *D sg13g2_mux4_1
*I *1264:X O *D sg13g2_buf_1
*CAP
1 *914:A0 0
2 *899:A3 0.000690445
3 *1264:X 0.000200915
4 *401:26 0.000944632
5 *401:22 0.00148262
6 *401:14 0.00142935
7 *899:A3 *402:16 0.000710742
8 *899:A3 *584:26 0
9 *899:A3 *589:20 0.000194104
10 *899:A3 *609:26 0
11 *899:A3 *609:43 0
12 *899:A3 *617:38 0.000706293
13 *401:14 *419:58 0
14 *401:14 *429:30 0
15 *401:14 *608:14 7.93692e-05
16 *401:14 *620:14 7.92265e-05
17 *401:22 *1309:A 0.000112453
18 *401:22 *419:58 0.000629102
19 *401:22 *422:40 0.000111828
20 *401:22 *620:14 0.000756595
21 *401:26 *402:16 0
22 *401:26 *411:68 0.000708833
23 *1099:A *401:22 0.000143908
24 *97:14 *401:22 1.54008e-05
25 *239:21 *401:14 0.00012816
26 *252:50 *899:A3 0
27 *393:10 *401:22 0
28 *394:18 *899:A3 0
*RES
1 *1264:X *401:14 42.266 
2 *401:14 *401:22 32.669 
3 *401:22 *401:26 23.3166 
4 *401:26 *899:A3 48.4048 
5 *401:26 *914:A0 40 
*END

*D_NET *402 0.0198822
*CONN
*I *915:A0 I *D sg13g2_mux2_1
*I *898:A3 I *D sg13g2_mux4_1
*I *1265:X O *D sg13g2_buf_1
*CAP
1 *915:A0 6.26995e-05
2 *898:A3 0.000706368
3 *1265:X 0.00185841
4 *402:38 0.00117967
5 *402:30 0.00204463
6 *402:16 0.00238374
7 *402:10 0.00260811
8 *898:A3 *1071:A 0
9 *898:A3 *581:73 0
10 *898:A3 *584:10 0.000872306
11 *898:A3 *620:40 0
12 *915:A0 *915:A1 1.54008e-05
13 *402:10 *412:14 0.000853186
14 *402:16 *411:68 0
15 *402:16 *430:10 0
16 *402:30 *891:A0 0.000209724
17 *402:30 *433:20 0.000285812
18 *402:30 *464:72 7.48209e-05
19 *402:30 *539:48 0
20 *402:30 *549:113 0
21 *402:30 *573:22 0.00012748
22 *402:30 *584:18 0.000605898
23 *402:30 *599:80 0
24 *402:38 *931:A1 0.00030506
25 *402:38 *584:10 0.000377724
26 I_top8 *898:A3 0.00124544
27 I_top8 *402:38 0.000397963
28 *891:S1 *402:30 0
29 *899:A3 *402:16 0.000710742
30 *954:S *402:30 0
31 *1257:A *402:10 8.00842e-05
32 *66:25 *402:30 0.000443055
33 *98:10 *402:10 0
34 *101:10 *402:10 0
35 *104:10 *402:10 0
36 *254:12 *402:30 0.000286948
37 *271:8 *402:30 0.000815058
38 *308:22 *402:30 0.000369181
39 *316:10 *402:30 0.000605458
40 *390:10 *402:10 0
41 *393:10 *402:10 0.000177184
42 *397:26 *402:30 0.000180071
43 *401:26 *402:16 0
*RES
1 *1265:X *402:10 36.1298 
2 *402:10 *402:16 47.7662 
3 *402:16 *402:30 39.4979 
4 *402:30 *402:38 45.1809 
5 *402:38 *898:A3 49.1979 
6 *402:38 *915:A0 40.7519 
*END

*D_NET *403 0.0218598
*CONN
*I *897:A3 I *D sg13g2_mux4_1
*I *916:A0 I *D sg13g2_mux2_1
*I *1168:X O *D sg13g2_buf_1
*CAP
1 *897:A3 0
2 *916:A0 0
3 *1168:X 6.01741e-05
4 *403:45 0
5 *403:41 0.00111158
6 *403:35 0.00121281
7 *403:29 0.00200312
8 *403:14 0.00337267
9 *403:8 0.00153096
10 *403:8 *616:20 7.93734e-05
11 *403:8 *617:22 0
12 *403:14 *940:A0 0.00014391
13 *403:14 *417:16 0.000493631
14 *403:14 *483:32 0.000180006
15 *403:14 *509:59 0
16 *403:14 *509:70 0
17 *403:14 *530:10 0.000499312
18 *403:14 *567:80 0
19 *403:14 *580:73 0
20 *403:14 *590:16 0.000965963
21 *403:14 *616:22 0
22 *403:14 *619:12 0
23 *403:14 *619:14 0
24 *403:29 *940:A0 0.000192634
25 *403:29 *420:38 0
26 *403:29 *463:20 0.00144035
27 *403:29 *467:22 0
28 *403:29 *467:30 0
29 *403:29 *520:59 0.000705526
30 *403:29 *546:112 0.00102995
31 *403:29 *587:24 0
32 *403:29 *612:20 0.00101872
33 *403:35 *406:28 7.78179e-05
34 *403:41 *470:40 0.000332045
35 *403:41 *530:40 0
36 *403:41 *555:64 0.000823942
37 *403:41 *558:91 0.000236076
38 *77:15 *403:14 0.0011857
39 *159:18 *403:29 0
40 *170:20 *403:41 0.00157254
41 *207:13 *403:14 7.48209e-05
42 *237:9 *403:14 0
43 *241:35 *403:14 0
44 *253:30 *403:29 0
45 *283:20 *403:29 0.00144286
46 *306:8 *403:14 0
47 *320:10 *403:14 0
48 *343:8 *403:29 7.33256e-05
49 *399:30 *403:41 0
*RES
1 *1168:X *403:8 40.5356 
2 *403:8 *403:14 37.1392 
3 *403:14 *916:A0 20 
4 *403:14 *403:29 43.6797 
5 *403:29 *403:35 40.7519 
6 *403:35 *403:41 32.7514 
7 *403:41 *403:45 40 
8 *403:45 *897:A3 20 
*END

*D_NET *404 0.0100205
*CONN
*I *1266:A I *D sg13g2_buf_1
*I *1047:X O *D sg13g2_buf_1
*CAP
1 *1266:A 0
2 *1047:X 8.51924e-05
3 *404:14 0.00182677
4 *404:8 0.00191196
5 *404:8 *1325:A 0.000143351
6 *404:14 *428:102 0.00210048
7 *404:14 *432:68 0
8 *404:14 *435:24 0
9 *404:14 *477:18 0.000181695
10 FrameData_O[4] *404:14 7.52149e-05
11 *1098:A *404:14 0
12 *1119:A *404:8 0.000143351
13 *71:13 *404:14 0.00103434
14 *73:9 *404:14 0
15 *75:17 *404:14 0.000608855
16 *84:11 *404:14 0.00119571
17 *390:18 *404:14 0.000713531
*RES
1 *1047:X *404:8 40.9682 
2 *404:8 *404:14 46.1002 
3 *404:14 *1266:A 20 
*END

*D_NET *405 0.05015
*CONN
*I *1267:A I *D sg13g2_buf_1
*I *1057:X O *D sg13g2_buf_1
*CAP
1 *1267:A 0
2 *1057:X 0.000193152
3 *405:126 0
4 *405:122 0.00425086
5 *405:120 0.00425086
6 *405:118 0.00120074
7 *405:110 0.00253765
8 *405:106 0.00277041
9 *405:98 0.00223736
10 *405:82 0.00178708
11 *405:68 0.00174685
12 *405:56 0.00125693
13 *405:46 0.00135558
14 *405:36 0.0012278
15 *405:30 0.000564744
16 *405:22 0.00119726
17 *405:14 0.00184393
18 *405:8 0.00103904
19 *405:14 *420:12 0
20 *405:14 *464:12 0.00147976
21 *405:14 *488:78 0
22 *405:14 *543:14 0
23 *405:14 *588:18 0
24 *405:22 *419:18 0.00158612
25 *405:22 *442:22 0
26 *405:22 *509:20 0
27 *405:22 *538:16 0
28 *405:22 *543:20 0
29 *405:22 *561:14 0
30 *405:22 *599:30 0.000721843
31 *405:30 *409:24 4.77425e-05
32 *405:30 *424:26 0.00028128
33 *405:30 *562:22 0.000229485
34 *405:36 *924:A0 0.000970509
35 *405:36 *409:24 0.000917374
36 *405:36 *559:69 0.000439229
37 *405:36 *611:50 0.00052163
38 *405:46 *956:A1 0
39 *405:46 *408:34 0
40 *405:46 *541:36 0.000543204
41 *405:46 *569:52 0.000107163
42 *405:46 *569:70 4.76977e-05
43 *405:56 *943:A0 0.00014391
44 *405:56 *415:32 4.76973e-05
45 *405:56 *570:24 0.00138632
46 *405:56 *582:16 0.00138298
47 *405:68 *415:32 7.99942e-05
48 *405:68 *552:51 0
49 *405:68 *555:41 0
50 *405:68 *555:52 0
51 *405:68 *557:38 0
52 *405:82 *406:28 0
53 *405:82 *546:98 0
54 *405:82 *600:26 0
55 *405:98 *565:48 0.000658971
56 *405:98 *567:68 0
57 *405:98 *600:26 0
58 *405:106 *565:48 0
59 *405:110 *423:40 0.000142578
60 *405:110 *437:54 0
61 *405:110 *437:60 0
62 *405:110 *492:16 0
63 *405:110 *514:16 0
64 *405:110 *532:12 0.000209967
65 *405:110 *541:79 0
66 *405:110 *619:20 0
67 *405:118 *424:56 0
68 *405:118 *437:60 4.79507e-05
69 *405:118 *437:64 7.47964e-05
70 *405:118 *468:16 0
71 *405:118 *476:18 0
72 *405:118 *483:20 0
73 *405:118 *488:24 0
74 *405:118 *611:18 0.000603478
75 *405:122 *407:48 0
76 *405:122 *429:16 0.00119848
77 *405:122 *438:12 0
78 *405:122 *614:14 0
79 NN4BEG[12] *405:98 4.77079e-05
80 NN4BEG[13] *405:98 0.000177109
81 *927:S *405:68 0
82 *1171:A *405:8 0
83 *22:19 *405:8 0.000444238
84 *121:20 *405:68 0
85 *143:24 *405:82 0
86 *145:22 *405:82 0
87 *159:18 *405:68 0.000599698
88 *160:36 *405:68 0.000493547
89 *163:8 *405:68 0.000143148
90 *168:32 *405:98 0.000203173
91 *173:22 *405:68 0.000111568
92 *190:9 *405:82 0.000815452
93 *192:11 *405:98 0.000285094
94 *196:9 *405:106 0
95 *199:9 *405:106 0.000977219
96 *202:13 *405:82 0.000816103
97 *218:9 *405:106 0.000446571
98 *253:36 *405:110 0
99 *326:10 *405:46 0
100 *376:8 *405:46 0.000272718
101 *376:14 *405:36 0
102 *391:20 *405:110 0
103 *392:16 *405:118 0
104 *397:18 *405:122 0
105 *398:39 *405:46 0.000758614
106 *398:52 *405:46 0.00022762
107 *400:28 *405:98 0
108 *400:28 *405:106 0
*RES
1 *1057:X *405:8 42.0806 
2 *405:8 *405:14 49.8365 
3 *405:14 *405:22 33.3797 
4 *405:22 *405:30 42.3072 
5 *405:30 *405:36 47.0246 
6 *405:36 *405:46 49.3318 
7 *405:46 *405:56 48.2812 
8 *405:56 *405:68 47.4608 
9 *405:68 *405:82 47.8979 
10 *405:82 *405:98 48.4095 
11 *405:98 *405:106 35.6045 
12 *405:106 *405:110 31.3506 
13 *405:110 *405:118 49.8468 
14 *405:118 *405:120 20 
15 *405:120 *405:122 40.891 
16 *405:122 *405:126 40 
17 *405:126 *1267:A 40 
*END

*D_NET *406 0.0366541
*CONN
*I *1268:A I *D sg13g2_buf_1
*I *1058:X O *D sg13g2_buf_1
*CAP
1 *1268:A 0
2 *1058:X 0.000168132
3 *406:64 0.000496149
4 *406:58 0.00410014
5 *406:50 0.00453408
6 *406:44 0.00172145
7 *406:32 0.00192935
8 *406:28 0.00301243
9 *406:18 0.00215094
10 *406:12 0.000444624
11 *406:12 *1359:A 1.54008e-05
12 *406:12 *544:26 8.00842e-05
13 *406:12 *544:43 1.54008e-05
14 *406:12 *575:30 0.00039294
15 *406:18 *1009:D 0
16 *406:18 *1025:D 4.77425e-05
17 *406:18 *504:12 0.000144427
18 *406:28 *497:58 0.00241095
19 *406:28 *530:34 0
20 *406:28 *557:24 0.000435582
21 *406:28 *557:30 0
22 *406:32 *591:32 0
23 *406:44 *499:8 0
24 *406:44 *509:59 7.33225e-05
25 *406:44 *520:75 0.000282474
26 *406:44 *520:85 0
27 *406:44 *596:14 0
28 *406:50 *428:64 0
29 *406:50 *467:38 0
30 *406:50 *499:14 0
31 *406:50 *519:24 0
32 *406:58 *407:48 0
33 *406:58 *410:62 0
34 *406:58 *413:58 0
35 *406:58 *414:26 0.000129248
36 *406:58 *416:24 0
37 *406:58 *428:72 0
38 *406:58 *483:26 0
39 *406:58 *492:16 0.00339092
40 *406:64 *407:48 0.00190287
41 *406:64 *410:62 0
42 *1105:A *406:12 0.000393027
43 *24:67 *406:58 0
44 *136:20 *406:28 0
45 *143:24 *406:28 0
46 *145:22 *406:32 0.000289357
47 *151:24 *406:28 0
48 *154:28 *406:28 0.00101604
49 *159:18 *406:28 0
50 *162:46 *406:44 0
51 *173:14 *406:28 0
52 *208:9 *406:44 0.000754676
53 *253:24 *406:32 0
54 *253:30 *406:44 0
55 *283:20 *406:28 0.000283265
56 *297:8 *406:28 0.000748981
57 *311:12 *406:28 0.00096474
58 *375:24 *406:28 0.00189643
59 *387:30 *406:28 0.000231497
60 *399:18 *406:32 0.00211958
61 *403:35 *406:28 7.78179e-05
62 *405:82 *406:28 0
*RES
1 *1058:X *406:12 42.7192 
2 *406:12 *406:18 42.4823 
3 *406:18 *406:28 45.353 
4 *406:28 *406:32 32.7102 
5 *406:32 *406:44 48.3224 
6 *406:44 *406:50 47.0246 
7 *406:50 *406:58 42.2815 
8 *406:58 *406:64 48.8168 
9 *406:64 *1268:A 40 
*END

*D_NET *407 0.0315911
*CONN
*I *1269:A I *D sg13g2_buf_1
*I *1059:X O *D sg13g2_buf_1
*CAP
1 *1269:A 0
2 *1059:X 0
3 *407:52 0
4 *407:48 0.00415772
5 *407:42 0.00443706
6 *407:38 0.000825298
7 *407:32 0.00100426
8 *407:24 0.000795259
9 *407:16 0.00170483
10 *407:12 0.00242508
11 *407:6 0.00105721
12 *407:12 *464:22 0
13 *407:12 *470:40 0
14 *407:12 *509:20 7.78179e-05
15 *407:12 *515:26 0
16 *407:12 *551:48 7.81195e-05
17 *407:12 *577:75 0
18 *407:16 *419:36 0
19 *407:16 *539:30 0.00344413
20 *407:16 *578:22 0
21 *407:16 *579:18 0.00333545
22 *407:24 *539:40 0.000606035
23 *407:24 *596:14 0
24 *407:32 *560:85 0.000918591
25 *407:32 *618:44 0.000919537
26 *407:38 *418:60 0
27 *407:38 *538:49 0.000229431
28 *407:38 *538:72 0.000966118
29 *407:38 *603:36 0.000437575
30 *407:42 *419:36 0
31 *407:42 *424:52 0.000299486
32 *407:48 *410:62 0
33 *407:48 *413:58 0
34 *407:48 *416:24 0.000235948
35 *407:48 *419:40 0
36 *407:48 *432:50 0
37 *407:48 *515:20 0
38 *24:77 *407:38 0.00101429
39 *66:37 *407:24 0.000607177
40 *266:16 *407:12 0
41 *386:38 *407:24 0.00011187
42 *397:18 *407:48 0
43 *405:122 *407:48 0
44 *406:58 *407:48 0
45 *406:64 *407:48 0.00190287
*RES
1 *1059:X *407:6 40 
2 *407:6 *407:12 46.9996 
3 *407:12 *407:16 41.3622 
4 *407:16 *407:24 44.6556 
5 *407:24 *407:32 46.3551 
6 *407:32 *407:38 47.7662 
7 *407:38 *407:42 22.266 
8 *407:42 *407:48 44.5269 
9 *407:48 *407:52 40 
10 *407:52 *1269:A 40 
*END

*D_NET *408 0.0382349
*CONN
*I *1270:A I *D sg13g2_buf_1
*I *1060:X O *D sg13g2_buf_1
*CAP
1 *1270:A 0
2 *1060:X 8.22128e-05
3 *408:62 0.00261228
4 *408:58 0.00438234
5 *408:52 0.0018592
6 *408:46 0.00101356
7 *408:42 0.00130107
8 *408:34 0.00150041
9 *408:28 0.00167329
10 *408:22 0.00100214
11 *408:14 0.00118306
12 *408:8 0.000812664
13 *408:14 *488:70 0
14 *408:14 *515:36 0.000984349
15 *408:14 *526:22 0.000717045
16 *408:22 *522:20 4.67404e-05
17 *408:22 *586:28 0.0013753
18 *408:28 *515:26 0.000713063
19 *408:28 *530:48 7.78179e-05
20 *408:28 *541:32 0
21 *408:28 *619:28 7.93742e-05
22 *408:34 *413:34 0.000109244
23 *408:34 *535:26 0.000179045
24 *408:34 *536:16 0.000124859
25 *408:34 *541:36 0
26 *408:34 *552:63 0.00140452
27 *408:34 *559:47 0.00143466
28 *408:34 *574:54 0
29 *408:42 *510:14 0
30 *408:42 *541:46 0.000129136
31 *408:42 *590:51 0.000877249
32 *408:42 *599:46 0.00119753
33 *408:46 *937:A1 0.000548651
34 *408:46 *553:63 0.000389403
35 *408:46 *570:35 0
36 *408:46 *570:46 0
37 *408:46 *597:14 0.00266693
38 *408:52 *410:56 0
39 *408:52 *413:52 0.000111761
40 *408:58 *413:58 0.000143918
41 *408:58 *418:72 0.00392509
42 *408:58 *479:18 0
43 *408:58 *541:52 0.000824097
44 *408:58 *607:22 0
45 *408:62 *412:26 0
46 *408:62 *421:14 0
47 *408:62 *422:40 0
48 *408:62 *425:68 0
49 *408:62 *426:18 0
50 *130:40 *408:22 0
51 *132:10 *408:8 0.000143642
52 *133:22 *408:14 0
53 *136:12 *408:8 0.000143631
54 *157:18 *408:14 0
55 *162:20 *408:34 0.000491675
56 *162:28 *408:34 0
57 *166:14 *408:22 0.00153256
58 *209:13 *408:46 0
59 *325:8 *408:46 2.14736e-05
60 *336:8 *408:22 0
61 *343:12 *408:42 0.000140714
62 *392:16 *408:46 0
63 *398:39 *408:34 7.30101e-05
64 *398:52 *408:34 0.000206146
65 *405:46 *408:34 0
*RES
1 *1060:X *408:8 40.9682 
2 *408:8 *408:14 48.2606 
3 *408:14 *408:22 47.5911 
4 *408:22 *408:28 44.8616 
5 *408:28 *408:34 33.9565 
6 *408:34 *408:42 46.5096 
7 *408:42 *408:46 32.463 
8 *408:46 *408:52 40.7519 
9 *408:52 *408:58 43.8136 
10 *408:58 *408:62 45.0702 
11 *408:62 *1270:A 40 
*END

*D_NET *409 0.0206766
*CONN
*I *1048:A I *D sg13g2_buf_1
*I *984:D I *D sg13g2_dlhq_1
*I *1016:D I *D sg13g2_dlhq_1
*I *1170:X O *D sg13g2_buf_1
*CAP
1 *1048:A 0.000205616
2 *984:D 0
3 *1016:D 0
4 *1170:X 0.000900536
5 *409:59 0.000466464
6 *409:44 0.000424945
7 *409:38 0.00198994
8 *409:34 0.00145896
9 *409:24 0.00110227
10 *409:16 0.00143676
11 *1048:A *424:26 0.000240377
12 *1048:A *472:34 0.000272718
13 *409:16 *439:8 4.81895e-05
14 *409:16 *439:14 0
15 *409:16 *518:18 0.000649671
16 *409:16 *531:71 0.00030074
17 *409:16 *550:43 0.000439037
18 *409:16 *556:36 0.000125867
19 *409:16 *572:30 0
20 *409:24 *1009:GATE 0.000192634
21 *409:24 *551:71 0.000240377
22 *409:34 *419:18 0.000876714
23 *409:34 *476:64 0.000109244
24 *409:34 *561:14 0
25 *409:34 *599:30 0.0010858
26 *409:38 *509:28 0
27 *409:38 *542:22 0.0023791
28 *409:38 *561:14 0
29 *409:44 *484:14 0
30 *409:44 *499:32 0
31 *409:44 *590:51 0
32 *409:59 *416:20 0.000497856
33 *409:59 *561:46 0.000496705
34 *409:59 *590:51 0
35 *118:24 *409:38 0.00280723
36 *119:22 *409:38 0
37 *339:12 *409:59 4.77425e-05
38 *376:14 *409:24 0.000916006
39 *397:52 *409:44 0
40 *397:52 *409:59 0
41 *405:30 *409:24 4.77425e-05
42 *405:36 *409:24 0.000917374
*RES
1 *1170:X *409:16 49.2906 
2 *409:16 *409:24 47.6529 
3 *409:24 *409:34 46.3139 
4 *409:34 *409:38 36.9332 
5 *409:38 *409:44 43.1312 
6 *409:44 *1016:D 20 
7 *409:38 *409:59 45.1294 
8 *409:59 *984:D 20 
9 *409:24 *1048:A 42.0812 
*END

*D_NET *410 0.0476846
*CONN
*I *1271:A I *D sg13g2_buf_1
*I *1061:X O *D sg13g2_buf_1
*CAP
1 *1271:A 0
2 *1061:X 0
3 *410:66 0
4 *410:62 0.00392511
5 *410:56 0.00471552
6 *410:50 0.00164921
7 *410:42 0.00299243
8 *410:32 0.00254688
9 *410:26 0.00267264
10 *410:20 0.00280431
11 *410:12 0.000997317
12 *410:6 0.000452412
13 *410:12 *498:26 0
14 *410:12 *542:12 0
15 *410:12 *580:14 0
16 *410:20 *425:22 1.53276e-05
17 *410:20 *539:20 0.00179788
18 *410:20 *579:18 0
19 *410:26 *418:40 0.000203822
20 *410:26 *470:40 0
21 *410:26 *480:18 0.00023495
22 *410:26 *516:28 7.90769e-05
23 *410:26 *526:10 7.33256e-05
24 *410:26 *547:43 0.000330489
25 *410:26 *547:112 0.000299486
26 *410:26 *558:91 1.4965e-05
27 *410:26 *563:26 0
28 *410:26 *568:12 0
29 *410:26 *588:101 0.000140671
30 *410:26 *610:30 0.00171014
31 *410:32 *442:41 0
32 *410:32 *502:30 0.00157285
33 *410:32 *519:28 0.00130503
34 *410:42 *428:60 0
35 *410:42 *500:20 0.00219735
36 *410:42 *513:46 0.000173141
37 *410:42 *530:28 0
38 *410:42 *594:26 0.00093214
39 *410:50 *428:64 0
40 *410:50 *467:38 0.000113019
41 *410:50 *509:59 0
42 *410:50 *580:54 7.31655e-05
43 *410:50 *600:20 0
44 *410:56 *479:18 0
45 *410:56 *530:20 0
46 *410:56 *533:16 0
47 *410:56 *534:10 0
48 *410:56 *611:18 0.000462226
49 *410:62 *415:46 0.00285087
50 *410:62 *418:72 0
51 *410:62 *428:72 0.000610041
52 *410:62 *483:26 0
53 *410:62 *541:52 0
54 *13:19 *410:12 0.000243966
55 *114:16 *410:20 0.00109963
56 *114:26 *410:26 0
57 *118:14 *410:20 4.63914e-05
58 *143:24 *410:42 0
59 *166:20 *410:42 0.00147217
60 *172:14 *410:42 0.00216642
61 *178:13 *410:26 0.00181066
62 *184:17 *410:12 0.000142231
63 *187:13 *410:26 0.000232837
64 *193:17 *410:50 0
65 *253:30 *410:50 0.000491412
66 *327:10 *410:26 0.000502556
67 *337:28 *410:26 0
68 *349:12 *410:26 0
69 *395:24 *410:42 0.00153053
70 *400:24 *410:50 0
71 *406:58 *410:62 0
72 *406:64 *410:62 0
73 *407:48 *410:62 0
74 *408:52 *410:56 0
*RES
1 *1061:X *410:6 40 
2 *410:6 *410:12 44.2127 
3 *410:12 *410:20 49.2288 
4 *410:20 *410:26 43.7827 
5 *410:26 *410:32 47.7662 
6 *410:32 *410:42 48.8365 
7 *410:42 *410:50 47.622 
8 *410:50 *410:56 45.9431 
9 *410:56 *410:62 48.7293 
10 *410:62 *410:66 40 
11 *410:66 *1271:A 40 
*END

*D_NET *411 0.0362078
*CONN
*I *1272:A I *D sg13g2_buf_1
*I *1062:X O *D sg13g2_buf_1
*CAP
1 *1272:A 0
2 *1062:X 0.000598012
3 *411:78 0.00109181
4 *411:74 0.00163891
5 *411:68 0.00237746
6 *411:62 0.0053207
7 *411:58 0.00356317
8 *411:52 0.000847401
9 *411:40 0.00185534
10 *411:36 0.00207243
11 *411:30 0.00107054
12 *411:24 0.000400497
13 *411:16 0.00101788
14 *411:8 0.00129426
15 *411:8 *432:12 0
16 *411:8 *432:20 0
17 *411:8 *522:8 0.000442449
18 *411:8 *562:14 0.00128069
19 *411:8 *574:12 0
20 *411:16 *551:56 0.000175869
21 *411:16 *551:71 0.000240935
22 *411:16 *568:12 0
23 *411:24 *498:32 0.000608855
24 *411:24 *498:51 0.000105736
25 *411:36 *545:20 0.00130275
26 *411:36 *571:18 0
27 *411:52 *898:A0 0
28 *411:52 *585:35 0.00033941
29 *411:52 *590:45 0
30 *411:52 *620:44 0.00020852
31 *411:62 *425:56 0
32 *411:62 *439:34 0
33 *411:62 *513:22 0
34 *411:62 *517:30 0
35 *411:62 *519:12 0
36 *411:68 *422:34 0
37 *411:68 *430:10 0
38 *411:68 *436:16 0
39 *411:68 *440:8 0.00108523
40 *411:68 *502:12 0
41 *411:68 *537:12 0
42 *411:74 *444:6 0
43 *411:74 *456:6 0.000853991
44 *411:78 *412:26 0
45 *411:78 *413:62 0.000926961
46 *411:78 *414:68 0
47 I_top3 *411:40 0
48 I_top6 *411:52 0.000305545
49 *66:45 *411:52 0.000112426
50 *68:17 *411:68 0
51 *116:22 *411:40 0.00188748
52 *117:8 *411:16 0.000450306
53 *117:8 *411:40 0
54 *119:22 *411:58 0
55 *177:9 *411:24 0.000715092
56 *263:8 *411:52 0
57 *345:14 *411:8 0.00033706
58 *349:16 *411:36 0
59 *377:14 *411:16 0.000453045
60 *377:14 *411:40 0
61 *386:38 *411:62 0.000518179
62 *386:44 *411:62 0
63 *390:44 *411:40 0
64 *394:30 *411:40 0
65 *401:26 *411:68 0.000708833
66 *402:16 *411:68 0
*RES
1 *1062:X *411:8 47.7662 
2 *411:8 *411:16 47.3748 
3 *411:16 *411:24 44.9337 
4 *411:24 *411:30 40.5356 
5 *411:30 *411:36 32.6587 
6 *411:36 *411:40 32.9574 
7 *411:40 *411:52 47.5499 
8 *411:52 *411:58 40.5356 
9 *411:58 *411:62 48.7782 
10 *411:62 *411:68 39.3331 
11 *411:68 *411:74 45.7268 
12 *411:74 *411:78 31.9686 
13 *411:78 *1272:A 20 
*END

*D_NET *412 0.0146831
*CONN
*I *1273:A I *D sg13g2_buf_1
*I *1063:X O *D sg13g2_buf_1
*CAP
1 *1273:A 5.4124e-05
2 *1063:X 0.000289882
3 *412:26 0.00143838
4 *412:22 0.00209523
5 *412:14 0.00186993
6 *412:10 0.00144884
7 *412:10 *416:48 0
8 *412:10 *432:68 0.000341949
9 *412:10 *477:18 0
10 *412:14 *439:62 0
11 *412:22 *422:40 0
12 *412:22 *426:18 0.000287155
13 *412:22 *446:22 7.98582e-05
14 *412:26 *413:62 0.00241948
15 *412:26 *414:68 0
16 *412:26 *426:18 0.00219316
17 FrameData_O[15] *412:26 0
18 *1135:A *412:14 0
19 *120:8 *412:10 0.00034162
20 *354:10 *412:10 0.00034245
21 *390:10 *412:14 0
22 *393:10 *412:14 0.000627903
23 *402:10 *412:14 0.000853186
24 *408:62 *412:26 0
25 *411:78 *412:26 0
*RES
1 *1063:X *412:10 44.1303 
2 *412:10 *412:14 31.3506 
3 *412:14 *412:22 45.8298 
4 *412:22 *412:26 39.879 
5 *412:26 *1273:A 40.5356 
*END

*D_NET *413 0.0390243
*CONN
*I *1274:A I *D sg13g2_buf_1
*I *1064:X O *D sg13g2_buf_1
*CAP
1 *1274:A 0
2 *1064:X 0.000373443
3 *413:70 0.00111745
4 *413:62 0.00225965
5 *413:58 0.00351056
6 *413:52 0.00271972
7 *413:46 0.000933659
8 *413:42 0.000759229
9 *413:34 0.000968867
10 *413:26 0.00203547
11 *413:16 0.00161699
12 *413:16 *1029:D 8.00842e-05
13 *413:16 *423:24 0.000111042
14 *413:16 *461:26 6.65632e-05
15 *413:16 *478:10 0
16 *413:16 *499:48 0.000290429
17 *413:16 *588:85 0.000124859
18 *413:26 *424:32 0
19 *413:26 *499:48 0.000439397
20 *413:26 *502:22 0
21 *413:26 *509:36 0.000755144
22 *413:26 *563:42 0
23 *413:26 *576:34 0
24 *413:26 *599:40 0.000172396
25 *413:26 *599:46 0
26 *413:34 *416:20 0.00106879
27 *413:34 *527:18 0
28 *413:34 *551:25 0
29 *413:34 *561:46 0.000917216
30 *413:42 *510:20 7.81669e-05
31 *413:42 *607:22 0.000720612
32 *413:46 *586:24 0.00314029
33 *413:46 *607:22 0.00319197
34 *413:52 *519:24 0
35 *413:52 *590:22 0.000365991
36 *413:58 *416:24 0.00130501
37 *413:58 *418:72 0.000212253
38 *413:58 *425:62 0.000146592
39 *413:58 *479:12 0
40 *413:58 *492:16 0.00339263
41 *413:62 *414:68 0
42 *413:62 *426:18 0.00113462
43 *413:62 *437:64 0
44 *413:70 *414:68 0
45 *413:70 *417:16 0
46 *413:70 *425:68 0
47 *413:70 *455:6 0
48 *24:67 *413:52 0.000270151
49 *158:42 *413:42 7.81669e-05
50 *252:24 *413:42 0.000720612
51 *285:18 *413:26 0
52 *361:14 *413:26 0.00023495
53 *406:58 *413:58 0
54 *407:48 *413:58 0
55 *408:34 *413:34 0.000109244
56 *408:52 *413:52 0.000111761
57 *408:58 *413:58 0.000143918
58 *411:78 *413:62 0.000926961
59 *412:26 *413:62 0.00241948
*RES
1 *1064:X *413:16 43.7263 
2 *413:16 *413:26 30.9489 
3 *413:26 *413:34 48.6108 
4 *413:34 *413:42 43.8522 
5 *413:42 *413:46 34.6878 
6 *413:46 *413:52 43.3475 
7 *413:52 *413:58 46.4092 
8 *413:58 *413:62 37.6542 
9 *413:62 *413:70 49.8159 
10 *413:70 *1274:A 40 
*END

*D_NET *414 0.0424008
*CONN
*I *1275:A I *D sg13g2_buf_1
*I *1065:X O *D sg13g2_buf_1
*CAP
1 *1275:A 0
2 *1065:X 0
3 *414:68 0.00280684
4 *414:52 0.00378854
5 *414:44 0.00170974
6 *414:38 0.00157628
7 *414:34 0.00179175
8 *414:26 0.00266771
9 *414:20 0.00196119
10 *414:14 0.00261324
11 *414:12 0.00275076
12 *414:6 0.000374523
13 *414:12 *442:14 0
14 *414:12 *493:32 0.000434843
15 *414:12 *501:30 0.00040384
16 *414:12 *580:14 0.000145556
17 *414:14 *418:48 0.000289614
18 *414:14 *420:18 0.00399022
19 *414:14 *480:24 0.000129113
20 *414:14 *493:24 0
21 *414:14 *548:35 0
22 *414:14 *580:20 0
23 *414:14 *590:51 0.000823734
24 *414:14 *599:46 0.00066345
25 *414:20 *501:18 0.000299605
26 *414:26 *416:24 0
27 *414:26 *432:46 0
28 *414:26 *480:18 0.00130392
29 *414:26 *499:22 0
30 *414:26 *513:30 0
31 *414:26 *513:46 0.002596
32 *414:26 *519:24 0
33 *414:26 *527:12 0
34 *414:34 *418:60 0.000126354
35 *414:34 *428:72 0.000332048
36 *414:34 *434:16 0
37 *414:34 *534:10 0
38 *414:34 *538:72 0
39 *414:34 *543:52 0.000441285
40 *414:34 *545:71 0.00101429
41 *414:38 *419:36 0.00055671
42 *414:38 *422:28 0.00290734
43 *414:38 *513:22 0
44 *414:38 *519:12 0
45 *414:44 *422:28 0.00068682
46 *414:44 *513:18 0
47 *414:44 *614:10 0.000361915
48 *414:52 *421:14 0.000498745
49 *414:52 *439:62 0
50 *414:52 *517:14 0
51 *414:52 *617:22 0.000445795
52 *414:52 *620:14 0
53 *414:68 *417:16 0
54 *414:68 *419:48 0.000232111
55 *414:68 *437:64 0
56 FrameData_O[18] *414:68 0
57 *42:10 *414:68 0
58 *252:18 *414:14 0.000525521
59 *252:24 *414:14 0
60 *253:18 *414:20 0
61 *290:16 *414:14 0.000182539
62 *338:8 *414:52 0
63 *343:32 *414:14 0.000663467
64 *368:10 *414:52 0
65 *392:10 *414:52 0.000176178
66 *397:58 *414:14 0
67 *406:58 *414:26 0.000129248
68 *411:78 *414:68 0
69 *412:26 *414:68 0
70 *413:62 *414:68 0
71 *413:70 *414:68 0
*RES
1 *1065:X *414:6 40 
2 *414:6 *414:12 43.9964 
3 *414:12 *414:14 31.003 
4 *414:14 *414:20 42.0497 
5 *414:20 *414:26 39.9511 
6 *414:26 *414:34 49.2288 
7 *414:34 *414:38 33.699 
8 *414:38 *414:44 46.592 
9 *414:44 *414:52 49.6614 
10 *414:52 *414:68 49.3035 
11 *414:68 *1275:A 20 
*END

*D_NET *415 0.0480205
*CONN
*I *1276:A I *D sg13g2_buf_1
*I *1066:X O *D sg13g2_buf_1
*CAP
1 *1276:A 0
2 *1066:X 0.000232669
3 *415:58 0.00249936
4 *415:52 0.0029699
5 *415:46 0.00168611
6 *415:40 0.00332129
7 *415:32 0.00237998
8 *415:26 0.00122426
9 *415:22 0.00194152
10 *415:14 0.00137518
11 *415:8 0.000616335
12 *415:8 *1017:D 0.000385448
13 *415:8 *490:12 0.000236292
14 *415:8 *531:44 0.000157535
15 *415:8 *559:75 0.000128578
16 *415:22 *424:10 0
17 *415:22 *507:14 0.000286275
18 *415:22 *547:170 0.000240377
19 *415:22 *570:24 0
20 *415:22 *572:30 0
21 *415:22 *582:26 0.00014391
22 *415:22 *582:43 4.77425e-05
23 *415:26 *475:39 0.00211288
24 *415:26 *475:50 0.000229431
25 *415:26 *505:58 0.000124702
26 *415:26 *558:95 0
27 *415:32 *1008:D 0
28 *415:40 *892:A2 0.000284398
29 *415:40 *474:8 0.000969136
30 *415:40 *479:24 0.000804051
31 *415:40 *533:10 0.000751278
32 *415:40 *554:35 0.000495081
33 *415:40 *554:58 0.000442663
34 *415:40 *608:30 0.000389711
35 *415:40 *616:22 0
36 *415:40 *616:36 0
37 *415:46 *418:72 0.00333792
38 *415:46 *467:46 0.000431337
39 *415:46 *483:32 0.000587982
40 *415:46 *541:52 0.000129113
41 *415:52 *419:48 0.000532099
42 *415:52 *607:18 0
43 *415:58 *417:16 0
44 *415:58 *418:80 0
45 *415:58 *425:74 0
46 *415:58 *429:30 0
47 *415:58 *429:36 0.00126242
48 *415:58 *455:10 0.00433073
49 FrameData_O[20] *415:58 0
50 FrameData_O[22] *415:58 0
51 *24:53 *415:40 0.00170609
52 *121:40 *415:40 0.0012909
53 *150:32 *415:26 0
54 *163:8 *415:32 0.000143115
55 *163:14 *415:26 0
56 *207:13 *415:40 0
57 *230:23 *415:58 7.30101e-05
58 *251:12 *415:40 0
59 *290:8 *415:22 0.00127417
60 *306:8 *415:40 0.000230615
61 *326:10 *415:22 0.000390282
62 *348:12 *415:26 0.000964178
63 *349:8 *415:26 0.000911942
64 *362:14 *415:22 0
65 *375:18 *415:40 0
66 *391:12 *415:52 0.000145718
67 *397:14 *415:52 0.000824226
68 *405:56 *415:32 4.76973e-05
69 *405:68 *415:32 7.99942e-05
70 *410:62 *415:46 0.00285087
*RES
1 *1066:X *415:8 43.0694 
2 *415:8 *415:14 43.1312 
3 *415:14 *415:22 31.2167 
4 *415:22 *415:26 33.4518 
5 *415:26 *415:32 42.4823 
6 *415:32 *415:40 46.4813 
7 *415:40 *415:46 40.4146 
8 *415:46 *415:52 45.5105 
9 *415:52 *415:58 49.5919 
10 *415:58 *1276:A 20 
*END

*D_NET *416 0.0366969
*CONN
*I *1277:A I *D sg13g2_buf_1
*I *1048:X O *D sg13g2_buf_1
*CAP
1 *1277:A 9.28515e-05
2 *1048:X 9.72516e-05
3 *416:48 0.0032869
4 *416:30 0.00420881
5 *416:24 0.00230176
6 *416:20 0.00320745
7 *416:14 0.00224369
8 *416:8 0.000420487
9 *416:8 *432:30 0.000282114
10 *416:14 *432:30 4.75151e-05
11 *416:20 *501:18 0.00209647
12 *416:20 *542:47 0
13 *416:20 *550:140 0.000339017
14 *416:20 *556:96 0
15 *416:20 *560:18 0
16 *416:20 *561:46 0
17 *416:20 *563:26 0
18 *416:24 *513:30 0
19 *416:24 *513:46 0.000456774
20 *416:24 *515:20 0
21 *416:24 *538:36 0.00110657
22 *416:30 *419:36 0.000713607
23 *416:30 *425:52 0
24 *416:30 *467:46 0
25 *416:30 *517:14 0
26 *416:48 *432:62 0.00141206
27 *416:48 *432:68 0
28 *416:48 *468:28 0.0010835
29 FrameData_O[2] *1277:A 0
30 FrameData_O[2] *416:48 0.000129089
31 I_top8 *416:48 0.00113771
32 *911:S *416:20 0.00148295
33 *24:83 *416:30 0
34 *66:13 *416:48 0.00060457
35 *66:55 *416:20 0
36 *74:11 *1277:A 0
37 *75:17 *1277:A 0.000144685
38 *79:9 *416:48 0
39 *80:9 *416:48 0
40 *81:9 *416:48 0
41 *82:9 *416:48 0.000782558
42 *83:15 *416:48 0.00115911
43 *120:8 *416:48 0.00119734
44 *278:8 *416:48 0.000501357
45 *302:8 *416:20 0.000442845
46 *319:12 *416:20 0
47 *327:18 *416:20 0
48 *341:14 *416:20 0.00206845
49 *345:14 *416:8 0.000333806
50 *376:8 *416:14 0.000208035
51 *406:58 *416:24 0
52 *407:48 *416:24 0.000235948
53 *409:59 *416:20 0.000497856
54 *412:10 *416:48 0
55 *413:34 *416:20 0.00106879
56 *413:58 *416:24 0.00130501
57 *414:26 *416:24 0
*RES
1 *1048:X *416:8 41.5862 
2 *416:8 *416:14 42.2637 
3 *416:14 *416:20 45.8221 
4 *416:20 *416:24 35.4294 
5 *416:24 *416:30 47.768 
6 *416:30 *416:48 42.2712 
7 *416:48 *1277:A 40.9682 
*END

*D_NET *417 0.00865584
*CONN
*I *1278:A I *D sg13g2_buf_1
*I *1067:X O *D sg13g2_buf_1
*CAP
1 *1278:A 0.000159957
2 *1067:X 0.000649135
3 *417:16 0.00324141
4 *417:14 0.00373058
5 *1278:A *450:10 0
6 *417:14 *513:14 0
7 *417:14 *605:16 4.77425e-05
8 *417:14 *613:8 1.54008e-05
9 *417:14 *615:12 4.75166e-05
10 *417:14 *618:8 0
11 *417:16 *419:48 0
12 *417:16 *455:10 0
13 *417:16 *608:26 0
14 *417:16 *616:22 0
15 FrameData_O[20] *1278:A 0
16 FrameData_O[21] *1278:A 0
17 *1139:A *417:14 4.77425e-05
18 *1248:A *417:14 0
19 *230:23 *417:16 0
20 *241:21 *417:14 0.000111567
21 *394:14 *417:14 0.000111157
22 *403:14 *417:16 0.000493631
23 *413:70 *417:16 0
24 *414:68 *417:16 0
25 *415:58 *417:16 0
*RES
1 *1067:X *417:14 45.9431 
2 *417:14 *417:16 31.7446 
3 *417:16 *1278:A 41.4008 
*END

*D_NET *418 0.0470255
*CONN
*I *1279:A I *D sg13g2_buf_1
*I *1068:X O *D sg13g2_buf_1
*CAP
1 *1279:A 7.81288e-05
2 *1068:X 0.000272554
3 *418:80 0.00283661
4 *418:72 0.00415649
5 *418:66 0.0018359
6 *418:60 0.0020354
7 *418:52 0.00261447
8 *418:48 0.00163814
9 *418:40 0.00135021
10 *418:28 0.00165459
11 *418:20 0.00156032
12 *418:12 0.000907332
13 *1279:A *419:74 0
14 *1279:A *450:10 0
15 *418:12 *489:8 0.000494545
16 *418:12 *530:92 0
17 *418:20 *510:40 0.00105797
18 *418:20 *527:32 0.000330838
19 *418:28 *476:56 0
20 *418:28 *476:64 0
21 *418:28 *522:20 0
22 *418:28 *566:45 7.78179e-05
23 *418:40 *475:39 0.00129277
24 *418:40 *570:24 0.000911546
25 *418:40 *595:34 0.00022762
26 *418:48 *548:35 0
27 *418:52 *509:28 0
28 *418:52 *515:20 0
29 *418:52 *517:42 0.00151929
30 *418:52 *599:30 7.58217e-05
31 *418:60 *927:A0 7.48178e-05
32 *418:60 *453:61 0
33 *418:60 *464:86 0.000331005
34 *418:60 *538:49 0
35 *418:60 *543:52 0.0028756
36 *418:60 *560:53 0.000652534
37 *418:60 *560:68 0.00113518
38 *418:60 *580:38 0
39 *418:60 *618:16 0.000124547
40 *418:66 *424:52 0.000616691
41 *418:66 *467:46 0
42 *418:66 *492:16 0.000300744
43 *418:72 *479:12 0.000244088
44 *418:72 *535:12 0
45 *418:80 *419:58 0
46 *418:80 *419:74 0
47 *418:80 *421:30 0
48 *418:80 *422:52 0
49 *418:80 *425:74 0.00152339
50 *418:80 *429:30 0
51 *418:80 *429:36 0
52 *418:80 *444:14 0
53 *418:80 *447:14 0.000661995
54 *418:80 *449:10 0
55 *418:80 *456:12 0
56 *418:80 *459:14 0
57 FrameData_O[21] *1279:A 0
58 FrameData_O[22] *1279:A 0
59 FrameData_O[22] *418:80 0.000128307
60 FrameData_O[23] *1279:A 0
61 FrameData_O[24] *418:80 0
62 *24:77 *418:60 0.000546119
63 *118:24 *418:52 0
64 *128:16 *418:12 0.000126178
65 *129:18 *418:20 0.000901522
66 *133:22 *418:28 0.00014102
67 *165:10 *418:12 0.000548519
68 *170:14 *418:20 0
69 *206:13 *418:60 0.000282463
70 *252:18 *418:48 0
71 *266:16 *418:40 2.6026e-05
72 *349:12 *418:48 0.000613676
73 *356:10 *418:20 2.21468e-05
74 *372:22 *418:12 4.77425e-05
75 *397:14 *418:72 0
76 *397:26 *418:66 7.78179e-05
77 *407:38 *418:60 0
78 *408:58 *418:72 0.00392509
79 *410:26 *418:40 0.000203822
80 *410:62 *418:72 0
81 *413:58 *418:72 0.000212253
82 *414:14 *418:48 0.000289614
83 *414:34 *418:60 0.000126354
84 *415:46 *418:72 0.00333792
85 *415:58 *418:80 0
*RES
1 *1068:X *418:12 43.9861 
2 *418:12 *418:20 47.5293 
3 *418:20 *418:28 46.8186 
4 *418:28 *418:40 49.0949 
5 *418:40 *418:48 45.5517 
6 *418:48 *418:52 31.4742 
7 *418:52 *418:60 41.5373 
8 *418:60 *418:66 44.2127 
9 *418:66 *418:72 44.308 
10 *418:72 *418:80 47.192 
11 *418:80 *1279:A 40.7519 
*END

*D_NET *419 0.0467788
*CONN
*I *1280:A I *D sg13g2_buf_1
*I *1069:X O *D sg13g2_buf_1
*CAP
1 *1280:A 0
2 *1069:X 0
3 *419:74 0.00144243
4 *419:58 0.00189473
5 *419:48 0.00154677
6 *419:40 0.00240699
7 *419:36 0.00393704
8 *419:30 0.00262453
9 *419:26 0.000965477
10 *419:18 0.00248572
11 *419:12 0.00174806
12 *419:6 0.000227821
13 *419:12 *442:22 0
14 *419:12 *509:14 0.000207641
15 *419:12 *580:14 0
16 *419:18 *464:22 0.000457876
17 *419:18 *484:24 0
18 *419:18 *561:14 0
19 *419:18 *599:30 0
20 *419:26 *923:A0 0.00012816
21 *419:26 *478:16 0.000705541
22 *419:26 *499:40 0.00039131
23 *419:26 *516:34 0.000700928
24 *419:26 *551:50 0.000338967
25 *419:26 *551:56 7.5081e-05
26 *419:26 *559:37 0.000656539
27 *419:26 *574:26 0.000392726
28 *419:26 *581:34 0.000550479
29 *419:26 *581:40 0.000181192
30 *419:26 *588:101 0.000124547
31 *419:36 *422:28 0
32 *419:36 *439:34 0.00207159
33 *419:36 *467:46 0
34 *419:36 *513:22 0
35 *419:36 *517:30 0
36 *419:36 *539:30 0.000558795
37 *419:36 *543:40 0
38 *419:36 *578:28 0
39 *419:40 *432:50 0.00168512
40 *419:48 *437:64 0
41 *419:48 *523:12 0
42 *419:48 *607:18 0
43 *419:48 *608:26 0.000176399
44 *419:48 *614:10 0
45 *419:58 *620:14 0.000630033
46 *419:74 *421:30 0.00282994
47 *419:74 *422:52 0.00214599
48 *419:74 *441:12 0
49 *419:74 *445:16 0.00145986
50 *419:74 *449:10 0.000875776
51 *419:74 *450:10 0
52 *419:74 *454:10 0.00151453
53 *419:74 *456:12 0
54 FrameData_O[23] *419:74 0
55 *1279:A *419:74 0
56 *24:15 *419:12 0
57 *102:8 *419:74 0
58 *115:20 *419:18 0.00032923
59 *119:10 *419:26 0
60 *253:10 *419:26 0
61 *337:8 *419:26 0.000961053
62 *373:18 *419:18 0.00222349
63 *397:14 *419:48 0
64 *397:18 *419:40 0
65 *397:26 *419:36 0
66 *397:32 *419:36 0
67 *401:14 *419:58 0
68 *401:22 *419:58 0.000629102
69 *405:22 *419:18 0.00158612
70 *407:16 *419:36 0
71 *407:42 *419:36 0
72 *407:48 *419:40 0
73 *409:34 *419:18 0.000876714
74 *414:38 *419:36 0.00055671
75 *414:68 *419:48 0.000232111
76 *415:52 *419:48 0.000532099
77 *416:30 *419:36 0.000713607
78 *417:16 *419:48 0
79 *418:80 *419:58 0
80 *418:80 *419:74 0
*RES
1 *1069:X *419:6 40 
2 *419:6 *419:12 42.0497 
3 *419:12 *419:18 40.2601 
4 *419:18 *419:26 35.3573 
5 *419:26 *419:30 40 
6 *419:30 *419:36 48.2014 
7 *419:36 *419:40 33.9462 
8 *419:40 *419:48 49.6614 
9 *419:48 *419:58 45.3457 
10 *419:58 *419:74 46.7697 
11 *419:74 *1280:A 20 
*END

*D_NET *420 0.0361428
*CONN
*I *1035:D I *D sg13g2_dlhq_1
*I *1003:D I *D sg13g2_dlhq_1
*I *971:D I *D sg13g2_dlhq_1
*I *1067:A I *D sg13g2_buf_1
*I *1171:X O *D sg13g2_buf_1
*CAP
1 *1035:D 0.000188937
2 *1003:D 0.000199981
3 *971:D 4.90447e-05
4 *1067:A 2.60565e-05
5 *1171:X 0
6 *420:64 0.000425854
7 *420:56 0.000628109
8 *420:50 0.000354566
9 *420:46 0.000485247
10 *420:38 0.00112704
11 *420:34 0.00191978
12 *420:28 0.00114178
13 *420:22 0.00165289
14 *420:18 0.00268367
15 *420:12 0.00164103
16 *420:6 0.000280335
17 *971:D *587:8 1.54008e-05
18 *1035:D *558:61 0
19 *1067:A *612:14 4.77425e-05
20 *420:12 *567:18 0.000508564
21 *420:12 *588:18 0
22 *420:18 *519:52 0
23 *420:18 *541:32 0.000394599
24 *420:18 *548:35 0
25 *420:18 *555:12 0
26 *420:22 *442:41 0
27 *420:22 *493:16 0
28 *420:22 *502:30 0.00168284
29 *420:22 *515:36 0
30 *420:22 *519:28 0
31 *420:22 *523:18 0
32 *420:22 *530:48 0
33 *420:34 *520:69 0
34 *420:34 *520:75 0.000870415
35 *420:34 *554:35 0.00161269
36 *420:34 *576:34 2.14736e-05
37 *420:34 *576:45 0.000758273
38 *420:34 *576:60 0.000181192
39 *420:38 *467:30 0.000390127
40 *420:38 *591:24 0.000657367
41 *420:38 *612:20 0
42 *420:46 *471:18 0
43 *420:50 *463:20 0.000393407
44 *420:64 *604:20 7.33256e-05
45 *420:64 *611:12 0
46 *1212:A *1035:D 0
47 *1212:A *420:34 0
48 *1236:A *971:D 8.00842e-05
49 *24:45 *420:22 0.000505735
50 *77:23 *1003:D 0.00030506
51 *77:23 *420:46 0.000111568
52 *121:30 *420:34 0.000699164
53 *221:9 *420:64 7.30101e-05
54 *224:9 *1003:D 0
55 *224:9 *420:50 0.00039332
56 *225:13 *1003:D 0.000208035
57 *234:21 *420:64 0
58 *241:21 *1067:A 4.77425e-05
59 *253:30 *420:38 0.00265347
60 *310:12 *420:34 0.000444501
61 *388:16 *420:56 0.00125134
62 *389:34 *420:64 4.6693e-05
63 *395:20 *420:56 0.00125167
64 *398:33 *420:18 0.00366946
65 *403:29 *420:38 0
66 *405:14 *420:12 0
67 *414:14 *420:18 0.00399022
*RES
1 *1171:X *420:6 40 
2 *420:6 *420:12 43.3475 
3 *420:12 *420:18 43.5355 
4 *420:18 *420:22 34.4406 
5 *420:22 *420:28 42.266 
6 *420:28 *420:34 33.1531 
7 *420:34 *420:38 32.463 
8 *420:38 *420:46 21.8849 
9 *420:46 *420:50 21.8334 
10 *420:50 *420:56 45.7886 
11 *420:56 *420:64 43.0488 
12 *420:64 *1067:A 40.3193 
13 *420:50 *971:D 40.5356 
14 *420:46 *1003:D 22.266 
15 *420:34 *1035:D 21.6171 
*END

*D_NET *421 0.0233839
*CONN
*I *1281:A I *D sg13g2_buf_1
*I *1070:X O *D sg13g2_buf_1
*CAP
1 *1281:A 0
2 *1070:X 0.000283778
3 *421:30 0.00108267
4 *421:20 0.00196447
5 *421:14 0.00368081
6 *421:8 0.00308278
7 *421:8 *549:43 0
8 *421:14 *975:GATE 0.000372368
9 *421:14 *425:68 0.00252667
10 *421:14 *429:22 0.000179307
11 *421:14 *436:10 0
12 *421:14 *436:16 0
13 *421:14 *471:12 0
14 *421:14 *548:10 0.000709556
15 *421:14 *552:101 0.000547387
16 *421:14 *593:30 0.00145327
17 *421:20 *444:6 0
18 *421:20 *447:6 0.00110954
19 *421:30 *422:52 0
20 *421:30 *430:20 0
21 *421:30 *454:10 0.000609105
22 FrameData_O[23] *421:30 0
23 FrameData_O[24] *421:30 0.000127878
24 FrameData_O[25] *421:30 0
25 *58:10 *421:30 0
26 *262:14 *421:14 0.00218228
27 *308:14 *421:8 0.000143351
28 *333:12 *421:14 0
29 *408:62 *421:14 0
30 *414:52 *421:14 0.000498745
31 *418:80 *421:30 0
32 *419:74 *421:30 0.00282994
*RES
1 *1070:X *421:8 42.4823 
2 *421:8 *421:14 34.1136 
3 *421:14 *421:20 48.9713 
4 *421:20 *421:30 36.2637 
5 *421:30 *1281:A 20 
*END

*D_NET *422 0.0268379
*CONN
*I *1282:A I *D sg13g2_buf_1
*I *1071:X O *D sg13g2_buf_1
*CAP
1 *1282:A 0
2 *1071:X 0
3 *422:52 0.000758403
4 *422:46 0.00155828
5 *422:40 0.00288138
6 *422:34 0.00259808
7 *422:28 0.00186968
8 *422:22 0.00159871
9 *422:16 0.000943039
10 *422:6 0.000697415
11 *422:16 *425:44 0.00146885
12 *422:16 *531:16 0
13 *422:22 *425:44 0.000109244
14 *422:28 *513:18 0.000556506
15 *422:28 *519:12 0
16 *422:28 *519:24 0.0027176
17 *422:34 *578:47 2.19989e-05
18 *422:34 *609:26 0.00065636
19 *422:40 *426:18 0
20 *422:46 *425:68 0
21 *422:46 *454:6 0
22 *422:52 *449:10 0.00108937
23 *422:52 *450:10 0
24 FrameData_O[24] *422:52 0
25 *334:10 *422:34 0.0012848
26 *386:44 *422:22 0
27 *390:26 *422:16 0.000129197
28 *393:10 *422:40 4.70274e-05
29 *397:38 *422:22 0
30 *401:22 *422:40 0.000111828
31 *408:62 *422:40 0
32 *411:68 *422:34 0
33 *412:22 *422:40 0
34 *414:38 *422:28 0.00290734
35 *414:44 *422:28 0.00068682
36 *418:80 *422:52 0
37 *419:36 *422:28 0
38 *419:74 *422:52 0.00214599
39 *421:30 *422:52 0
*RES
1 *1071:X *422:6 40 
2 *422:6 *422:16 47.8795 
3 *422:16 *422:22 41.8334 
4 *422:22 *422:28 40.7854 
5 *422:28 *422:34 46.7774 
6 *422:34 *422:40 38.9314 
7 *422:40 *422:46 47.4572 
8 *422:46 *422:52 31.8244 
9 *422:52 *1282:A 20 
*END

*D_NET *423 0.0395697
*CONN
*I *1283:A I *D sg13g2_buf_1
*I *1072:X O *D sg13g2_buf_1
*CAP
1 *1283:A 0
2 *1072:X 0.000941762
3 *423:50 0.000806471
4 *423:44 0.0050669
5 *423:42 0.00426042
6 *423:40 0.00118756
7 *423:34 0.0012984
8 *423:28 0.00095891
9 *423:24 0.00258157
10 *423:10 0.00267525
11 *423:10 *977:D 0.000209384
12 *423:10 *491:10 0.00030506
13 *423:10 *504:12 0
14 *423:10 *562:14 0.00011101
15 *423:24 *944:A0 0.000207845
16 *423:24 *424:32 0.0010761
17 *423:24 *508:12 0
18 *423:24 *551:64 0.000333999
19 *423:24 *568:26 0.000700455
20 *423:24 *588:85 0.000439399
21 *423:24 *595:34 7.92265e-05
22 *423:24 *610:42 0.0001122
23 *423:24 *610:57 0.000342636
24 *423:28 *474:8 0
25 *423:28 *554:58 0
26 *423:28 *558:83 0.000596179
27 *423:40 *492:16 0
28 *423:40 *493:16 0.00157233
29 *423:40 *496:18 0.00319132
30 *423:40 *519:28 0
31 *423:40 *523:18 0.00533203
32 *423:44 *427:12 0
33 *423:44 *479:18 0
34 *423:50 *424:64 0
35 *423:50 *427:18 0
36 *948:S *423:24 0.00014391
37 *956:S1 *423:28 0.000229349
38 *149:26 *423:28 0
39 *150:32 *423:28 0.000282054
40 *162:12 *423:24 0.000529846
41 *162:32 *423:28 0.00139635
42 *253:36 *423:40 0
43 *257:10 *423:28 0.000391528
44 *298:12 *423:24 4.74021e-05
45 *345:14 *423:10 4.77425e-05
46 *357:20 *423:24 0.00186144
47 *405:110 *423:40 0.000142578
48 *413:16 *423:24 0.000111042
*RES
1 *1072:X *423:10 48.3683 
2 *423:10 *423:24 42.2171 
3 *423:24 *423:28 30.9798 
4 *423:28 *423:34 40.7519 
5 *423:34 *423:40 45.9766 
6 *423:40 *423:42 20 
7 *423:42 *423:44 43.8574 
8 *423:44 *423:50 49.1876 
9 *423:50 *1283:A 40 
*END

*D_NET *424 0.0445912
*CONN
*I *1284:A I *D sg13g2_buf_1
*I *1073:X O *D sg13g2_buf_1
*CAP
1 *1284:A 0
2 *1073:X 0.00054036
3 *424:64 0.000557747
4 *424:58 0.00343565
5 *424:56 0.00328312
6 *424:52 0.00137503
7 *424:44 0.00134495
8 *424:38 0.00178709
9 *424:32 0.00254119
10 *424:26 0.00201591
11 *424:16 0.00146422
12 *424:10 0.00111792
13 *424:10 *475:24 0
14 *424:10 *487:12 0
15 *424:10 *559:87 0
16 *424:16 *924:A0 0.000112198
17 *424:16 *1359:A 0.000143676
18 *424:16 *1369:A 0.000273394
19 *424:16 *564:26 0
20 *424:26 *472:34 0.000124859
21 *424:26 *491:10 0
22 *424:26 *547:152 0.000495114
23 *424:26 *562:22 0.000179079
24 *424:32 *935:A0 0.00163974
25 *424:32 *472:10 0.000548277
26 *424:32 *499:48 0.000861618
27 *424:32 *499:56 0
28 *424:32 *509:36 0.000863861
29 *424:32 *559:37 0
30 *424:32 *568:26 7.5496e-05
31 *424:38 *464:72 0
32 *424:38 *509:36 0.000706493
33 *424:38 *590:22 0
34 *424:38 *590:45 0.00102593
35 *424:38 *599:66 7.81669e-05
36 *424:38 *611:18 0
37 *424:38 *618:44 0.00193504
38 *424:44 *429:16 0.000931321
39 *424:44 *614:14 0
40 *424:52 *426:18 0.000177948
41 *424:52 *435:8 0
42 *424:52 *492:16 0
43 *424:52 *597:14 0
44 *424:56 *437:60 0.000428593
45 *424:56 *468:16 0.000364364
46 *424:58 *427:12 0
47 *424:58 *535:18 0.00296247
48 *424:58 *567:74 0.00119859
49 *424:64 *427:18 0
50 *924:S *424:16 4.77425e-05
51 *1048:A *424:26 0.000240377
52 *24:67 *424:38 1.52665e-05
53 *66:25 *424:38 0.000870359
54 *253:10 *424:32 0.00112444
55 *253:36 *424:52 0
56 *253:36 *424:56 0
57 *285:8 *424:32 0
58 *362:14 *424:10 0.000554992
59 *376:14 *424:26 0.00148632
60 *382:10 *424:52 0.000232574
61 *386:22 *424:32 0.00086324
62 *386:28 *424:38 0.00229294
63 *391:20 *424:58 0
64 *392:16 *424:52 0
65 *405:30 *424:26 0.00028128
66 *405:118 *424:56 0
67 *407:42 *424:52 0.000299486
68 *413:26 *424:32 0
69 *415:22 *424:10 0
70 *418:66 *424:52 0.000616691
71 *423:24 *424:32 0.0010761
72 *423:50 *424:64 0
*RES
1 *1073:X *424:10 44.8719 
2 *424:10 *424:16 45.2942 
3 *424:16 *424:26 30.8871 
4 *424:26 *424:32 38.9623 
5 *424:32 *424:38 40.6624 
6 *424:38 *424:44 44.3054 
7 *424:44 *424:52 49.0125 
8 *424:52 *424:56 23.7801 
9 *424:56 *424:58 40.3966 
10 *424:58 *424:64 42.3754 
11 *424:64 *1284:A 40 
*END

*D_NET *425 0.0447428
*CONN
*I *1285:A I *D sg13g2_buf_1
*I *1074:X O *D sg13g2_buf_1
*CAP
1 *1285:A 0.00057625
2 *1074:X 8.00438e-05
3 *425:74 0.00103573
4 *425:68 0.00257761
5 *425:62 0.00264419
6 *425:56 0.00191602
7 *425:52 0.00202767
8 *425:44 0.00161497
9 *425:38 0.00101644
10 *425:32 0.000759074
11 *425:28 0.00144188
12 *425:22 0.00105162
13 *425:16 0.001152
14 *425:8 0.000902412
15 *1285:A *426:24 0
16 *1285:A *450:10 0
17 *425:8 *1062:A 0
18 *425:8 *1074:A 0
19 *425:8 *588:30 0
20 *425:16 *464:16 0
21 *425:16 *561:14 0
22 *425:22 *474:20 0
23 *425:22 *526:16 0
24 *425:22 *527:32 7.93742e-05
25 *425:28 *516:20 7.95012e-05
26 *425:28 *578:22 0.00281706
27 *425:28 *588:101 7.9925e-05
28 *425:32 *464:36 0.000816096
29 *425:32 *556:110 0.000232834
30 *425:32 *568:46 0.000231871
31 *425:32 *581:46 0
32 *425:38 *579:28 4.63914e-05
33 *425:44 *484:24 0.000555644
34 *425:44 *502:14 0.00356672
35 *425:44 *531:16 0
36 *425:52 *477:18 0.00134267
37 *425:56 *438:12 0
38 *425:56 *483:20 0.00280238
39 *425:56 *517:30 7.56869e-05
40 *425:62 *436:16 0
41 *425:62 *479:12 0
42 *425:62 *502:12 0
43 *425:68 *454:6 0
44 *425:68 *455:6 0
45 *425:68 *537:12 0
46 *425:74 *429:36 0
47 FrameData_O[28] *1285:A 4.77699e-05
48 I_top0 *425:32 0
49 *24:15 *425:16 0
50 *24:83 *425:52 0.000396782
51 *58:10 *1285:A 8.02267e-05
52 *69:9 *425:68 0
53 *115:20 *425:28 0.00199908
54 *118:20 *425:28 0
55 *180:25 *425:16 0
56 *308:22 *425:52 0.00124254
57 *314:8 *425:32 0.00150653
58 *361:26 *425:16 0
59 *390:46 *425:32 0
60 *394:40 *425:32 0.000338219
61 *394:46 *425:32 0.00181953
62 *408:62 *425:68 0
63 *410:20 *425:22 1.53276e-05
64 *411:62 *425:56 0
65 *413:58 *425:62 0.000146592
66 *413:70 *425:68 0
67 *415:58 *425:74 0
68 *416:30 *425:52 0
69 *418:80 *425:74 0.00152339
70 *421:14 *425:68 0.00252667
71 *422:16 *425:44 0.00146885
72 *422:22 *425:44 0.000109244
73 *422:46 *425:68 0
*RES
1 *1074:X *425:8 40.7519 
2 *425:8 *425:16 47.3439 
3 *425:16 *425:22 42.4823 
4 *425:22 *425:28 33.493 
5 *425:28 *425:32 33.2046 
6 *425:32 *425:38 40.3193 
7 *425:38 *425:44 37.1701 
8 *425:44 *425:52 49.1979 
9 *425:52 *425:56 36.4182 
10 *425:56 *425:62 45.2942 
11 *425:62 *425:68 44.5861 
12 *425:68 *425:74 47.0246 
13 *425:74 *1285:A 25.2118 
*END

*D_NET *426 0.0164815
*CONN
*I *1286:A I *D sg13g2_buf_1
*I *1075:X O *D sg13g2_buf_1
*CAP
1 *1286:A 0
2 *1075:X 0.000432127
3 *426:24 0.00118702
4 *426:18 0.00476653
5 *426:8 0.00401164
6 *426:8 *543:60 0
7 *426:8 *543:67 0
8 *426:8 *561:63 4.77425e-05
9 *426:18 *926:A0 0
10 *426:18 *950:A0 0.000177583
11 *426:18 *435:8 0.00028262
12 *426:18 *436:16 0
13 *426:18 *437:64 0
14 *426:18 *505:18 0
15 *426:18 *597:14 0.000392315
16 *426:24 *429:36 0
17 *426:24 *450:10 0
18 FrameData_O[28] *426:24 0
19 *1098:A *426:24 0
20 *1125:A *426:8 0
21 *1236:A *426:8 0
22 *1285:A *426:24 0
23 *58:10 *426:24 0
24 *77:23 *426:8 0
25 *274:10 *426:18 0.00139102
26 *282:52 *426:18 0
27 *358:8 *426:18 0
28 *392:16 *426:18 0
29 *396:12 *426:18 0
30 *396:27 *426:18 0
31 *408:62 *426:18 0
32 *412:22 *426:18 0.000287155
33 *412:26 *426:18 0.00219316
34 *413:62 *426:18 0.00113462
35 *422:40 *426:18 0
36 *424:52 *426:18 0.000177948
*RES
1 *1075:X *426:8 43.3137 
2 *426:8 *426:18 40.4069 
3 *426:18 *426:24 31.4845 
4 *426:24 *1286:A 20 
*END

*D_NET *427 0.0140636
*CONN
*I *1287:A I *D sg13g2_buf_1
*I *1076:X O *D sg13g2_buf_1
*CAP
1 *1287:A 0
2 *1076:X 0
3 *427:18 0.000593209
4 *427:12 0.00457758
5 *427:10 0.00398437
6 *427:6 0
7 *427:12 *467:38 0.00109134
8 *427:12 *479:18 0
9 *427:12 *496:18 0.00381707
10 *427:12 *519:28 0
11 *427:12 *523:18 0
12 *391:20 *427:12 0
13 *423:44 *427:12 0
14 *423:50 *427:18 0
15 *424:58 *427:12 0
16 *424:64 *427:18 0
*RES
1 *1076:X *427:6 40 
2 *427:6 *427:10 40 
3 *427:10 *427:12 50.0374 
4 *427:12 *427:18 46.592 
5 *427:18 *1287:A 40 
*END

*D_NET *428 0.049463
*CONN
*I *1288:A I *D sg13g2_buf_1
*I *1049:X O *D sg13g2_buf_1
*CAP
1 *1288:A 2.41961e-05
2 *1049:X 0
3 *428:102 0.000850986
4 *428:96 0.0024996
5 *428:92 0.00200752
6 *428:84 0.000856908
7 *428:72 0.00151646
8 *428:64 0.00231207
9 *428:60 0.00217926
10 *428:56 0.00169941
11 *428:50 0.00101604
12 *428:44 0.000885564
13 *428:38 0.00130737
14 *428:24 0.00116371
15 *428:18 0.00237985
16 *428:12 0.00210209
17 *428:6 0.000286071
18 *428:12 *509:14 0
19 *428:12 *512:22 0
20 *428:12 *566:20 0
21 *428:18 *442:41 0.000877435
22 *428:18 *471:60 0
23 *428:18 *512:22 0.000289991
24 *428:18 *525:18 0
25 *428:24 *1161:A 0
26 *428:24 *556:10 0
27 *428:24 *572:30 7.98567e-05
28 *428:24 *575:83 0
29 *428:38 *519:72 0.000605967
30 *428:44 *526:38 0.000126307
31 *428:44 *533:38 0.000860516
32 *428:56 *479:48 0.00107445
33 *428:56 *532:26 0.000701964
34 *428:56 *542:47 0
35 *428:56 *558:24 0
36 *428:56 *558:45 0.00107426
37 *428:60 *530:28 0.00244328
38 *428:64 *467:38 0
39 *428:64 *479:18 0
40 *428:64 *519:24 0.000397344
41 *428:64 *533:16 0
42 *428:64 *586:14 0
43 *428:64 *600:20 0.000428885
44 *428:72 *434:16 1.4965e-05
45 *428:72 *467:46 0
46 *428:72 *483:26 7.56869e-05
47 *428:72 *483:32 4.64344e-05
48 *428:72 *534:10 0
49 *428:84 *435:14 0
50 *428:84 *538:72 7.31655e-05
51 *428:84 *539:61 0.000153365
52 *428:84 *552:105 0
53 *428:84 *560:115 0
54 *428:84 *618:32 0.000126851
55 *428:92 *560:115 0.000128007
56 *428:92 *578:28 0.000333929
57 *428:92 *584:18 0.000181771
58 *428:96 *434:20 0
59 *428:96 *502:14 0.00312056
60 *428:96 *519:12 0
61 *428:102 *432:68 0
62 N1BEG[2] *428:38 0.000656433
63 N1BEG[3] *428:38 7.50102e-05
64 N2BEG[4] *428:38 0.000337717
65 N2BEGb[4] *428:38 0.000660535
66 N2BEGb[7] *428:38 0.000231555
67 N4BEG[2] *428:50 0.000272718
68 N4BEG[3] *428:50 7.98582e-05
69 *24:15 *428:12 0
70 *24:33 *428:18 0.000182539
71 *24:67 *428:72 0.000235965
72 *24:83 *428:92 0.000428208
73 *24:83 *428:96 0.00349781
74 *107:24 *428:18 0
75 *132:36 *428:24 0
76 *133:44 *428:44 0
77 *137:18 *428:44 0.000172097
78 *149:18 *428:18 0.00026671
79 *164:8 *428:44 0.00138662
80 *173:34 *428:56 0
81 *202:13 *428:44 0.000810049
82 *260:8 *428:56 0
83 *273:12 *428:56 0.000751515
84 *359:12 *428:44 7.30101e-05
85 *395:24 *428:60 0
86 *404:14 *428:102 0.00210048
87 *406:50 *428:64 0
88 *406:58 *428:72 0
89 *410:42 *428:60 0
90 *410:50 *428:64 0
91 *410:62 *428:72 0.000610041
92 *414:34 *428:72 0.000332048
*RES
1 *1049:X *428:6 40 
2 *428:6 *428:12 42.0497 
3 *428:12 *428:18 35.3779 
4 *428:18 *428:24 44.8616 
5 *428:24 *428:38 48.858 
6 *428:38 *428:44 30.094 
7 *428:44 *428:50 41.8334 
8 *428:50 *428:56 31.4845 
9 *428:56 *428:60 31.227 
10 *428:60 *428:64 30.4854 
11 *428:64 *428:72 49.8159 
12 *428:72 *428:84 44.4599 
13 *428:84 *428:92 43.7595 
14 *428:92 *428:96 48.2838 
15 *428:96 *428:102 49.7438 
16 *428:102 *1288:A 40.3193 
*END

*D_NET *429 0.022077
*CONN
*I *1289:A I *D sg13g2_buf_1
*I *1077:X O *D sg13g2_buf_1
*CAP
1 *1289:A 0
2 *1077:X 0
3 *429:36 0.000981511
4 *429:30 0.00431514
5 *429:22 0.00387925
6 *429:16 0.00202074
7 *429:10 0.00147512
8 *429:6 0
9 *429:16 *432:56 0.000203567
10 *429:16 *433:16 0
11 *429:16 *438:12 0.00381623
12 *429:16 *614:14 0
13 *429:22 *436:16 0.00133806
14 *429:22 *593:30 0
15 *429:30 *505:8 0.00014428
16 *429:30 *608:14 0
17 *429:30 *608:20 0
18 *429:30 *609:18 8.00394e-05
19 *429:36 *430:14 0
20 *429:36 *449:6 0
21 *1131:A *429:30 0
22 *77:15 *429:16 0
23 *86:8 *429:30 0.000178206
24 *230:23 *429:30 7.33225e-05
25 *396:8 *429:30 0
26 *401:14 *429:30 0
27 *405:122 *429:16 0.00119848
28 *415:58 *429:30 0
29 *415:58 *429:36 0.00126242
30 *418:80 *429:30 0
31 *418:80 *429:36 0
32 *421:14 *429:22 0.000179307
33 *424:44 *429:16 0.000931321
34 *425:74 *429:36 0
35 *426:24 *429:36 0
*RES
1 *1077:X *429:6 40 
2 *429:6 *429:10 40 
3 *429:10 *429:16 41.6506 
4 *429:16 *429:22 46.283 
5 *429:22 *429:30 46.4813 
6 *429:30 *429:36 31.5772 
7 *429:36 *1289:A 20 
*END

*D_NET *430 0.0150725
*CONN
*I *1290:A I *D sg13g2_buf_1
*I *1078:X O *D sg13g2_buf_1
*CAP
1 *1290:A 0
2 *1078:X 3.4534e-05
3 *430:20 0.000297135
4 *430:14 0.00212876
5 *430:10 0.00395401
6 *430:8 0.00215691
7 *430:8 *584:26 4.75151e-05
8 *430:10 *436:20 0.00449377
9 *430:10 *469:10 0
10 *430:10 *549:107 0.000177891
11 *430:10 *609:43 0.000338557
12 *430:14 *449:6 0
13 *430:14 *455:6 0
14 *430:20 *450:14 0
15 *68:17 *430:10 0
16 *252:50 *430:10 0
17 *295:8 *430:10 0.0014434
18 *402:16 *430:10 0
19 *411:68 *430:10 0
20 *421:30 *430:20 0
21 *429:36 *430:14 0
*RES
1 *1078:X *430:8 40.3193 
2 *430:8 *430:10 30.2614 
3 *430:10 *430:14 35.0277 
4 *430:14 *430:20 43.5638 
5 *430:20 *1290:A 20 
*END

*D_NET *431 0.02786
*CONN
*I *1004:D I *D sg13g2_dlhq_1
*I *972:D I *D sg13g2_dlhq_1
*I *1036:D I *D sg13g2_dlhq_1
*I *1068:A I *D sg13g2_buf_1
*I *1172:X O *D sg13g2_buf_1
*CAP
1 *1004:D 0
2 *972:D 0.000105988
3 *1036:D 6.31592e-05
4 *1068:A 0
5 *1172:X 0.00102772
6 *431:83 0.00130529
7 *431:64 0.00158607
8 *431:53 0.0003925
9 *431:47 0.00089064
10 *431:41 0.000856586
11 *431:35 0.00121333
12 *431:24 0.00127477
13 *431:18 0.00120965
14 *431:18 *1343:A 0
15 *431:18 *1362:A 0
16 *431:18 *482:30 0.00014476
17 *431:18 *499:88 0.000176083
18 *431:18 *517:58 1.61052e-05
19 *431:18 *520:22 0.000596617
20 *431:18 *521:26 0
21 *431:35 *1025:GATE 0.000503534
22 *431:35 *483:52 0
23 *431:35 *496:44 0.000971052
24 *431:35 *499:82 0.000339292
25 *431:35 *506:10 0.000438014
26 *431:35 *532:42 0
27 *431:35 *557:74 0
28 *431:47 *479:48 0.00116496
29 *431:47 *532:26 0.00256902
30 *431:53 *532:26 0.0006488
31 *431:83 *1020:D 4.75166e-05
32 *431:83 *1020:GATE 0.000446469
33 *431:83 *542:47 0
34 N2BEGb[2] *431:47 0
35 N4BEG[2] *431:47 8.00842e-05
36 N4BEG[6] *972:D 8.00842e-05
37 *912:S *431:41 0.000208035
38 *1172:A *431:18 0.000148731
39 *122:28 *431:18 0.000223909
40 *125:16 *431:18 0
41 *125:22 *431:24 0.000272718
42 *125:22 *431:35 0.000160292
43 *127:18 *431:18 7.46009e-05
44 *129:24 *431:41 0.000208035
45 *142:18 *431:35 7.30101e-05
46 *142:24 *431:35 4.68848e-05
47 *146:28 *431:53 0.0006488
48 *150:14 *431:18 0
49 *150:14 *431:24 1.56814e-05
50 *152:10 *431:18 7.30101e-05
51 *154:36 *431:47 8.00842e-05
52 *168:10 *431:35 0
53 *169:8 *431:35 0.000448259
54 *171:12 *431:47 0.00121912
55 *202:13 *972:D 0.000232833
56 *202:13 *431:83 0.00319005
57 *359:12 *972:D 0.00023292
58 *359:12 *431:83 0.0018345
59 *372:22 *431:24 0.000272718
60 *372:22 *431:35 4.77425e-05
61 *395:30 *431:83 0
*RES
1 *1172:X *431:18 49.7644 
2 *431:18 *431:24 22.1527 
3 *431:24 *1068:A 20 
4 *431:24 *431:35 32.4115 
5 *431:35 *431:41 41.4008 
6 *431:41 *431:47 32.7514 
7 *431:47 *431:53 43.0694 
8 *431:53 *1036:D 20.5356 
9 *431:53 *431:64 21.4008 
10 *431:64 *972:D 41.6274 
11 *431:64 *431:83 38.6018 
12 *431:83 *1004:D 20 
*END

*D_NET *432 0.042513
*CONN
*I *1291:A I *D sg13g2_buf_1
*I *1050:X O *D sg13g2_buf_1
*CAP
1 *1291:A 0
2 *1050:X 0.000907831
3 *432:68 0.00290553
4 *432:62 0.003488
5 *432:56 0.00161037
6 *432:50 0.00224279
7 *432:46 0.00400337
8 *432:40 0.00283549
9 *432:34 0.00120403
10 *432:30 0.00225663
11 *432:20 0.00157795
12 *432:12 0.00138617
13 *432:12 *498:20 0
14 *432:12 *522:8 0
15 *432:12 *540:18 4.76973e-05
16 *432:12 *562:14 0
17 *432:20 *986:GATE 8.00842e-05
18 *432:20 *522:8 0.000333466
19 *432:20 *550:84 4.75151e-05
20 *432:30 *574:14 0.000700705
21 *432:34 *505:34 0.00247161
22 *432:34 *545:28 0.000289002
23 *432:46 *439:34 0
24 *432:46 *513:30 0
25 *432:46 *519:24 0
26 *432:46 *571:18 0
27 *432:50 *515:20 0
28 *432:50 *614:14 0
29 *432:56 *433:16 0
30 *432:56 *439:44 0.000300848
31 FrameData_O[2] *432:68 0
32 FrameData_O[4] *432:68 0
33 I_top15 *432:62 0.00161721
34 I_top2 *432:34 0.00231158
35 I_top8 *432:62 0
36 *77:15 *432:56 0
37 *78:9 *432:62 0.000340688
38 *81:9 *432:62 0
39 *83:15 *432:68 0
40 *84:11 *432:68 0
41 *116:18 *432:34 0
42 *116:22 *432:34 0
43 *176:13 *432:20 0.00132595
44 *176:13 *432:30 0.000434427
45 *176:21 *432:12 0
46 *177:9 *432:34 0.000395811
47 *179:9 *432:34 0
48 *182:11 *432:12 0.000120753
49 *184:23 *432:12 0
50 *193:17 *432:46 0
51 *345:14 *432:20 0.000805314
52 *345:14 *432:30 0
53 *394:30 *432:34 0.000500847
54 *397:18 *432:50 0.001999
55 *397:38 *432:46 0
56 *404:14 *432:68 0
57 *407:48 *432:50 0
58 *411:8 *432:12 0
59 *411:8 *432:20 0
60 *412:10 *432:68 0.000341949
61 *414:26 *432:46 0
62 *416:8 *432:30 0.000282114
63 *416:14 *432:30 4.75151e-05
64 *416:48 *432:62 0.00141206
65 *416:48 *432:68 0
66 *419:40 *432:50 0.00168512
67 *428:102 *432:68 0
68 *429:16 *432:56 0.000203567
*RES
1 *1050:X *432:12 47.3851 
2 *432:12 *432:20 47.2821 
3 *432:20 *432:30 30.3412 
4 *432:30 *432:34 38.643 
5 *432:34 *432:40 40.3193 
6 *432:40 *432:46 42.8213 
7 *432:46 *432:50 35.6766 
8 *432:50 *432:56 47.8898 
9 *432:56 *432:62 30.2176 
10 *432:62 *432:68 45.8839 
11 *432:68 *1291:A 40 
*END

*D_NET *433 0.0136534
*CONN
*I *1292:A I *D sg13g2_buf_1
*I *1051:X O *D sg13g2_buf_1
*CAP
1 *1292:A 0.000143558
2 *1051:X 0.000366751
3 *433:20 0.00266066
4 *433:18 0.0025171
5 *433:16 0.00170485
6 *433:12 0.0020716
7 *1292:A *537:8 0
8 *433:12 *567:95 0.000112426
9 *433:12 *567:110 0.000143908
10 *433:12 *612:14 0.00011219
11 *433:12 *612:20 7.52158e-05
12 *433:12 *618:8 0
13 *433:16 *496:12 0
14 *433:16 *513:18 0
15 *433:16 *573:46 0
16 *433:16 *611:12 0
17 *433:16 *613:14 0
18 *433:20 *436:20 0
19 *433:20 *437:70 0
20 *433:20 *446:10 0
21 *433:20 *452:8 0
22 *433:20 *457:10 0.00114702
23 *433:20 *549:113 0.00145491
24 *433:20 *599:105 0
25 *433:20 *620:22 0.000552215
26 *1098:A *1292:A 0
27 *67:9 *433:20 0
28 *74:11 *433:20 0
29 *77:15 *433:16 0
30 *224:9 *433:12 0
31 *233:29 *433:12 0.000181825
32 *241:21 *433:12 0.000101323
33 *241:35 *433:12 2.19989e-05
34 *242:19 *433:20 0
35 *316:10 *433:20 0
36 *364:10 *433:12 0
37 *402:30 *433:20 0.000285812
38 *429:16 *433:16 0
39 *432:56 *433:16 0
*RES
1 *1051:X *433:12 43.8934 
2 *433:12 *433:16 33.2973 
3 *433:16 *433:18 20 
4 *433:18 *433:20 31.003 
5 *433:20 *1292:A 41.4008 
*END

*D_NET *434 0.0198087
*CONN
*I *1293:A I *D sg13g2_buf_1
*I *1052:X O *D sg13g2_buf_1
*CAP
1 *1293:A 0
2 *1052:X 0
3 *434:26 0.000185748
4 *434:20 0.0034074
5 *434:18 0.00322165
6 *434:16 0.00130076
7 *434:10 0.00130076
8 *434:6 0
9 *434:16 *467:46 0.000743582
10 *434:16 *517:30 0.00203443
11 *434:16 *606:18 0.0029265
12 *434:16 *611:34 0.000838103
13 *434:20 *439:38 0
14 *434:20 *466:18 0.00109023
15 *434:20 *467:50 0
16 *434:20 *531:16 0
17 *434:20 *571:18 0.00274451
18 *434:20 *573:14 0
19 *24:83 *434:20 0
20 *386:44 *434:16 0
21 *414:34 *434:16 0
22 *428:72 *434:16 1.4965e-05
23 *428:96 *434:20 0
*RES
1 *1052:X *434:6 40 
2 *434:6 *434:10 40 
3 *434:10 *434:16 39.6112 
4 *434:16 *434:18 20 
5 *434:18 *434:20 45.3406 
6 *434:20 *434:26 42.0497 
7 *434:26 *1293:A 40 
*END

*D_NET *435 0.0181174
*CONN
*I *1294:A I *D sg13g2_buf_1
*I *1053:X O *D sg13g2_buf_1
*CAP
1 *1294:A 5.77385e-05
2 *1053:X 8.97581e-05
3 *435:24 0.0032926
4 *435:14 0.00439029
5 *435:8 0.00124519
6 *435:8 *597:14 0.000337553
7 *435:14 *1046:GATE 0
8 *435:14 *464:86 0
9 *435:14 *539:48 0
10 *435:14 *539:61 0
11 *435:14 *559:17 0
12 *435:14 *561:63 0
13 *435:14 *606:10 0
14 *435:24 *439:62 0
15 *435:24 *452:8 0
16 *435:24 *457:10 0
17 *435:24 *458:8 0
18 *435:24 *599:80 0.000446178
19 *435:24 *599:95 0.00090097
20 FrameData_O[4] *435:24 0
21 FrameData_O[5] *1294:A 0
22 FrameData_O[7] *435:24 0
23 *1236:A *435:14 0
24 *72:9 *435:24 0.00168236
25 *73:9 *435:24 0
26 *74:11 *435:24 0.00316499
27 *75:17 *435:24 0
28 *242:19 *435:24 0
29 *308:22 *435:24 0.00178286
30 *370:8 *435:24 0.000444284
31 *386:74 *435:14 0
32 *386:74 *435:24 0
33 *390:18 *435:24 0
34 *404:14 *435:24 0
35 *424:52 *435:8 0
36 *426:18 *435:8 0.00028262
37 *428:84 *435:14 0
*RES
1 *1053:X *435:8 41.5862 
2 *435:8 *435:14 49.8365 
3 *435:14 *435:24 41.7356 
4 *435:24 *1294:A 40.5356 
*END

*D_NET *436 0.0173903
*CONN
*I *1295:A I *D sg13g2_buf_1
*I *1054:X O *D sg13g2_buf_1
*CAP
1 *1295:A 6.63822e-05
2 *1054:X 0.000476887
3 *436:20 0.00205642
4 *436:16 0.00332735
5 *436:10 0.0018142
6 *436:10 *471:12 0.000920048
7 *436:10 *593:30 0.000286392
8 *436:10 *605:28 0
9 *436:16 *479:12 0
10 *436:16 *505:18 0
11 *436:16 *535:12 0
12 *436:16 *605:28 0.000128663
13 *436:20 *437:70 0
14 *436:20 *549:113 0
15 *67:9 *436:20 0.00161869
16 *282:44 *436:16 0
17 *396:12 *436:16 0.000863442
18 *411:68 *436:16 0
19 *421:14 *436:10 0
20 *421:14 *436:16 0
21 *425:62 *436:16 0
22 *426:18 *436:16 0
23 *429:22 *436:16 0.00133806
24 *430:10 *436:20 0.00449377
25 *433:20 *436:20 0
*RES
1 *1054:X *436:10 45.5826 
2 *436:10 *436:16 33.802 
3 *436:16 *436:20 46.3062 
4 *436:20 *1295:A 40.5356 
*END

*D_NET *437 0.0407222
*CONN
*I *1296:A I *D sg13g2_buf_1
*I *1055:X O *D sg13g2_buf_1
*CAP
1 *1296:A 0
2 *1055:X 0.000265771
3 *437:70 0.00289523
4 *437:64 0.0050087
5 *437:60 0.00256591
6 *437:54 0.00137253
7 *437:46 0.00200515
8 *437:40 0.00153998
9 *437:34 0.000749306
10 *437:26 0.000626112
11 *437:20 0.000708907
12 *437:14 0.00201694
13 *437:10 0.00190553
14 *437:10 *580:38 0
15 *437:10 *599:40 0.000178047
16 *437:14 *474:14 0
17 *437:14 *561:35 7.78179e-05
18 *437:20 *581:16 8.0039e-05
19 *437:20 *583:8 4.68848e-05
20 *437:26 *533:32 0.000109543
21 *437:34 *476:46 0.000984291
22 *437:40 *514:34 0.000985365
23 *437:40 *600:26 0.00103853
24 *437:46 *471:32 0.00335633
25 *437:46 *476:28 0
26 *437:46 *492:28 0.00319886
27 *437:46 *500:14 0
28 *437:46 *565:42 0.000237467
29 *437:54 *492:16 0
30 *437:54 *514:16 0
31 *437:54 *532:12 0.000209967
32 *437:54 *535:18 0
33 *437:60 *476:18 0
34 *437:60 *488:24 0
35 *437:64 *608:26 0
36 *437:64 *611:18 0
37 *437:70 *443:6 0.000626619
38 *437:70 *446:22 0
39 *437:70 *459:6 0
40 FrameData_O[7] *437:70 0
41 FrameData_O[9] *437:70 0
42 N2BEGb[6] *437:26 0.000329528
43 NN4BEG[8] *437:46 0
44 *67:9 *437:70 4.77083e-05
45 *68:17 *437:70 0
46 *121:14 *437:14 0
47 *150:32 *437:20 0
48 *165:26 *437:40 0.00146699
49 *167:14 *437:34 0.000984151
50 *242:19 *437:70 0
51 *252:18 *437:14 0.000678302
52 *253:36 *437:60 0
53 *289:12 *437:10 0.000240377
54 *392:16 *437:64 0.00297068
55 *395:20 *437:54 0
56 *399:18 *437:54 0.000663305
57 *405:110 *437:54 0
58 *405:110 *437:60 0
59 *405:118 *437:60 4.79507e-05
60 *405:118 *437:64 7.47964e-05
61 *413:62 *437:64 0
62 *414:68 *437:64 0
63 *419:48 *437:64 0
64 *424:56 *437:60 0.000428593
65 *426:18 *437:64 0
66 *433:20 *437:70 0
67 *436:20 *437:70 0
*RES
1 *1055:X *437:10 42.4617 
2 *437:10 *437:14 31.7832 
3 *437:14 *437:20 43.1312 
4 *437:20 *437:26 42.6986 
5 *437:26 *437:34 45.3045 
6 *437:34 *437:40 49.7438 
7 *437:40 *437:46 39.673 
8 *437:46 *437:54 48.5799 
9 *437:54 *437:60 43.9964 
10 *437:60 *437:64 43.0926 
11 *437:64 *437:70 46.6873 
12 *437:70 *1296:A 40 
*END

*D_NET *438 0.0140077
*CONN
*I *1297:A I *D sg13g2_buf_1
*I *1056:X O *D sg13g2_buf_1
*CAP
1 *1297:A 0
2 *1056:X 0
3 *438:18 5.77734e-05
4 *438:12 0.00509574
5 *438:10 0.00503797
6 *438:6 0
7 *438:12 *483:20 0
8 *438:12 *606:18 0
9 *438:12 *611:26 0
10 *438:12 *614:14 0
11 *405:122 *438:12 0
12 *425:56 *438:12 0
13 *429:16 *438:12 0.00381623
*RES
1 *1056:X *438:6 40 
2 *438:6 *438:10 40 
3 *438:10 *438:12 53.9926 
4 *438:12 *438:18 40.5356 
5 *438:18 *1297:A 40 
*END

*D_NET *439 0.0370868
*CONN
*I *1298:A I *D sg13g2_buf_1
*I *1079:X O *D sg13g2_buf_1
*CAP
1 *1298:A 0
2 *1079:X 2.42593e-05
3 *439:62 0.00246777
4 *439:44 0.00270819
5 *439:38 0.00175654
6 *439:34 0.00272878
7 *439:28 0.00165599
8 *439:22 0.00109485
9 *439:14 0.00281628
10 *439:8 0.00218903
11 *439:14 *482:30 0
12 *439:14 *518:18 0.00244436
13 *439:14 *531:71 0.000124826
14 *439:14 *535:34 0.00085928
15 *439:14 *536:16 0.000910816
16 *439:14 *550:115 0.000234533
17 *439:14 *550:130 0.00189226
18 *439:14 *556:36 0.000126644
19 *439:14 *561:46 0
20 *439:14 *564:45 0.00196737
21 *439:14 *564:60 0.000282365
22 *439:14 *595:51 0.000501046
23 *439:14 *610:57 0
24 *439:22 *499:32 0.000176373
25 *439:22 *515:20 0
26 *439:22 *527:18 0
27 *439:22 *614:14 0.000823969
28 *439:28 *542:47 0
29 *439:34 *516:14 0
30 *439:34 *517:30 0
31 *439:38 *467:50 0.00213077
32 *439:38 *531:16 0
33 *439:38 *573:14 0
34 *439:62 *549:113 0.000240684
35 *439:62 *609:18 0
36 *439:62 *620:14 0.00045893
37 *439:62 *620:28 0
38 *1103:A *439:62 0
39 *1119:A *439:62 0
40 *1127:A *439:62 0
41 *1135:A *439:62 0
42 *1143:A *439:62 0
43 *118:30 *439:28 0
44 *121:14 *439:14 0.000699313
45 *193:17 *439:34 0
46 *308:22 *439:62 0.000611358
47 *309:8 *439:14 0
48 *343:12 *439:28 0.00058854
49 *373:14 *439:14 2.14736e-05
50 *386:12 *439:14 0
51 *390:18 *439:62 0.00124405
52 *392:10 *439:62 0
53 *393:10 *439:62 0
54 *396:8 *439:62 0.000885592
55 *397:52 *439:22 0
56 *409:16 *439:8 4.81895e-05
57 *409:16 *439:14 0
58 *411:62 *439:34 0
59 *412:14 *439:62 0
60 *414:52 *439:62 0
61 *419:36 *439:34 0.00207159
62 *432:46 *439:34 0
63 *432:56 *439:44 0.000300848
64 *434:20 *439:38 0
65 *435:24 *439:62 0
*RES
1 *1079:X *439:8 40.3193 
2 *439:8 *439:14 31.1781 
3 *439:14 *439:22 46.2933 
4 *439:22 *439:28 43.9964 
5 *439:28 *439:34 33.0604 
6 *439:34 *439:38 36.4182 
7 *439:38 *439:44 42.0497 
8 *439:44 *439:62 45.4204 
9 *439:62 *1298:A 20 
*END

*D_NET *440 0.00837295
*CONN
*I *1299:A I *D sg13g2_buf_1
*I *1089:X O *D sg13g2_buf_1
*CAP
1 *1299:A 0
2 *1089:X 0.000350688
3 *440:18 0.00139284
4 *440:8 0.00174352
5 *440:8 *537:12 0
6 *440:18 *444:14 0
7 *440:18 *446:22 0.00164195
8 *440:18 *458:12 0.00194911
9 *92:10 *440:18 0.000209614
10 *411:68 *440:8 0.00108523
*RES
1 *1089:X *440:8 45.047 
2 *440:8 *440:18 36.0783 
3 *440:18 *1299:A 20 
*END

*D_NET *441 0.00438586
*CONN
*I *1300:A I *D sg13g2_buf_1
*I *1090:X O *D sg13g2_buf_1
*CAP
1 *1300:A 0
2 *1090:X 0.00108348
3 *441:12 0.000135395
4 *441:6 0.00121887
5 *441:6 *448:12 0
6 *441:6 *457:14 0
7 *441:6 *460:8 0.00136835
8 *441:12 *456:12 0.000338954
9 *1088:A *441:6 0.000240813
10 *419:74 *441:12 0
*RES
1 *1090:X *441:6 31.1343 
2 *441:6 *441:12 41.5862 
3 *441:12 *1300:A 20 
*END

*D_NET *442 0.0283911
*CONN
*I *1069:A I *D sg13g2_buf_1
*I *1037:D I *D sg13g2_dlhq_1
*I *1005:D I *D sg13g2_dlhq_1
*I *973:D I *D sg13g2_dlhq_1
*I *1173:X O *D sg13g2_buf_1
*CAP
1 *1069:A 0
2 *1037:D 0.000399172
3 *1005:D 0
4 *973:D 0
5 *1173:X 0.000406999
6 *442:77 4.86119e-05
7 *442:55 0.000549841
8 *442:51 0.00215716
9 *442:45 0.00200649
10 *442:41 0.00199562
11 *442:30 0.000150138
12 *442:22 0.00276116
13 *442:14 0.00108005
14 *442:10 0.000823033
15 *1037:D *488:30 0.00122328
16 *1037:D *543:60 0.000702488
17 *1037:D *580:46 0
18 *442:10 *475:22 4.78498e-05
19 *442:10 *566:10 0
20 *442:14 *509:14 0
21 *442:14 *566:20 0.000143188
22 *442:14 *580:14 0
23 *442:22 *509:20 0.0014239
24 *442:22 *543:20 0
25 *442:22 *580:14 0
26 *442:30 *522:14 0.000109244
27 *442:30 *550:31 8.00842e-05
28 *442:41 *484:36 0.000621635
29 *442:41 *519:28 0.001839
30 *442:41 *522:14 0.000510373
31 *442:41 *525:18 0.00419188
32 *442:41 *556:28 0
33 *442:51 *995:GATE 1.54008e-05
34 *442:51 *509:48 0
35 *442:51 *558:18 0
36 *442:51 *570:24 0
37 *442:51 *570:35 0
38 *442:51 *570:46 0
39 *442:51 *594:42 0.00102164
40 *442:55 *488:30 0.000230271
41 *442:55 *580:46 0
42 *442:77 *491:42 4.76977e-05
43 *921:A0 *442:51 0.000181298
44 *2:17 *442:77 8.00394e-05
45 *21:21 *442:10 4.75166e-05
46 *24:33 *442:41 0
47 *148:12 *442:41 0.000877377
48 *149:18 *442:41 0
49 *163:14 *442:51 0
50 *206:13 *442:51 0
51 *252:32 *442:51 0
52 *267:12 *442:51 0
53 *341:22 *442:22 0.000668896
54 *344:18 *442:41 0
55 *391:52 *442:41 0
56 *392:16 *442:51 0.00107229
57 *405:22 *442:22 0
58 *410:32 *442:41 0
59 *414:12 *442:14 0
60 *419:12 *442:22 0
61 *420:22 *442:41 0
62 *428:18 *442:41 0.000877435
*RES
1 *1173:X *442:10 42.8943 
2 *442:10 *442:14 23.5638 
3 *442:14 *442:22 48.6726 
4 *442:22 *442:30 41.2875 
5 *442:30 *973:D 20 
6 *442:22 *442:41 49.2829 
7 *442:41 *442:45 40 
8 *442:45 *442:51 38.437 
9 *442:51 *442:55 21.339 
10 *442:55 *1005:D 40 
11 *442:55 *1037:D 45.7886 
12 *442:14 *442:77 40.5356 
13 *442:77 *1069:A 20 
*END

*D_NET *443 0.00418232
*CONN
*I *1301:A I *D sg13g2_buf_1
*I *1091:X O *D sg13g2_buf_1
*CAP
1 *1301:A 0
2 *1091:X 0.00112829
3 *443:12 0.000246376
4 *443:6 0.00137467
5 *443:6 *444:14 0
6 *443:6 *446:22 0
7 *443:6 *447:14 0.00046572
8 *443:6 *459:6 0
9 *443:12 *454:10 0
10 *95:8 *443:12 0.000340648
11 *437:70 *443:6 0.000626619
*RES
1 *1091:X *443:6 31.3506 
2 *443:6 *443:12 43.0694 
3 *443:12 *1301:A 20 
*END

*D_NET *444 0.00647977
*CONN
*I *1302:A I *D sg13g2_buf_1
*I *1092:X O *D sg13g2_buf_1
*CAP
1 *1302:A 0
2 *1092:X 0.0015711
3 *444:14 0.000773961
4 *444:6 0.00234506
5 *444:6 *447:6 0
6 *444:6 *456:6 0
7 *444:14 *1307:A 0.000304869
8 *444:14 *446:22 0
9 *444:14 *447:14 0
10 *444:14 *456:12 0.0010882
11 *444:14 *459:14 0.000396583
12 *69:9 *444:6 0
13 *411:74 *444:6 0
14 *418:80 *444:14 0
15 *421:20 *444:6 0
16 *440:18 *444:14 0
17 *443:6 *444:14 0
*RES
1 *1092:X *444:6 34.5951 
2 *444:6 *444:14 49.476 
3 *444:14 *1302:A 20 
*END

*D_NET *445 0.00659571
*CONN
*I *1303:A I *D sg13g2_buf_1
*I *1093:X O *D sg13g2_buf_1
*CAP
1 *1303:A 0
2 *1093:X 0.00170367
3 *445:16 0.000439958
4 *445:8 0.00214363
5 *445:8 *447:6 0
6 *445:8 *459:6 0
7 *445:16 *449:10 0.000768501
8 *445:16 *456:12 0
9 *445:16 *457:14 0
10 *445:16 *460:8 8.00842e-05
11 *1087:A *445:8 0
12 *419:74 *445:16 0.00145986
*RES
1 *1093:X *445:8 35.8105 
2 *445:8 *445:16 47.313 
3 *445:16 *1303:A 20 
*END

*D_NET *446 0.00700215
*CONN
*I *1304:A I *D sg13g2_buf_1
*I *1094:X O *D sg13g2_buf_1
*CAP
1 *1304:A 0
2 *1094:X 0.000280742
3 *446:22 0.00178465
4 *446:10 0.00206539
5 *446:10 *457:10 0.000609899
6 *446:10 *458:8 0.000396165
7 *446:22 *1307:A 0
8 *446:22 *448:12 0
9 *446:22 *458:12 0.000143494
10 *67:9 *446:22 0
11 *74:11 *446:10 0
12 *412:22 *446:22 7.98582e-05
13 *433:20 *446:10 0
14 *437:70 *446:22 0
15 *440:18 *446:22 0.00164195
16 *443:6 *446:22 0
17 *444:14 *446:22 0
*RES
1 *1094:X *446:10 44.1303 
2 *446:10 *446:22 37.8808 
3 *446:22 *1304:A 20 
*END

*D_NET *447 0.0073655
*CONN
*I *1305:A I *D sg13g2_buf_1
*I *1095:X O *D sg13g2_buf_1
*CAP
1 *1305:A 0
2 *1095:X 0.00137886
3 *447:14 0.000684803
4 *447:6 0.00206367
5 *447:14 *459:14 0.000182121
6 *69:9 *447:6 0.000818797
7 *418:80 *447:14 0.000661995
8 *421:20 *447:6 0.00110954
9 *443:6 *447:14 0.00046572
10 *444:6 *447:6 0
11 *444:14 *447:14 0
12 *445:8 *447:6 0
*RES
1 *1095:X *447:6 34.1625 
2 *447:6 *447:14 47.931 
3 *447:14 *1305:A 20 
*END

*D_NET *448 0.00553725
*CONN
*I *1306:A I *D sg13g2_buf_1
*I *1096:X O *D sg13g2_buf_1
*CAP
1 *1306:A 0
2 *1096:X 0.00164921
3 *448:12 0.00164921
4 *448:12 *458:12 0.00223882
5 *1088:A *448:12 0
6 *67:9 *448:12 0
7 *89:20 *448:12 0
8 *441:6 *448:12 0
9 *446:22 *448:12 0
*RES
1 *1096:X *448:12 37.5971 
2 *448:12 *1306:A 20 
*END

*D_NET *449 0.00879907
*CONN
*I *1307:A I *D sg13g2_buf_1
*I *1097:X O *D sg13g2_buf_1
*CAP
1 *1307:A 0.000190476
2 *1097:X 0.00170524
3 *449:10 0.00117503
4 *449:6 0.0026898
5 *449:6 *455:6 0
6 *449:10 *456:12 0
7 *418:80 *449:10 0
8 *419:74 *449:10 0.000875776
9 *422:52 *449:10 0.00108937
10 *429:36 *449:6 0
11 *430:14 *449:6 0
12 *444:14 *1307:A 0.000304869
13 *445:16 *449:10 0.000768501
14 *446:22 *1307:A 0
*RES
1 *1097:X *449:6 35.244 
2 *449:6 *449:10 32.9574 
3 *449:10 *1307:A 42.0497 
*END

*D_NET *450 0.00458515
*CONN
*I *1308:A I *D sg13g2_buf_1
*I *1098:X O *D sg13g2_buf_1
*CAP
1 *1308:A 0
2 *1098:X 0.00103176
3 *450:14 0.00117022
4 *450:10 0.00220198
5 FrameData_O[19] *450:10 0
6 FrameData_O[21] *450:10 0
7 FrameData_O[22] *450:10 0
8 FrameData_O[25] *450:10 0
9 FrameData_O[26] *450:10 0
10 FrameData_O[28] *450:14 0.000181192
11 FrameData_O[30] *450:14 0
12 *1278:A *450:10 0
13 *1279:A *450:10 0
14 *1285:A *450:10 0
15 *42:10 *450:10 0
16 *58:10 *450:14 0
17 *419:74 *450:10 0
18 *422:52 *450:10 0
19 *426:24 *450:10 0
20 *430:20 *450:14 0
*RES
1 *1098:X *450:10 49.5378 
2 *450:10 *450:14 34.935 
3 *450:14 *1308:A 20 
*END

*D_NET *451 0.00335531
*CONN
*I *1309:A I *D sg13g2_buf_1
*I *1080:X O *D sg13g2_buf_1
*CAP
1 *1309:A 0.000171262
2 *1080:X 0.000339067
3 *451:8 0.000510329
4 *97:14 *1309:A 0
5 *101:10 *1309:A 0
6 *227:9 *451:8 0
7 *232:13 *451:8 0.00106982
8 *239:21 *451:8 0.00107234
9 *389:8 *1309:A 8.00425e-05
10 *393:10 *1309:A 0
11 *401:22 *1309:A 0.000112453
*RES
1 *1080:X *451:8 45.7886 
2 *451:8 *1309:A 41.6171 
*END

*D_NET *452 0.00519743
*CONN
*I *1310:A I *D sg13g2_buf_1
*I *1081:X O *D sg13g2_buf_1
*CAP
1 *1310:A 0
2 *1081:X 0.000249948
3 *452:12 0.00191655
4 *452:8 0.0021665
5 *452:8 *620:22 0
6 *452:12 *457:14 0
7 *452:12 *459:14 0.000112228
8 FrameStrobe_O[11] *452:12 0.000242186
9 *1088:A *452:12 0
10 *390:10 *452:12 0.000274555
11 *393:16 *452:8 0.00023547
12 *433:20 *452:8 0
13 *435:24 *452:8 0
*RES
1 *1081:X *452:8 42.8222 
2 *452:8 *452:12 37.1907 
3 *452:12 *1310:A 20 
*END

*D_NET *453 0.0305595
*CONN
*I *1038:D I *D sg13g2_dlhq_1
*I *1070:A I *D sg13g2_buf_1
*I *1006:D I *D sg13g2_dlhq_1
*I *974:D I *D sg13g2_dlhq_1
*I *1174:X O *D sg13g2_buf_1
*CAP
1 *1038:D 0.000237932
2 *1070:A 0
3 *1006:D 7.97149e-05
4 *974:D 4.72978e-05
5 *1174:X 0.00031553
6 *453:76 0.00115273
7 *453:61 0.00226716
8 *453:42 0.00220629
9 *453:36 0.0011719
10 *453:30 0.00100302
11 *453:22 0.00247027
12 *453:16 0.00187527
13 *453:10 0.00043799
14 *453:10 *482:30 0.000176484
15 *453:10 *572:16 0
16 *453:10 *572:30 0.000333344
17 *453:16 *491:42 1.54008e-05
18 *453:22 *1018:GATE 0.00127106
19 *453:22 *482:30 0.00117581
20 *453:22 *564:45 0
21 *453:30 *470:40 0.00124167
22 *453:30 *470:52 0.000391111
23 *453:30 *472:42 0.000448046
24 *453:30 *588:107 0.000553313
25 *453:42 *505:34 0.00199336
26 *453:61 *545:50 0
27 *453:61 *547:74 0.000626444
28 *453:61 *562:48 0
29 *453:61 *563:78 0.000809427
30 *453:61 *590:30 0
31 *453:61 *598:12 0.00224412
32 *453:76 *560:85 0
33 *453:76 *590:30 0
34 *453:76 *603:36 0
35 *453:76 *618:32 0.000126325
36 I_top0 *453:30 0
37 I_top3 *453:42 0
38 I_top9 *1006:D 0.00014454
39 *1193:A *453:10 1.54008e-05
40 *1226:A *1006:D 0.00014454
41 *2:17 *453:16 0.000208896
42 *21:21 *453:10 0
43 *117:8 *453:30 0.00235718
44 *174:13 *453:10 0
45 *180:9 *453:36 0
46 *206:13 *453:76 0
47 *308:14 *1038:D 0.000240377
48 *308:14 *453:76 0.000175693
49 *322:10 *453:22 7.9225e-05
50 *386:8 *453:16 0.000144169
51 *386:12 *453:22 0.00233072
52 *390:44 *453:42 0
53 *390:44 *453:61 4.77425e-05
54 *418:60 *453:61 0
*RES
1 *1174:X *453:10 43.2033 
2 *453:10 *453:16 41.4008 
3 *453:16 *453:22 39.7657 
4 *453:22 *453:30 33.6269 
5 *453:30 *453:36 42.4823 
6 *453:36 *453:42 31.948 
7 *453:42 *974:D 20.5974 
8 *453:42 *453:61 36.6448 
9 *453:61 *1006:D 40.9682 
10 *453:61 *453:76 26.9731 
11 *453:76 *1070:A 20 
12 *453:76 *1038:D 22.3999 
*END

*D_NET *454 0.00806885
*CONN
*I *1311:A I *D sg13g2_buf_1
*I *1082:X O *D sg13g2_buf_1
*CAP
1 *1311:A 0
2 *1082:X 0.00164914
3 *454:18 0.000362383
4 *454:10 0.00104261
5 *454:6 0.00232936
6 *454:6 *456:6 0
7 *454:18 *460:8 0.000209198
8 FrameStrobe_O[14] *454:18 0
9 FrameStrobe_O[15] *454:18 0
10 FrameStrobe_O[17] *454:18 8.00842e-05
11 *92:10 *454:18 0.00012816
12 *95:8 *454:10 0
13 *105:10 *454:18 0.000144284
14 *419:74 *454:10 0.00151453
15 *421:30 *454:10 0.000609105
16 *422:46 *454:6 0
17 *425:68 *454:6 0
18 *443:12 *454:10 0
*RES
1 *1082:X *454:6 35.8929 
2 *454:6 *454:10 30.4854 
3 *454:10 *454:18 43.7286 
4 *454:18 *1311:A 40 
*END

*D_NET *455 0.0102418
*CONN
*I *1312:A I *D sg13g2_buf_1
*I *1083:X O *D sg13g2_buf_1
*CAP
1 *1312:A 4.36575e-05
2 *1083:X 0.0014346
3 *455:10 0.00144087
4 *455:6 0.00283182
5 *1312:A *620:14 8.00842e-05
6 *392:10 *1312:A 8.00394e-05
7 *413:70 *455:6 0
8 *415:58 *455:10 0.00433073
9 *417:16 *455:10 0
10 *425:68 *455:6 0
11 *430:14 *455:6 0
12 *449:6 *455:6 0
*RES
1 *1083:X *455:6 32.8647 
2 *455:6 *455:10 40.1262 
3 *455:10 *1312:A 40.5356 
*END

*D_NET *456 0.00777214
*CONN
*I *1313:A I *D sg13g2_buf_1
*I *1084:X O *D sg13g2_buf_1
*CAP
1 *1313:A 0
2 *1084:X 0.00146437
3 *456:12 0.00128113
4 *456:6 0.0027455
5 *456:12 *459:14 0
6 *411:74 *456:6 0.000853991
7 *418:80 *456:12 0
8 *419:74 *456:12 0
9 *441:12 *456:12 0.000338954
10 *444:6 *456:6 0
11 *444:14 *456:12 0.0010882
12 *445:16 *456:12 0
13 *449:10 *456:12 0
14 *454:6 *456:6 0
*RES
1 *1084:X *456:6 27.2346 
2 *456:6 *456:12 32.7823 
3 *456:12 *1313:A 40 
*END

*D_NET *457 0.00618578
*CONN
*I *1314:A I *D sg13g2_buf_1
*I *1085:X O *D sg13g2_buf_1
*CAP
1 *1314:A 0
2 *1085:X 0.000326494
3 *457:14 0.00172721
4 *457:10 0.0020537
5 *457:14 *460:8 0
6 FrameStrobe_O[11] *457:14 0
7 FrameStrobe_O[14] *457:14 0.000242213
8 *1088:A *457:14 0
9 *67:9 *457:10 0
10 *68:17 *457:10 7.92524e-05
11 *433:20 *457:10 0.00114702
12 *435:24 *457:10 0
13 *441:6 *457:14 0
14 *445:16 *457:14 0
15 *446:10 *457:10 0.000609899
16 *452:12 *457:14 0
*RES
1 *1085:X *457:10 45.8298 
2 *457:10 *457:14 36.7581 
3 *457:14 *1314:A 20 
*END

*D_NET *458 0.00878607
*CONN
*I *1315:A I *D sg13g2_buf_1
*I *1086:X O *D sg13g2_buf_1
*CAP
1 *1315:A 0
2 *1086:X 0.000141684
3 *458:12 0.00167793
4 *458:8 0.00181961
5 FrameStrobe_O[17] *458:12 0
6 *89:20 *458:12 0.000209641
7 *92:10 *458:12 0.000209614
8 *435:24 *458:8 0
9 *440:18 *458:12 0.00194911
10 *446:10 *458:8 0.000396165
11 *446:22 *458:12 0.000143494
12 *448:12 *458:12 0.00223882
*RES
1 *1086:X *458:8 42.0806 
2 *458:8 *458:12 38.9211 
3 *458:12 *1315:A 20 
*END

*D_NET *459 0.00528258
*CONN
*I *1316:A I *D sg13g2_buf_1
*I *1087:X O *D sg13g2_buf_1
*CAP
1 *1316:A 0
2 *1087:X 0.00132338
3 *459:14 0.00091616
4 *459:6 0.00223954
5 *68:17 *459:6 0
6 *390:10 *459:14 0.000112561
7 *418:80 *459:14 0
8 *437:70 *459:6 0
9 *443:6 *459:6 0
10 *444:14 *459:14 0.000396583
11 *445:8 *459:6 0
12 *447:14 *459:14 0.000182121
13 *452:12 *459:14 0.000112228
14 *456:12 *459:14 0
*RES
1 *1087:X *459:6 25.4097 
2 *459:6 *459:14 48.0237 
3 *459:14 *1316:A 20 
*END

*D_NET *460 0.00411335
*CONN
*I *1317:A I *D sg13g2_buf_1
*I *1088:X O *D sg13g2_buf_1
*CAP
1 *1317:A 0
2 *1088:X 0.00110709
3 *460:8 0.00110709
4 FrameStrobe_O[17] *460:8 0.00024154
5 *441:6 *460:8 0.00136835
6 *445:16 *460:8 8.00842e-05
7 *454:18 *460:8 0.000209198
8 *457:14 *460:8 0
*RES
1 *1088:X *460:8 31.8512 
2 *460:8 *1317:A 20 
*END

*D_NET *461 0.0175034
*CONN
*I *1318:A I *D sg13g2_buf_1
*I *906:X O *D sg13g2_mux4_1
*CAP
1 *1318:A 0
2 *906:X 0
3 *461:44 0.000514355
4 *461:36 0.00113666
5 *461:26 0.00162008
6 *461:16 0.00278736
7 *461:10 0.00178958
8 *461:6 0
9 *461:16 *516:20 0.000489108
10 *461:16 *531:16 0.00258527
11 *461:16 *542:16 0.000662832
12 *461:16 *547:45 0
13 *461:16 *547:62 0
14 *461:16 *547:93 0
15 *461:16 *573:14 0
16 *461:16 *611:48 0.000109244
17 *461:26 *588:85 0.000177891
18 *461:36 *471:60 0.000241317
19 *461:36 *561:14 0.00168083
20 *461:36 *569:16 0
21 *461:44 *508:12 0.000129493
22 *461:44 *569:10 0
23 *461:44 *588:44 0.000499218
24 *461:44 *610:22 0
25 *13:13 *461:44 0
26 *107:42 *461:16 0
27 *176:13 *461:26 0.000388363
28 *180:13 *461:16 0.000396825
29 *180:25 *461:36 0.0010927
30 *345:14 *461:26 0.000489689
31 *349:12 *461:16 0.000646012
32 *357:20 *461:26 0
33 *361:20 *461:36 0
34 *413:16 *461:26 6.65632e-05
*RES
1 *906:X *461:6 40 
2 *461:6 *461:10 40 
3 *461:10 *461:16 40.8472 
4 *461:16 *461:26 48.6829 
5 *461:26 *461:36 49.7026 
6 *461:36 *461:44 45.0264 
7 *461:44 *1318:A 20 
*END

*D_NET *462 0.00650429
*CONN
*I *1319:A I *D sg13g2_buf_1
*I *905:X O *D sg13g2_mux4_1
*CAP
1 *1319:A 0.00067219
2 *905:X 0.000269492
3 *462:16 0.00169013
4 *462:10 0.00128743
5 *1319:A *470:52 0.000285749
6 *1319:A *568:12 0
7 *462:10 *924:A0 0.000912937
8 *462:10 *559:75 0.000913853
9 *462:16 *471:60 0
10 *462:16 *474:20 0
11 *905:S1 *462:10 7.92265e-05
12 *1197:A *1319:A 0
13 *178:23 *1319:A 0.000393284
*RES
1 *905:X *462:10 44.841 
2 *462:10 *462:16 46.8083 
3 *462:16 *1319:A 45.7886 
*END

*D_NET *463 0.0118
*CONN
*I *1320:A I *D sg13g2_buf_1
*I *896:X O *D sg13g2_mux4_1
*CAP
1 *1320:A 0
2 *896:X 7.44546e-05
3 *463:26 0.000212359
4 *463:20 0.00208844
5 *463:14 0.00208229
6 *463:8 0.000280669
7 *463:8 *592:14 0.000395981
8 *463:20 *541:60 0
9 *463:20 *546:124 0.000755685
10 *463:20 *546:126 0.00134942
11 *463:20 *556:142 0.000883835
12 *463:20 *556:153 0.000288723
13 *463:20 *587:10 0
14 *463:20 *600:20 0.000599732
15 *463:20 *606:10 0
16 *463:26 *468:22 0.000179473
17 *463:26 *517:14 0
18 *463:26 *584:68 7.51285e-05
19 *1226:A *463:14 0.00030487
20 *1236:A *463:20 0
21 *206:13 *463:14 0
22 *224:9 *463:20 0
23 *272:12 *463:8 0.00039514
24 *333:12 *463:26 0
25 *403:29 *463:20 0.00144035
26 *420:50 *463:20 0.000393407
*RES
1 *896:X *463:8 41.8334 
2 *463:8 *463:14 42.0497 
3 *463:14 *463:20 43.1338 
4 *463:20 *463:26 41.8334 
5 *463:26 *1320:A 20 
*END

*D_NET *464 0.0387012
*CONN
*I *975:D I *D sg13g2_dlhq_1
*I *1007:D I *D sg13g2_dlhq_1
*I *1039:D I *D sg13g2_dlhq_1
*I *1071:A I *D sg13g2_buf_1
*I *1175:X O *D sg13g2_buf_2
*CAP
1 *975:D 0
2 *1007:D 0
3 *1039:D 0.000250771
4 *1071:A 0.000298841
5 *1175:X 0.000102709
6 *464:86 0.000618279
7 *464:78 0.000951753
8 *464:72 0.00128747
9 *464:46 0.000549613
10 *464:44 0.00128654
11 *464:36 0.000905525
12 *464:32 0.0028214
13 *464:22 0.00286203
14 *464:16 0.00231031
15 *464:12 0.00311457
16 *464:8 0.00152058
17 *1071:A *477:8 0
18 *464:12 *488:78 0
19 *464:12 *538:12 0
20 *464:12 *539:16 0.0022934
21 *464:12 *543:14 0
22 *464:16 *527:22 0
23 *464:16 *539:30 0.00135822
24 *464:16 *561:14 0
25 *464:16 *577:38 0.00190647
26 *464:16 *577:75 0
27 *464:16 *579:16 0
28 *464:16 *579:18 0
29 *464:16 *588:58 0
30 *464:22 *547:24 7.78179e-05
31 *464:32 *466:12 4.76504e-05
32 *464:32 *480:18 0
33 *464:32 *502:22 0
34 *464:32 *513:46 0
35 *464:32 *538:30 0
36 *464:32 *550:92 0.000826042
37 *464:32 *551:25 0
38 *464:32 *555:35 0
39 *464:36 *581:46 0.00049916
40 *464:36 *581:63 0.00158706
41 *464:36 *603:40 0.000182519
42 *464:36 *603:52 0.00134602
43 *464:44 *898:A2 0.000112198
44 *464:44 *559:37 0.000127744
45 *464:72 *931:A1 0.000111378
46 *464:78 *538:72 7.30101e-05
47 *464:78 *549:33 7.98567e-05
48 *464:78 *560:85 0.000340396
49 *464:78 *618:32 0.000306245
50 *464:86 *1045:GATE 0
51 *464:86 *618:16 0
52 I_top9 *1039:D 8.00842e-05
53 *898:A3 *1071:A 0
54 *19:9 *464:8 0
55 *21:13 *464:8 0
56 *24:77 *464:86 0.000907364
57 *66:25 *464:72 0.000918807
58 *252:40 *464:78 0.000144542
59 *253:18 *464:32 0
60 *254:12 *464:72 0
61 *255:10 *464:44 0.000179113
62 *255:10 *464:72 0.000105719
63 *266:16 *464:22 0.000140671
64 *282:14 *464:78 0.000272718
65 *308:14 *464:72 0.000240377
66 *344:18 *464:32 0.000129007
67 *361:26 *464:16 0.00141712
68 *386:28 *464:44 0.000390551
69 *386:28 *464:72 2.17531e-05
70 *394:18 *464:86 0.00043822
71 *394:40 *464:32 0
72 *402:30 *464:72 7.48209e-05
73 *405:14 *464:12 0.00147976
74 *407:12 *464:22 0
75 *418:60 *464:86 0.000331005
76 *419:18 *464:22 0.000457876
77 *424:38 *464:72 0
78 *425:16 *464:16 0
79 *425:32 *464:36 0.000816096
80 *435:14 *464:86 0
*RES
1 *1175:X *464:8 40.8446 
2 *464:8 *464:12 37.1907 
3 *464:12 *464:16 43.0926 
4 *464:16 *464:22 45.0779 
5 *464:22 *464:32 39.5082 
6 *464:32 *464:36 31.227 
7 *464:36 *464:44 43.8831 
8 *464:44 *464:46 20 
9 *464:46 *1071:A 22.6986 
10 *464:46 *1039:D 22.6265 
11 *464:44 *464:72 49.1361 
12 *464:72 *464:78 24.1612 
13 *464:78 *464:86 47.0658 
14 *464:86 *1007:D 20 
15 *464:78 *975:D 20 
*END

*D_NET *465 0.00361947
*CONN
*I *1321:A I *D sg13g2_buf_1
*I *895:X O *D sg13g2_mux4_1
*CAP
1 *1321:A 0
2 *895:X 0.00121362
3 *465:12 0.00121362
4 *465:12 *891:A1 0.000240933
5 *465:12 *899:A0 0.000100674
6 *465:12 *983:GATE 0
7 *465:12 *552:149 0.00062668
8 *465:12 *571:61 8.00842e-05
9 *465:12 *573:30 0
10 *465:12 *609:43 0.000143864
*RES
1 *895:X *465:12 31.3506 
2 *465:12 *1321:A 20 
*END

*D_NET *466 0.0153421
*CONN
*I *1322:A I *D sg13g2_buf_1
*I *894:X O *D sg13g2_mux4_1
*CAP
1 *1322:A 0
2 *894:X 0
3 *466:22 0
4 *466:18 0.00175065
5 *466:12 0.00252048
6 *466:6 0.000769834
7 *466:12 *551:25 0
8 *466:18 *516:20 0.0030874
9 *466:18 *571:18 0
10 *466:18 *573:14 0.00607586
11 *434:20 *466:18 0.00109023
12 *464:32 *466:12 4.76504e-05
*RES
1 *894:X *466:6 40 
2 *466:6 *466:12 45.2942 
3 *466:12 *466:18 49.87 
4 *466:18 *466:22 40 
5 *466:22 *1322:A 20 
*END

*D_NET *467 0.0330318
*CONN
*I *1323:A I *D sg13g2_buf_1
*I *893:X O *D sg13g2_mux4_1
*CAP
1 *1323:A 0.000230558
2 *893:X 0.000331338
3 *467:56 0.000334918
4 *467:50 0.000740088
5 *467:46 0.00221532
6 *467:38 0.00242177
7 *467:30 0.00106506
8 *467:22 0.0014145
9 *467:14 0.00227124
10 *467:8 0.00141096
11 *467:8 *897:A0 0.000369743
12 *467:14 *496:30 0.000909945
13 *467:14 *557:48 0.0001122
14 *467:14 *558:24 0
15 *467:14 *576:34 0.000809385
16 *467:14 *586:28 0
17 *467:22 *546:112 0
18 *467:22 *546:124 0.000336222
19 *467:22 *547:82 0.000446386
20 *467:22 *558:61 0.000812264
21 *467:22 *576:75 0
22 *467:22 *587:16 0.00149787
23 *467:22 *601:24 0
24 *467:30 *483:38 0.000175693
25 *467:30 *612:20 0.000231339
26 *467:38 *479:18 0
27 *467:38 *519:28 0
28 *467:46 *492:16 0.000237891
29 *467:46 *541:52 0.000399911
30 *467:50 *531:16 0.00315561
31 *897:S0 *467:8 0
32 *159:18 *467:22 0.00144279
33 *160:36 *467:22 0
34 *166:14 *467:14 0.00154062
35 *207:13 *467:30 0.000175833
36 *250:10 *467:14 4.75166e-05
37 *283:8 *467:14 0
38 *288:14 *467:8 0.000530036
39 *313:12 *467:14 0.000180015
40 *321:18 *467:22 0.000605258
41 *343:8 *467:22 7.33256e-05
42 *375:18 *467:14 0.00102001
43 *397:26 *467:46 0.000585974
44 *399:34 *467:14 0
45 *403:29 *467:22 0
46 *403:29 *467:30 0
47 *406:50 *467:38 0
48 *410:50 *467:38 0.000113019
49 *415:46 *467:46 0.000431337
50 *416:30 *467:46 0
51 *418:66 *467:46 0
52 *419:36 *467:46 0
53 *420:38 *467:30 0.000390127
54 *427:12 *467:38 0.00109134
55 *428:64 *467:38 0
56 *428:72 *467:46 0
57 *434:16 *467:46 0.000743582
58 *434:20 *467:50 0
59 *439:38 *467:50 0.00213077
*RES
1 *893:X *467:8 43.5638 
2 *467:8 *467:14 34.9453 
3 *467:14 *467:22 37.0877 
4 *467:22 *467:30 43.0179 
5 *467:30 *467:38 48.6108 
6 *467:38 *467:46 34.1831 
7 *467:46 *467:50 34.4406 
8 *467:50 *467:56 40.9682 
9 *467:56 *1323:A 41.5606 
*END

*D_NET *468 0.0179716
*CONN
*I *1324:A I *D sg13g2_buf_1
*I *892:X O *D sg13g2_mux4_1
*CAP
1 *1324:A 0
2 *892:X 0
3 *468:28 0.00121781
4 *468:22 0.00143846
5 *468:16 0.00152732
6 *468:10 0.00130668
7 *468:6 0
8 *468:16 *483:20 0.000268868
9 *468:16 *523:18 0.00274843
10 *468:16 *530:20 0
11 *468:16 *619:22 0.00248447
12 *468:22 *517:14 0.000654305
13 *468:28 *967:D 8.0039e-05
14 *468:28 *1046:GATE 0
15 *468:28 *477:18 0.00193445
16 *468:28 *546:155 0.000239997
17 *468:28 *549:82 0.000433075
18 *468:28 *571:36 0
19 *468:28 *603:24 0.00036944
20 *66:13 *468:28 0.000128662
21 *120:8 *468:28 0
22 *253:36 *468:16 0.000934751
23 *333:12 *468:22 0
24 *354:10 *468:28 0.000448428
25 *391:20 *468:16 0.000129113
26 *405:118 *468:16 0
27 *416:48 *468:28 0.0010835
28 *424:56 *468:16 0.000364364
29 *463:26 *468:22 0.000179473
*RES
1 *892:X *468:6 40 
2 *468:6 *468:10 40 
3 *468:10 *468:16 40.3219 
4 *468:16 *468:22 43.0694 
5 *468:22 *468:28 36.6757 
6 *468:28 *1324:A 40 
*END

*D_NET *469 0.00234562
*CONN
*I *1325:A I *D sg13g2_buf_1
*I *891:X O *D sg13g2_mux4_1
*CAP
1 *1325:A 0.000447405
2 *891:X 0.000406007
3 *469:10 0.000853412
4 *1325:A *620:22 0
5 *469:10 *549:113 0
6 *891:S1 *469:10 0
7 *954:S *469:10 4.77425e-05
8 *1119:A *1325:A 0
9 *393:33 *469:10 0.000447702
10 *404:8 *1325:A 0.000143351
11 *430:10 *469:10 0
*RES
1 *891:X *469:10 44.1303 
2 *469:10 *1325:A 43.7801 
*END

*D_NET *470 0.0239244
*CONN
*I *1326:A I *D sg13g2_buf_1
*I *904:X O *D sg13g2_mux4_1
*CAP
1 *1326:A 0.00017825
2 *904:X 0.000184845
3 *470:52 0.000857553
4 *470:40 0.0033759
5 *470:28 0.00292629
6 *470:22 0.00135059
7 *470:16 0.00119467
8 *470:10 0.000258616
9 *1326:A *472:42 7.49633e-05
10 *470:10 *576:75 0.000240377
11 *470:10 *583:14 7.30101e-05
12 *470:16 *533:22 0.000109244
13 *470:22 *500:28 0.000109244
14 *470:22 *530:28 0.000450683
15 *470:22 *532:22 0.000824279
16 *470:22 *533:26 0
17 *470:22 *594:20 0.000396243
18 *470:28 *534:14 0.000932816
19 *470:40 *480:18 0.000236209
20 *470:40 *480:28 0.00115303
21 *470:40 *515:26 0
22 *470:40 *547:43 0.000487621
23 *470:40 *558:91 0
24 *470:40 *577:75 0.000140671
25 *470:52 *472:42 8.00842e-05
26 *470:52 *568:12 0.000445305
27 I_top0 *470:40 0.00118624
28 N2BEGb[6] *470:22 0
29 *1197:A *1326:A 0.000393275
30 *1319:A *470:52 0.000285749
31 *114:26 *470:40 0.000283568
32 *118:8 *470:52 0.000181646
33 *145:22 *470:28 0
34 *151:32 *470:22 0.000266377
35 *151:38 *470:22 0
36 *155:24 *470:28 0.000664279
37 *166:20 *470:22 0
38 *178:23 *470:52 0.0007649
39 *184:17 *1326:A 0.000112426
40 *186:11 *1326:A 0.000503123
41 *269:8 *470:52 0.000391638
42 *359:12 *470:10 7.30101e-05
43 *359:16 *470:22 0.000663596
44 *400:38 *470:16 0.000109244
45 *403:41 *470:40 0.000332045
46 *407:12 *470:40 0
47 *410:26 *470:40 0
48 *453:30 *470:40 0.00124167
49 *453:30 *470:52 0.000391111
*RES
1 *904:X *470:10 41.9673 
2 *470:10 *470:16 40.7519 
3 *470:16 *470:22 32.5042 
4 *470:22 *470:28 44.3054 
5 *470:28 *470:40 46.0384 
6 *470:40 *470:52 49.3159 
7 *470:52 *1326:A 43.0797 
*END

*D_NET *471 0.0373424
*CONN
*I *1327:A I *D sg13g2_buf_1
*I *903:X O *D sg13g2_mux4_1
*CAP
1 *1327:A 0
2 *903:X 0.000796185
3 *471:68 0.000303401
4 *471:60 0.00243505
5 *471:50 0.00336903
6 *471:44 0.00165344
7 *471:36 0.00109673
8 *471:32 0.00230287
9 *471:26 0.00211893
10 *471:18 0.00163753
11 *471:12 0.00193698
12 *471:12 *975:GATE 0
13 *471:12 *488:30 0
14 *471:12 *543:60 0.00018128
15 *471:12 *545:88 0.000283268
16 *471:18 *505:18 0.000176837
17 *471:18 *533:10 0.000241052
18 *471:18 *541:71 0
19 *471:18 *580:73 4.77425e-05
20 *471:26 *476:40 0
21 *471:26 *514:10 0
22 *471:26 *514:16 0
23 *471:26 *592:14 0.000552068
24 *471:32 *479:30 0
25 *471:32 *488:46 0.000769806
26 *471:32 *492:28 0
27 *471:32 *514:22 0
28 *471:32 *567:62 8.45428e-05
29 *471:32 *600:30 0.000396472
30 *471:36 *520:36 0.00131455
31 *471:36 *567:62 0.00242777
32 *471:44 *480:28 0.000172097
33 *471:44 *492:28 0.000823506
34 *471:44 *526:28 0.000289134
35 *471:60 *474:20 0
36 *471:60 *512:12 0
37 *471:60 *517:48 0.00184477
38 *471:60 *529:10 0
39 *471:60 *538:30 0
40 *471:60 *538:91 0
41 *471:60 *556:28 0.000528013
42 *471:60 *564:26 0.000302598
43 *471:60 *564:41 0.00019145
44 *903:S1 *471:12 0.000240377
45 *1114:A *471:68 0.000240377
46 *1125:A *471:18 0
47 *24:33 *471:50 0.000613327
48 *24:33 *471:60 0.0011976
49 *77:23 *471:26 0.000390483
50 *144:30 *471:36 0
51 *148:16 *471:50 0
52 *149:18 *471:60 0
53 *172:14 *471:44 0
54 *189:19 *471:68 0.000445943
55 *224:9 *471:18 0
56 *261:8 *471:12 0
57 *272:12 *471:26 2.19989e-05
58 *275:10 *471:12 0.000495775
59 *363:8 *471:68 0.000342666
60 *373:24 *471:60 0
61 *388:16 *471:26 7.90769e-05
62 *388:35 *471:26 0.000208097
63 *391:28 *471:18 0
64 *395:20 *471:26 0.00027191
65 *420:46 *471:18 0
66 *421:14 *471:12 0
67 *428:18 *471:60 0
68 *436:10 *471:12 0.000920048
69 *437:46 *471:32 0.00335633
70 *461:36 *471:60 0.000241317
71 *462:16 *471:60 0
*RES
1 *903:X *471:12 49.4554 
2 *471:12 *471:18 49.5322 
3 *471:18 *471:26 45.7062 
4 *471:26 *471:32 42.3922 
5 *471:32 *471:36 31.227 
6 *471:36 *471:44 44.9955 
7 *471:44 *471:50 48.755 
8 *471:50 *471:60 42.1038 
9 *471:60 *471:68 43.914 
10 *471:68 *1327:A 20 
*END

*D_NET *472 0.0191333
*CONN
*I *1328:A I *D sg13g2_buf_1
*I *902:X O *D sg13g2_mux4_1
*CAP
1 *1328:A 0
2 *902:X 0.000389902
3 *472:42 0.0004727
4 *472:34 0.00172442
5 *472:28 0.00196214
6 *472:16 0.00100402
7 *472:10 0.000683498
8 *472:10 *559:37 0.00144861
9 *472:16 *559:41 0
10 *472:28 *965:GATE 0.000144542
11 *472:28 *547:126 0.000144542
12 *472:28 *562:22 0.00112021
13 *472:28 *574:14 0.00075075
14 *472:28 *574:26 0
15 *472:28 *580:38 0
16 *472:28 *598:12 0
17 *472:28 *598:29 0.000282464
18 *472:28 *599:40 2.20966e-05
19 *472:34 *1010:D 0.000124547
20 *472:34 *498:51 7.30101e-05
21 *472:34 *559:69 0
22 *472:34 *562:22 0
23 *472:34 *577:67 0.000112198
24 *894:S1 *472:16 0.000202784
25 *1048:A *472:34 0.000272718
26 *1326:A *472:42 7.49633e-05
27 *117:8 *472:42 0.00151361
28 *178:23 *472:42 0.00124567
29 *186:11 *472:42 0
30 *323:10 *472:10 0.00011101
31 *357:8 *472:28 0
32 *357:8 *472:34 0.00112472
33 *361:8 *472:28 0.000496484
34 *376:14 *472:34 0.000543031
35 *386:28 *472:10 0.000866791
36 *394:52 *472:34 0.00102065
37 *424:26 *472:34 0.000124859
38 *424:32 *472:10 0.000548277
39 *453:30 *472:42 0.000448046
40 *470:52 *472:42 8.00842e-05
*RES
1 *902:X *472:10 47.5293 
2 *472:10 *472:16 42.4823 
3 *472:16 *472:28 49.6511 
4 *472:28 *472:34 34.6672 
5 *472:34 *472:42 49.0434 
6 *472:42 *1328:A 20 
*END

*D_NET *473 0.0107167
*CONN
*I *1329:A I *D sg13g2_buf_1
*I *901:X O *D sg13g2_mux4_1
*CAP
1 *1329:A 0
2 *901:X 9.42182e-05
3 *473:24 7.02262e-05
4 *473:18 0.00056214
5 *473:12 0.00246012
6 *473:8 0.00206243
7 *473:12 *484:24 0
8 *473:12 *498:51 0.00090029
9 *473:12 *550:84 0
10 *473:12 *588:58 4.63914e-05
11 *473:12 *607:51 0
12 *473:18 *542:16 0.00210538
13 *473:18 *573:14 0
14 *107:38 *473:12 0
15 *116:12 *473:24 1.54008e-05
16 *133:30 *473:12 0.000173705
17 *158:28 *473:12 0.000835718
18 *180:13 *473:18 0.001102
19 *189:19 *473:24 0.000112426
20 *266:16 *473:12 0
21 *399:34 *473:8 0.000176239
*RES
1 *901:X *473:8 40.8446 
2 *473:8 *473:12 35.6766 
3 *473:12 *473:18 49.7438 
4 *473:18 *473:24 40.7519 
5 *473:24 *1329:A 20 
*END

*D_NET *474 0.0158343
*CONN
*I *1330:A I *D sg13g2_buf_1
*I *900:X O *D sg13g2_mux4_1
*CAP
1 *1330:A 0
2 *900:X 0.000583648
3 *474:24 0
4 *474:20 0.00221939
5 *474:14 0.00301344
6 *474:8 0.0013777
7 *474:8 *554:58 0
8 *474:8 *586:28 0.00065359
9 *474:14 *493:16 0.000393991
10 *474:14 *535:26 0
11 *474:20 *480:18 0.00082384
12 *474:20 *522:14 0.000617102
13 *474:20 *527:32 0
14 *474:20 *535:44 0
15 *474:20 *538:30 7.78179e-05
16 *474:20 *538:91 4.6693e-05
17 *474:20 *555:12 0.00253475
18 *474:20 *555:35 0.000563108
19 *474:20 *569:22 0.00141121
20 *251:12 *474:8 0.000548872
21 *415:40 *474:8 0.000969136
22 *423:28 *474:8 0
23 *425:22 *474:20 0
24 *437:14 *474:14 0
25 *462:16 *474:20 0
26 *471:60 *474:20 0
*RES
1 *900:X *474:8 48.0134 
2 *474:8 *474:14 45.7268 
3 *474:14 *474:20 45.4822 
4 *474:20 *474:24 40 
5 *474:24 *1330:A 20 
*END

*D_NET *475 0.0173074
*CONN
*I *976:D I *D sg13g2_dlhq_1
*I *1008:D I *D sg13g2_dlhq_1
*I *1040:D I *D sg13g2_dlhq_1
*I *1072:A I *D sg13g2_buf_1
*I *1176:X O *D sg13g2_buf_1
*CAP
1 *976:D 4.90272e-05
2 *1008:D 0.000267623
3 *1040:D 0.000160802
4 *1072:A 5.04857e-05
5 *1176:X 0.000305296
6 *475:50 0.000417861
7 *475:39 0.0015296
8 *475:24 0.00216153
9 *475:22 0.00114875
10 *976:D *558:18 0.000104836
11 *1040:D *943:A1 0.000240377
12 *1072:A *504:12 8.00842e-05
13 *475:22 *572:16 0
14 *475:22 *588:10 0
15 *475:24 *486:10 0.000335137
16 *475:24 *486:23 0.00126836
17 *475:24 *487:12 0
18 *475:24 *509:8 7.44263e-05
19 *475:24 *575:24 7.30101e-05
20 *475:39 *486:23 0.0001787
21 *475:39 *505:58 0.00133187
22 *475:39 *519:36 0.000277118
23 *475:39 *558:18 0.000441662
24 *475:39 *570:24 0
25 *475:50 *558:18 0.000312215
26 *927:S *1040:D 0.000272718
27 *943:S *1008:D 1.54008e-05
28 *21:21 *475:22 0.000145116
29 *23:23 *475:22 0
30 *121:20 *1008:D 0.000335729
31 *163:14 *976:D 0
32 *163:14 *475:50 0
33 *266:16 *475:39 2.57683e-05
34 *362:14 *475:24 0.00076383
35 *362:14 *475:39 0.00125713
36 *378:16 *475:39 0
37 *415:26 *475:39 0.00211288
38 *415:26 *475:50 0.000229431
39 *415:32 *1008:D 0
40 *418:40 *475:39 0.00129277
41 *424:10 *475:24 0
42 *442:10 *475:22 4.78498e-05
*RES
1 *1176:X *475:22 43.5947 
2 *475:22 *475:24 9.7438 
3 *475:24 *1072:A 40.5356 
4 *475:24 *475:39 19.8069 
5 *475:39 *1040:D 41.8334 
6 *475:39 *475:50 1.5862 
7 *475:50 *1008:D 42.6162 
8 *475:50 *976:D 40.5974 
*END

*D_NET *476 0.0363274
*CONN
*I *1331:A I *D sg13g2_buf_1
*I *899:X O *D sg13g2_mux4_1
*CAP
1 *1331:A 0
2 *899:X 0.000100144
3 *476:64 0.00165881
4 *476:56 0.00191843
5 *476:46 0.00249553
6 *476:40 0.00365569
7 *476:28 0.00195055
8 *476:18 0.00218255
9 *476:10 0.00175192
10 *476:10 *603:36 0
11 *476:18 *488:24 0.000523791
12 *476:18 *546:149 0.000872756
13 *476:18 *603:16 0
14 *476:28 *500:14 0
15 *476:28 *532:22 0.000610265
16 *476:28 *541:79 0.00066425
17 *476:28 *615:20 0
18 *476:40 *492:24 0.000273168
19 *476:40 *514:16 0
20 *476:40 *514:22 0.00415574
21 *476:40 *514:34 0
22 *476:40 *600:26 0.00362092
23 *476:46 *480:38 0.00125212
24 *476:46 *514:34 0.00377423
25 *476:46 *526:28 0.00105239
26 *476:46 *534:20 0.000549564
27 *476:46 *541:24 0
28 *476:56 *488:70 0.00018241
29 *476:64 *505:58 0
30 *476:64 *517:42 0.00092885
31 *476:64 *531:36 0
32 *476:64 *569:22 0
33 *106:22 *476:64 0
34 *107:24 *476:56 0.000182786
35 *108:10 *476:10 4.77425e-05
36 *167:14 *476:40 0.000334141
37 *167:14 *476:46 0
38 *216:11 *476:18 4.669e-05
39 *252:50 *476:10 0
40 *282:36 *476:10 4.77425e-05
41 *290:16 *476:64 7.78179e-05
42 *388:35 *476:40 0.000144946
43 *394:18 *476:10 0.000177894
44 *405:118 *476:18 0
45 *409:34 *476:64 0.000109244
46 *418:28 *476:56 0
47 *418:28 *476:64 0
48 *437:34 *476:46 0.000984291
49 *437:46 *476:28 0
50 *437:60 *476:18 0
51 *471:26 *476:40 0
*RES
1 *899:X *476:10 41.1639 
2 *476:10 *476:18 34.6775 
3 *476:18 *476:28 47.6941 
4 *476:28 *476:40 45.5955 
5 *476:40 *476:46 47.501 
6 *476:46 *476:56 42.6265 
7 *476:56 *476:64 32.8853 
8 *476:64 *1331:A 40 
*END

*D_NET *477 0.0124979
*CONN
*I *1332:A I *D sg13g2_buf_1
*I *898:X O *D sg13g2_mux4_1
*CAP
1 *1332:A 0
2 *898:X 0.000188293
3 *477:18 0.00223228
4 *477:8 0.00242057
5 *477:18 *931:A1 0.000181798
6 *477:18 *579:34 0
7 *477:18 *579:45 0
8 *477:18 *603:40 0.00028632
9 *477:18 *620:28 0.00214752
10 I_top9 *477:8 0
11 *1071:A *477:8 0
12 *66:13 *477:18 0
13 *246:14 *477:18 0
14 *282:24 *477:18 0.00158232
15 *308:22 *477:18 0
16 *354:10 *477:18 0
17 *383:8 *477:18 0
18 *386:61 *477:18 0
19 *390:18 *477:18 0
20 *397:46 *477:18 0
21 *404:14 *477:18 0.000181695
22 *412:10 *477:18 0
23 *425:52 *477:18 0.00134267
24 *468:28 *477:18 0.00193445
*RES
1 *898:X *477:8 41.6171 
2 *477:8 *477:18 48.9945 
3 *477:18 *1332:A 20 
*END

*D_NET *478 0.00534333
*CONN
*I *1333:A I *D sg13g2_buf_1
*I *897:X O *D sg13g2_mux4_1
*CAP
1 *1333:A 0
2 *897:X 0.00145194
3 *478:16 0.000208556
4 *478:10 0.00166049
5 *478:10 *544:104 0
6 *478:10 *547:126 5.33868e-05
7 *478:10 *595:22 0
8 *478:16 *499:40 0.000287846
9 *478:16 *568:54 0
10 *897:S1 *478:10 0.000170977
11 *119:10 *478:16 0.000177652
12 *394:52 *478:10 0.000626948
13 *413:16 *478:10 0
14 *419:26 *478:16 0.000705541
*RES
1 *897:X *478:10 33.2715 
2 *478:10 *478:16 43.3166 
3 *478:16 *1333:A 20 
*END

*D_NET *479 0.0353766
*CONN
*I *1334:A I *D sg13g2_buf_1
*I *1099:X O *D sg13g2_buf_1
*CAP
1 *1334:A 4.37077e-05
2 *1099:X 0
3 *479:72 0.000679121
4 *479:64 0.00244258
5 *479:56 0.00212585
6 *479:48 0.00120703
7 *479:42 0.00129924
8 *479:36 0.000489305
9 *479:30 0.00234604
10 *479:24 0.0024771
11 *479:18 0.00308066
12 *479:12 0.0034912
13 *479:6 0.000620007
14 *1334:A *1340:A 8.00842e-05
15 *479:12 *535:12 0
16 *479:18 *533:16 7.78179e-05
17 *479:18 *586:14 0
18 *479:18 *607:22 0
19 *479:30 *514:22 0
20 *479:30 *567:62 0.0002363
21 *479:30 *596:14 0
22 *479:42 *547:82 0.00036963
23 *479:48 *558:24 0.00028494
24 *479:56 *496:38 0.000663467
25 *479:64 *480:38 0
26 *479:64 *492:28 0
27 *479:64 *496:56 0
28 *479:64 *520:30 0
29 *479:64 *520:36 0
30 *479:64 *534:28 0
31 *479:64 *567:62 0.000770158
32 *479:72 *488:78 0
33 *479:72 *496:56 7.97448e-05
34 *479:72 *500:54 0
35 *479:72 *501:30 0
36 *479:72 *511:20 0
37 *479:72 *515:52 0
38 *479:72 *541:14 0.000145601
39 N2BEGb[2] *479:48 0.000331005
40 *16:9 *1334:A 8.00842e-05
41 *130:20 *479:72 7.30101e-05
42 *139:14 *479:72 0
43 *140:12 *479:72 0.000439105
44 *141:20 *479:56 0.000299486
45 *143:12 *479:64 0
46 *146:22 *479:56 0.000663467
47 *147:20 *479:64 0.00221044
48 *149:34 *479:48 0.000489454
49 *152:24 *479:56 0.000299486
50 *167:14 *479:30 0.000342986
51 *168:32 *479:36 0.00039125
52 *170:28 *479:48 0.000652193
53 *171:20 *479:48 1.4965e-05
54 *171:26 *479:48 0
55 *192:11 *479:36 0.000396993
56 *193:17 *479:30 0.00130127
57 *207:13 *479:24 0.000752202
58 *321:10 *479:42 0.000111042
59 *385:18 *479:42 0
60 *398:8 *479:72 0.000231017
61 *408:58 *479:18 0
62 *410:56 *479:18 0
63 *413:58 *479:12 0
64 *415:40 *479:24 0.000804051
65 *418:72 *479:12 0.000244088
66 *423:44 *479:18 0
67 *425:62 *479:12 0
68 *427:12 *479:18 0
69 *428:56 *479:48 0.00107445
70 *428:64 *479:18 0
71 *431:47 *479:48 0.00116496
72 *436:16 *479:12 0
73 *467:38 *479:18 0
74 *471:32 *479:30 0
*RES
1 *1099:X *479:6 40 
2 *479:6 *479:12 45.5105 
3 *479:12 *479:18 44.5861 
4 *479:18 *479:24 43.811 
5 *479:24 *479:30 41.218 
6 *479:30 *479:36 41.8334 
7 *479:36 *479:42 43.7801 
8 *479:42 *479:48 32.1643 
9 *479:48 *479:56 45.1191 
10 *479:56 *479:64 40.5485 
11 *479:64 *479:72 47.0349 
12 *479:72 *1334:A 40.5356 
*END

*D_NET *480 0.0222081
*CONN
*I *1335:A I *D sg13g2_buf_1
*I *1100:X O *D sg13g2_buf_1
*CAP
1 *1335:A 0
2 *1100:X 0
3 *480:44 0.00024663
4 *480:38 0.00234059
5 *480:28 0.00372474
6 *480:24 0.00168359
7 *480:18 0.00143428
8 *480:12 0.00141342
9 *480:6 3.19475e-05
10 *480:12 *590:51 4.71779e-05
11 *480:18 *513:46 0
12 *480:18 *518:14 0
13 *480:18 *527:12 0
14 *480:18 *555:35 0
15 *480:18 *556:88 0.00156543
16 *480:28 *515:26 0.00064925
17 *480:38 *500:54 0
18 *480:38 *520:30 0
19 *480:38 *538:12 0
20 *480:38 *565:30 0
21 *19:9 *480:44 0
22 *22:11 *480:44 0
23 *23:23 *480:44 0.000371022
24 *137:18 *480:28 0
25 *139:18 *480:38 0
26 *158:32 *480:18 0
27 *167:14 *480:38 0.00339471
28 *410:26 *480:18 0.00023495
29 *414:14 *480:24 0.000129113
30 *414:26 *480:18 0.00130392
31 *464:32 *480:18 0
32 *470:40 *480:18 0.000236209
33 *470:40 *480:28 0.00115303
34 *471:44 *480:28 0.000172097
35 *474:20 *480:18 0.00082384
36 *476:46 *480:38 0.00125212
37 *479:64 *480:38 0
*RES
1 *1100:X *480:6 40 
2 *480:6 *480:12 40.3193 
3 *480:12 *480:18 38.0353 
4 *480:18 *480:24 40.5974 
5 *480:24 *480:28 33.2973 
6 *480:28 *480:38 48.7164 
7 *480:38 *480:44 42.4823 
8 *480:44 *1335:A 20 
*END

*D_NET *481 0.00314066
*CONN
*I *1336:A I *D sg13g2_buf_1
*I *1101:X O *D sg13g2_buf_1
*CAP
1 *1336:A 9.70226e-05
2 *1101:X 0.000598332
3 *481:10 0.000695355
4 *1336:A *1341:A 0.000177184
5 *481:10 *1359:A 4.75151e-05
6 *481:10 *1369:A 4.75151e-05
7 *481:10 *491:42 0
8 *481:10 *503:8 0.000288121
9 *481:10 *511:14 0
10 *481:10 *528:8 0.000125015
11 *481:10 *544:20 0
12 *481:10 *544:26 0.000182216
13 *22:19 *1336:A 0.000176484
14 *24:25 *481:10 0.000705898
15 *348:12 *481:10 0
*RES
1 *1101:X *481:10 46.3551 
2 *481:10 *1336:A 41.1845 
*END

*D_NET *482 0.00623292
*CONN
*I *1337:A I *D sg13g2_buf_1
*I *1102:X O *D sg13g2_buf_1
*CAP
1 *1337:A 0
2 *1102:X 0.000533343
3 *482:30 0.00140436
4 *482:14 0.00193771
5 *482:14 *924:A0 4.75151e-05
6 *482:14 *487:12 0
7 *482:14 *556:36 0.00014454
8 *482:14 *564:26 4.76977e-05
9 *482:30 *1341:A 0
10 *482:30 *491:42 0
11 *482:30 *498:20 0
12 *482:30 *521:20 1.53931e-05
13 *482:30 *531:71 0.000332501
14 *482:30 *563:8 4.78772e-05
15 *482:30 *563:26 0
16 *482:30 *572:30 0
17 *924:S *482:14 0
18 *1065:A *482:30 0.000112426
19 *1174:A *482:30 0
20 *1193:A *482:30 0.000112507
21 *2:17 *482:30 0
22 *125:16 *482:30 0
23 *431:18 *482:30 0.00014476
24 *439:14 *482:30 0
25 *453:10 *482:30 0.000176484
26 *453:22 *482:30 0.00117581
*RES
1 *1102:X *482:14 45.0161 
2 *482:14 *482:30 34.6493 
3 *482:30 *1337:A 20 
*END

*D_NET *483 0.0374618
*CONN
*I *1338:A I *D sg13g2_buf_1
*I *1103:X O *D sg13g2_buf_1
*CAP
1 *1338:A 0.000150112
2 *1103:X 3.39844e-05
3 *483:64 0.000150112
4 *483:60 0.000676246
5 *483:52 0.00215264
6 *483:48 0.00400266
7 *483:38 0.00289413
8 *483:32 0.00159477
9 *483:26 0.00173655
10 *483:20 0.00194573
11 *483:14 0.00151517
12 *483:8 0.000113065
13 *1338:A *539:12 0.000273652
14 *483:14 *502:12 0
15 *483:20 *578:28 0.000431482
16 *483:32 *499:8 0.00064581
17 *483:32 *509:59 0
18 *483:32 *541:52 0
19 *483:32 *554:35 0.000596223
20 *483:32 *580:73 7.35141e-05
21 *483:32 *600:12 0
22 *483:48 *964:GATE 0.000143926
23 *483:48 *520:59 0
24 *483:48 *544:85 0.000304759
25 *483:48 *546:98 0.00033428
26 *483:48 *546:102 0.00134547
27 *483:48 *558:45 0.000602806
28 *483:48 *572:56 0
29 *483:48 *572:96 0.00044022
30 *483:48 *587:16 0
31 *483:48 *592:14 0
32 *483:48 *596:18 0
33 *483:52 *1025:GATE 0
34 *483:52 *506:10 0
35 *483:52 *529:16 0.000124547
36 *483:52 *532:42 0
37 *483:52 *533:38 0.00159083
38 *483:52 *557:74 0
39 *483:60 *500:48 0.0011487
40 *483:60 *529:10 0.000333306
41 *483:60 *565:30 0.000365525
42 N1BEG[1] *483:52 0
43 N2BEG[5] *483:52 0.00319436
44 N4BEG[2] *483:48 0.000698908
45 *1210:A *483:48 4.77425e-05
46 *21:13 *1338:A 0.000273415
47 *138:20 *483:52 0.000176083
48 *140:20 *483:60 0
49 *158:8 *483:52 0
50 *170:28 *483:48 0
51 *171:26 *483:48 0.00137666
52 *173:22 *483:48 0
53 *190:9 *483:52 7.51285e-05
54 *207:13 *483:32 0
55 *207:13 *483:38 0
56 *208:9 *483:38 0.000401668
57 *253:36 *483:20 0
58 *272:12 *483:48 0
59 *296:10 *483:48 0.000864104
60 *300:8 *483:48 0.000496421
61 *403:14 *483:32 0.000180006
62 *405:118 *483:20 0
63 *406:58 *483:26 0
64 *410:62 *483:26 0
65 *415:46 *483:32 0.000587982
66 *425:56 *483:20 0.00280238
67 *428:72 *483:26 7.56869e-05
68 *428:72 *483:32 4.64344e-05
69 *431:35 *483:52 0
70 *438:12 *483:20 0
71 *467:30 *483:38 0.000175693
72 *468:16 *483:20 0.000268868
*RES
1 *1103:X *483:8 40.3193 
2 *483:8 *483:14 40.5356 
3 *483:14 *483:20 38.4679 
4 *483:20 *483:26 44.5526 
5 *483:26 *483:32 31.5463 
6 *483:32 *483:38 43.5638 
7 *483:38 *483:48 48.8709 
8 *483:48 *483:52 39.1374 
9 *483:52 *483:60 48.7653 
10 *483:60 *483:64 40 
11 *483:64 *1338:A 41.8334 
*END

*D_NET *484 0.0209455
*CONN
*I *1339:A I *D sg13g2_buf_1
*I *1104:X O *D sg13g2_buf_1
*CAP
1 *1339:A 0
2 *1104:X 8.11152e-05
3 *484:40 0
4 *484:36 0.000881449
5 *484:30 0.00169798
6 *484:24 0.00363848
7 *484:14 0.0034881
8 *484:8 0.000747269
9 *484:8 *562:48 0.000180021
10 *484:14 *543:46 0
11 *484:14 *579:28 0
12 *484:14 *590:51 0.000301623
13 *484:14 *611:34 0.000143113
14 *484:24 *502:14 0
15 *484:24 *531:16 0
16 *484:24 *550:84 0
17 *484:24 *578:22 0
18 *484:30 *543:20 0
19 *484:30 *555:12 0.00205302
20 *484:36 *488:70 0.00142517
21 *484:36 *527:32 0.000523282
22 *107:24 *484:36 0.00142546
23 *107:42 *484:24 0.00177894
24 *115:20 *484:24 0.000519047
25 *118:20 *484:24 0.000884152
26 *118:30 *484:14 0
27 *343:12 *484:14 0
28 *344:18 *484:30 0
29 *409:44 *484:14 0
30 *419:18 *484:24 0
31 *425:44 *484:24 0.000555644
32 *442:41 *484:36 0.000621635
33 *473:12 *484:24 0
*RES
1 *1104:X *484:8 40.8446 
2 *484:8 *484:14 45.2942 
3 *484:14 *484:24 47.7276 
4 *484:24 *484:30 49.4966 
5 *484:30 *484:36 32.257 
6 *484:36 *484:40 40 
7 *484:40 *1339:A 40 
*END

*D_NET *485 0.00348974
*CONN
*I *1340:A I *D sg13g2_buf_1
*I *1105:X O *D sg13g2_buf_1
*CAP
1 *1340:A 0.000232154
2 *1105:X 0.000428254
3 *485:14 0.000660408
4 *485:14 *1345:A 0
5 *485:14 *497:24 0.000439758
6 *485:14 *521:10 0.000177481
7 *485:14 *566:20 0.000388662
8 *1129:A *485:14 7.9225e-05
9 *1172:A *1340:A 8.00842e-05
10 *1334:A *1340:A 8.00842e-05
11 *16:9 *1340:A 0
12 *22:19 *485:14 0.000540849
13 *122:28 *1340:A 0.000238421
14 *130:20 *1340:A 0.00014436
*RES
1 *1105:X *485:14 45.7268 
2 *485:14 *1340:A 42.4823 
*END

*D_NET *486 0.00577691
*CONN
*I *1041:D I *D sg13g2_dlhq_1
*I *977:D I *D sg13g2_dlhq_1
*I *1009:D I *D sg13g2_dlhq_1
*I *1073:A I *D sg13g2_buf_1
*I *1177:X O *D sg13g2_buf_1
*CAP
1 *1041:D 0
2 *977:D 0.000159294
3 *1009:D 0.000517281
4 *1073:A 3.76092e-05
5 *1177:X 0.000215057
6 *486:34 0.000192267
7 *486:23 0.00105251
8 *486:10 0.000754922
9 *977:D *570:18 0.000177042
10 *1009:D *575:30 0
11 *486:10 *1341:A 8.00842e-05
12 *486:10 *544:20 0
13 *486:23 *544:20 0
14 *378:16 *486:23 0.000599262
15 *406:18 *1009:D 0
16 *423:10 *977:D 0.000209384
17 *475:24 *486:10 0.000335137
18 *475:24 *486:23 0.00126836
19 *475:39 *486:23 0.0001787
*RES
1 *1177:X *486:10 42.1218 
2 *486:10 *1073:A 40.3193 
3 *486:10 *486:23 26.7774 
4 *486:23 *1009:D 23.661 
5 *486:23 *486:34 0.3502 
6 *486:34 *977:D 21.6486 
7 *486:34 *1041:D 20 
*END

*D_NET *487 0.00438494
*CONN
*I *1341:A I *D sg13g2_buf_1
*I *1106:X O *D sg13g2_buf_1
*CAP
1 *1341:A 0.000624673
2 *1106:X 0.000991974
3 *487:12 0.00161665
4 *1341:A *521:10 4.75166e-05
5 *487:12 *985:D 0.000161152
6 *487:12 *495:22 0.00014454
7 *487:12 *507:14 0
8 *487:12 *531:59 0.000208592
9 *487:12 *559:75 0
10 *487:12 *559:87 0.000124547
11 *487:12 *566:10 0
12 *487:12 *572:30 0
13 *1336:A *1341:A 0.000177184
14 *22:19 *1341:A 0.000208035
15 *424:10 *487:12 0
16 *475:24 *487:12 0
17 *482:14 *487:12 0
18 *482:30 *1341:A 0
19 *486:10 *1341:A 8.00842e-05
*RES
1 *1106:X *487:12 48.3739 
2 *487:12 *1341:A 46.0976 
*END

*D_NET *488 0.0377495
*CONN
*I *1342:A I *D sg13g2_buf_1
*I *1107:X O *D sg13g2_buf_1
*CAP
1 *1342:A 0
2 *1107:X 0
3 *488:78 0.000626462
4 *488:70 0.00260691
5 *488:66 0.00305796
6 *488:58 0.00232195
7 *488:52 0.00132661
8 *488:46 0.00160976
9 *488:36 0.0023762
10 *488:30 0.00173398
11 *488:24 0.00147451
12 *488:14 0.00131347
13 *488:6 0.00072432
14 *488:14 *523:18 0.00162539
15 *488:24 *505:18 0.00070472
16 *488:30 *499:14 0.000269242
17 *488:30 *505:18 0
18 *488:30 *543:60 0
19 *488:30 *545:88 0
20 *488:36 *519:28 0
21 *488:36 *586:24 0.00212372
22 *488:46 *492:28 0.000770062
23 *488:46 *510:20 0
24 *488:46 *520:69 0
25 *488:46 *558:45 0
26 *488:46 *572:66 0
27 *488:46 *572:81 0.000110804
28 *488:58 *492:28 0.00274818
29 *488:58 *500:20 0.000556314
30 *488:58 *544:81 0.000173781
31 *488:66 *536:16 0
32 *488:66 *615:22 0
33 *488:66 *619:28 0
34 *488:70 *515:36 0
35 *488:70 *526:22 0.00109132
36 *488:70 *541:32 0
37 *488:78 *500:54 0
38 *488:78 *541:14 0
39 *488:78 *565:24 0
40 *488:78 *567:18 0
41 *1037:D *488:30 0.00122328
42 *107:24 *488:70 0
43 *123:10 *488:78 0.000126354
44 *133:14 *488:70 0
45 *140:12 *488:78 0
46 *144:26 *488:66 0.000122078
47 *154:18 *488:70 0
48 *158:42 *488:46 0
49 *169:24 *488:66 0.000663707
50 *171:20 *488:66 7.58215e-05
51 *172:14 *488:58 0
52 *193:17 *488:30 0.000269242
53 *261:8 *488:24 0.000602744
54 *343:12 *488:46 0.000492882
55 *391:20 *488:14 0
56 *391:36 *488:30 0.00169625
57 *405:14 *488:78 0
58 *405:118 *488:24 0
59 *408:14 *488:70 0
60 *437:60 *488:24 0
61 *442:55 *488:30 0.000230271
62 *464:12 *488:78 0
63 *471:12 *488:30 0
64 *471:32 *488:46 0.000769806
65 *476:18 *488:24 0.000523791
66 *476:56 *488:70 0.00018241
67 *479:72 *488:78 0
68 *484:36 *488:70 0.00142517
*RES
1 *1107:X *488:6 40 
2 *488:6 *488:14 48.0546 
3 *488:14 *488:24 47.1997 
4 *488:24 *488:30 31.8244 
5 *488:30 *488:36 49.7438 
6 *488:36 *488:46 34.317 
7 *488:46 *488:52 40.5356 
8 *488:52 *488:58 34.2935 
9 *488:58 *488:66 48.5146 
10 *488:66 *488:70 40.6206 
11 *488:70 *488:78 46.5405 
12 *488:78 *1342:A 40 
*END

*D_NET *489 0.00445629
*CONN
*I *1343:A I *D sg13g2_buf_1
*I *1108:X O *D sg13g2_buf_1
*CAP
1 *1343:A 0.000168071
2 *1108:X 0.000552083
3 *489:8 0.000720153
4 *1343:A *1362:A 0.000241562
5 *489:8 *520:22 0
6 *489:8 *530:92 0.000126552
7 *489:8 *565:24 0.000853404
8 *128:16 *1343:A 0
9 *128:16 *489:8 0
10 *131:14 *489:8 0.00122691
11 *144:10 *489:8 7.30101e-05
12 *418:12 *489:8 0.000494545
13 *431:18 *1343:A 0
*RES
1 *1108:X *489:8 48.0134 
2 *489:8 *1343:A 41.6171 
*END

*D_NET *490 0.0029736
*CONN
*I *1344:A I *D sg13g2_buf_1
*I *1109:X O *D sg13g2_buf_1
*CAP
1 *1344:A 0.000830041
2 *1109:X 0.000224481
3 *490:12 0.00105452
4 *1344:A *491:42 0
5 *1344:A *495:22 4.77425e-05
6 *1344:A *507:14 0.000337176
7 *1344:A *511:14 0.00011101
8 *1344:A *559:87 0.000116933
9 *490:12 *540:33 0
10 *1105:A *1344:A 1.54008e-05
11 *1129:A *1344:A 0
12 *398:24 *490:12 0
13 *415:8 *490:12 0.000236292
*RES
1 *1109:X *490:12 42.1939 
2 *490:12 *1344:A 47.4984 
*END

*D_NET *491 0.00816859
*CONN
*I *1345:A I *D sg13g2_buf_1
*I *1110:X O *D sg13g2_buf_1
*CAP
1 *1345:A 0.000280216
2 *1110:X 0.000576449
3 *491:42 0.00121327
4 *491:18 0.00118867
5 *491:10 0.000832067
6 *491:10 *550:31 0.000240377
7 *491:10 *574:12 0.00118053
8 *491:18 *507:14 1.54008e-05
9 *491:18 *540:33 0.000388496
10 *491:18 *588:18 0
11 *491:42 *503:22 7.9225e-05
12 *491:42 *511:14 0
13 *1129:A *1345:A 0
14 *1133:A *491:18 4.77425e-05
15 *1344:A *491:42 0
16 *2:17 *491:42 0
17 *13:33 *491:18 0
18 *13:33 *491:42 0.000306081
19 *22:19 *491:42 0.0001655
20 *344:28 *491:18 0.000234803
21 *360:8 *491:10 0.000602379
22 *376:14 *491:10 0
23 *386:8 *491:42 0.000176511
24 *387:22 *1345:A 0.000272718
25 *423:10 *491:10 0.00030506
26 *424:26 *491:10 0
27 *442:77 *491:42 4.76977e-05
28 *453:16 *491:42 1.54008e-05
29 *481:10 *491:42 0
30 *482:30 *491:42 0
31 *485:14 *1345:A 0
*RES
1 *1110:X *491:10 47.5911 
2 *491:10 *491:18 42.8331 
3 *491:18 *491:42 49.2185 
4 *491:42 *1345:A 42.6986 
*END

*D_NET *492 0.0402104
*CONN
*I *1346:A I *D sg13g2_buf_1
*I *1111:X O *D sg13g2_buf_1
*CAP
1 *1346:A 3.81754e-05
2 *1111:X 0
3 *492:44 0.000108109
4 *492:36 0.00085651
5 *492:28 0.00315677
6 *492:26 0.0023702
7 *492:24 0.000570749
8 *492:16 0.00231579
9 *492:10 0.00174504
10 *492:6 0
11 *492:16 *541:52 0.00106616
12 *492:16 *619:20 0
13 *492:24 *530:20 0
14 *492:24 *533:16 0
15 *492:24 *553:10 2.16289e-05
16 *492:24 *553:32 0.000209556
17 *492:24 *553:77 0.000211122
18 *492:24 *587:10 0
19 *492:28 *500:14 0
20 *492:28 *500:20 0
21 *492:28 *526:28 0
22 *492:28 *533:22 0.00346519
23 *492:28 *533:44 0.00173229
24 *492:28 *534:28 0.00146363
25 *492:28 *600:30 0.00392416
26 *492:36 *496:56 0
27 *492:36 *500:48 0.00141893
28 *492:36 *527:38 1.4965e-05
29 *492:44 *565:24 0
30 *122:28 *1346:A 1.11458e-05
31 *126:18 *1346:A 4.36621e-05
32 *143:12 *492:28 0
33 *146:18 *492:36 0.000145423
34 *156:16 *492:36 0
35 *158:16 *492:36 0.000185292
36 *172:14 *492:28 0
37 *388:16 *492:24 0
38 *395:20 *492:16 0
39 *405:110 *492:16 0
40 *406:58 *492:16 0.00339092
41 *413:58 *492:16 0.00339263
42 *418:66 *492:16 0.000300744
43 *423:40 *492:16 0
44 *424:52 *492:16 0
45 *437:46 *492:28 0.00319886
46 *437:54 *492:16 0
47 *467:46 *492:16 0.000237891
48 *471:32 *492:28 0
49 *471:44 *492:28 0.000823506
50 *476:40 *492:24 0.000273168
51 *479:64 *492:28 0
52 *488:46 *492:28 0.000770062
53 *488:58 *492:28 0.00274818
*RES
1 *1111:X *492:6 40 
2 *492:6 *492:10 40 
3 *492:10 *492:16 45.7294 
4 *492:16 *492:24 45.4281 
5 *492:24 *492:26 20 
6 *492:26 *492:28 47.8126 
7 *492:28 *492:36 48.5799 
8 *492:36 *492:44 40.6412 
9 *492:44 *1346:A 40.4223 
*END

*D_NET *493 0.0195179
*CONN
*I *1347:A I *D sg13g2_buf_1
*I *1112:X O *D sg13g2_buf_1
*CAP
1 *1347:A 0.000101088
2 *1112:X 0
3 *493:32 0.000724453
4 *493:24 0.00224436
5 *493:16 0.00306551
6 *493:10 0.00144451
7 *493:6 0
8 *1347:A *1362:A 0
9 *1347:A *521:20 0.000111568
10 *493:16 *519:28 0
11 *493:16 *523:18 0
12 *493:16 *535:26 0.000392781
13 *493:24 *501:24 0
14 *493:24 *501:30 0.00276372
15 *493:24 *580:20 0.00249686
16 *493:24 *607:26 0.00200111
17 *493:32 *501:30 0
18 *493:32 *566:20 0
19 *24:45 *493:16 0.0010914
20 *125:16 *493:32 7.32394e-05
21 *130:20 *493:32 7.44263e-05
22 *141:14 *493:32 0.000113241
23 *252:18 *493:24 0.000235965
24 *290:16 *493:24 0.000182539
25 *414:12 *493:32 0.000434843
26 *414:14 *493:24 0
27 *420:22 *493:16 0
28 *423:40 *493:16 0.00157233
29 *474:14 *493:16 0.000393991
*RES
1 *1112:X *493:6 40 
2 *493:6 *493:10 40 
3 *493:10 *493:16 36.3976 
4 *493:16 *493:24 45.1835 
5 *493:24 *493:32 45.6444 
6 *493:32 *1347:A 40.9682 
*END

*D_NET *494 0.000332427
*CONN
*I *1348:A I *D sg13g2_buf_1
*I *1113:X O *D sg13g2_buf_1
*CAP
1 *1348:A 0.000166213
2 *1113:X 0.000166213
*RES
1 *1113:X *1348:A 41.4008 
*END

*D_NET *495 0.00427057
*CONN
*I *1349:A I *D sg13g2_buf_1
*I *1114:X O *D sg13g2_buf_1
*CAP
1 *1349:A 0
2 *1114:X 0.00178099
3 *495:22 0.00178099
4 *495:22 *1060:A 0.000112426
5 *495:22 *511:14 0.00011101
6 *495:22 *544:43 0
7 *495:22 *559:87 0.000117609
8 *495:22 *570:12 1.51e-05
9 *495:22 *588:30 0
10 *1122:A *495:22 0
11 *1344:A *495:22 4.77425e-05
12 *132:10 *495:22 0
13 *362:14 *495:22 0.000112426
14 *376:14 *495:22 4.77425e-05
15 *487:12 *495:22 0.00014454
*RES
1 *1114:X *495:22 35.5701 
2 *495:22 *1349:A 20 
*END

*D_NET *496 0.0320788
*CONN
*I *1350:A I *D sg13g2_buf_1
*I *1115:X O *D sg13g2_buf_1
*CAP
1 *1350:A 0
2 *1115:X 0
3 *496:60 0
4 *496:56 0.000986551
5 *496:50 0.00106139
6 *496:44 0.000565278
7 *496:38 0.00138681
8 *496:30 0.00117335
9 *496:22 0.00179117
10 *496:18 0.00294157
11 *496:12 0.00167297
12 *496:6 0.000245598
13 *496:12 *611:12 0
14 *496:18 *519:28 0
15 *496:18 *523:18 0.00184356
16 *496:18 *542:47 0
17 *496:18 *592:24 0
18 *496:22 *510:24 0
19 *496:22 *535:18 0
20 *496:22 *567:74 0.00120473
21 *496:22 *591:38 0.000289617
22 *496:22 *619:22 0
23 *496:38 *552:28 7.78179e-05
24 *496:38 *558:83 0.000109593
25 *496:44 *522:34 7.49043e-05
26 *496:44 *572:40 0.00101551
27 *133:44 *496:44 0.000546652
28 *143:12 *496:56 0
29 *146:18 *496:56 0.00125552
30 *146:22 *496:38 0
31 *157:18 *496:22 7.57097e-05
32 *157:18 *496:30 4.63914e-05
33 *158:16 *496:56 0.00141933
34 *163:14 *496:18 0
35 *168:10 *496:44 7.47964e-05
36 *168:16 *496:50 4.63914e-05
37 *171:20 *496:38 7.78179e-05
38 *310:12 *496:30 0.000855267
39 *343:32 *496:38 0.00067527
40 *343:36 *496:38 0.000932625
41 *423:40 *496:18 0.00319132
42 *427:12 *496:18 0.00381707
43 *431:35 *496:44 0.000971052
44 *433:16 *496:12 0
45 *467:14 *496:30 0.000909945
46 *479:56 *496:38 0.000663467
47 *479:64 *496:56 0
48 *479:72 *496:56 7.97448e-05
49 *492:36 *496:56 0
*RES
1 *1115:X *496:6 40 
2 *496:6 *496:12 41.8334 
3 *496:12 *496:18 45.6985 
4 *496:18 *496:22 34.4406 
5 *496:22 *496:30 44.6247 
6 *496:30 *496:38 49.8159 
7 *496:38 *496:44 47.519 
8 *496:44 *496:50 40.5356 
9 *496:50 *496:56 32.257 
10 *496:56 *496:60 40 
11 *496:60 *1350:A 20 
*END

*D_NET *497 0.0156884
*CONN
*I *1057:A I *D sg13g2_buf_1
*I *961:D I *D sg13g2_dlhq_1
*I *1025:D I *D sg13g2_dlhq_1
*I *993:D I *D sg13g2_dlhq_1
*I *1178:X O *D sg13g2_buf_1
*CAP
1 *1057:A 0
2 *961:D 0
3 *1025:D 0.000241288
4 *993:D 7.98457e-05
5 *1178:X 0.000877911
6 *497:71 0.000184253
7 *497:58 0.000766513
8 *497:39 0.00121453
9 *497:26 0.000286577
10 *497:24 0.0010204
11 *497:20 0.00132002
12 *497:16 0.000993278
13 *993:D *1369:A 0.000112198
14 *1025:D *504:12 0.000175693
15 *497:16 *520:16 0
16 *497:16 *575:16 0
17 *497:16 *599:10 0.000241955
18 *497:16 *610:10 7.51285e-05
19 *497:24 *514:54 0.000126146
20 *497:24 *544:43 0.000231865
21 *497:24 *566:20 0
22 *497:24 *566:37 0
23 *497:24 *575:30 0
24 *497:39 *1369:A 0.000208035
25 *1171:A *497:24 0.000286945
26 *1172:A *497:71 0.000181192
27 *1211:A *497:16 0
28 *1244:A *497:16 8.00842e-05
29 *1255:A *497:16 0
30 *1255:A *497:20 4.77702e-05
31 *17:17 *497:20 7.98841e-05
32 *17:17 *497:71 0.000208035
33 *19:9 *497:16 0.000144055
34 *19:9 *497:20 0
35 *19:9 *497:71 0
36 *19:17 *497:16 7.98567e-05
37 *23:23 *497:20 0
38 *127:8 *497:24 0.000179701
39 *129:10 *497:39 0.000179389
40 *129:10 *497:58 0.000311448
41 *132:10 *497:39 0.000124547
42 *136:12 *497:58 0
43 *136:20 *497:58 0.00137054
44 *174:13 *497:16 0
45 *248:10 *497:58 0.000330848
46 *288:14 *497:58 4.77425e-05
47 *387:12 *497:20 4.77699e-05
48 *387:12 *497:24 0.000753318
49 *387:22 *497:24 0
50 *387:30 *497:39 0
51 *387:30 *497:58 0
52 *398:8 *497:71 0.000181192
53 *406:18 *1025:D 4.77425e-05
54 *406:28 *497:58 0.00241095
55 *485:14 *497:24 0.000439758
*RES
1 *1178:X *497:16 48.1782 
2 *497:16 *497:20 21.1845 
3 *497:20 *497:24 30.4854 
4 *497:24 *497:26 20 
5 *497:26 *993:D 20.7519 
6 *497:26 *497:39 22.2454 
7 *497:39 *1025:D 42.3999 
8 *497:39 *497:58 32.1437 
9 *497:58 *961:D 20 
10 *497:20 *497:71 42.2454 
11 *497:71 *1057:A 20 
*END

*D_NET *498 0.015975
*CONN
*I *1074:A I *D sg13g2_buf_1
*I *1042:D I *D sg13g2_dlhq_1
*I *1010:D I *D sg13g2_dlhq_1
*I *978:D I *D sg13g2_dlhq_1
*I *1179:X O *D sg13g2_buf_1
*CAP
1 *1074:A 5.23873e-05
2 *1042:D 6.09787e-05
3 *1010:D 0.000233428
4 *978:D 0.000239683
5 *1179:X 0.000765563
6 *498:51 0.00117192
7 *498:32 0.00196032
8 *498:26 0.00158319
9 *498:20 0.00155801
10 *1010:D *562:22 0.000125963
11 *498:20 *540:6 9.62471e-05
12 *498:20 *540:18 0.000160161
13 *498:20 *562:14 0.000283647
14 *498:20 *563:8 7.97032e-05
15 *498:20 *572:16 0
16 *498:26 *545:16 0
17 *498:26 *573:12 0
18 *498:26 *577:32 0
19 *498:32 *576:14 0
20 *498:51 *531:36 0
21 *498:51 *562:22 5.24248e-05
22 *498:51 *576:14 0
23 *1185:A *498:20 0.000144306
24 *1193:A *498:20 7.92542e-05
25 *2:17 *498:20 0
26 *13:19 *498:26 0.000244084
27 *13:33 *1074:A 8.01995e-05
28 *24:15 *498:26 0
29 *107:38 *498:51 0.000837088
30 *116:18 *498:32 0.00188962
31 *116:18 *498:51 0.000179801
32 *177:9 *498:32 0
33 *177:9 *498:51 0
34 *184:23 *498:20 0
35 *185:11 *498:32 0.00103509
36 *188:9 *498:32 0.00124948
37 *379:22 *498:26 0
38 *410:12 *498:26 0
39 *411:24 *498:32 0.000608855
40 *411:24 *498:51 0.000105736
41 *425:8 *1074:A 0
42 *432:12 *498:20 0
43 *472:34 *1010:D 0.000124547
44 *472:34 *498:51 7.30101e-05
45 *473:12 *498:51 0.00090029
46 *482:30 *498:20 0
*RES
1 *1179:X *498:20 47.7044 
2 *498:20 *498:26 46.3757 
3 *498:26 *498:32 14.3685 
4 *498:32 *978:D 42.0497 
5 *498:32 *498:51 48.8683 
6 *498:51 *1010:D 42.3227 
7 *498:51 *1042:D 40.5356 
8 *498:20 *1074:A 40.5356 
*END

*D_NET *499 0.0336266
*CONN
*I *1351:A I *D sg13g2_buf_1
*I *1116:X O *D sg13g2_buf_1
*CAP
1 *1351:A 0
2 *1116:X 0.000190953
3 *499:88 4.7624e-05
4 *499:82 0.000818052
5 *499:68 0.0012853
6 *499:60 0.00283792
7 *499:56 0.00298777
8 *499:48 0.00105543
9 *499:40 0.0010307
10 *499:32 0.00196685
11 *499:22 0.00215362
12 *499:14 0.00166489
13 *499:8 0.00102908
14 *499:8 *509:59 0.000541195
15 *499:22 *599:52 0
16 *499:32 *515:20 0.000286336
17 *499:32 *527:18 0
18 *499:32 *538:36 0.00179362
19 *499:32 *543:40 7.78179e-05
20 *499:32 *551:25 0
21 *499:40 *923:A0 0.000392586
22 *499:40 *568:54 0.000340199
23 *499:40 *574:26 0.000393073
24 *499:40 *581:40 0.000181279
25 *499:48 *1030:GATE 0.000175693
26 *499:48 *588:85 7.48209e-05
27 *499:56 *935:A0 0.00101573
28 *499:56 *1029:D 0.00011101
29 *499:56 *508:12 0.000491212
30 *499:56 *516:34 0.00154091
31 *499:56 *568:26 0.000127923
32 *499:56 *577:52 0
33 *499:56 *577:67 7.45103e-05
34 *499:60 *516:52 0
35 *499:60 *526:16 0
36 *499:60 *530:68 0
37 *499:60 *535:44 0
38 *499:60 *580:20 0
39 *499:68 *502:46 0.000855706
40 *499:68 *530:92 0.000234664
41 *499:82 *1354:A 0.00014454
42 *499:82 *506:10 0
43 *499:88 *521:26 0.000177499
44 *24:67 *499:22 0
45 *124:20 *499:82 0
46 *127:26 *499:82 0.000230586
47 *131:20 *499:68 0
48 *138:12 *499:82 0.000177127
49 *142:18 *499:82 0.000279312
50 *151:14 *499:82 0.000208035
51 *168:10 *499:82 0.000286704
52 *180:19 *499:60 0.000238725
53 *193:17 *499:14 0
54 *343:16 *499:40 0.00176862
55 *372:12 *499:82 2.20248e-05
56 *372:22 *499:82 0
57 *387:34 *499:68 0.00043953
58 *397:52 *499:32 0
59 *406:44 *499:8 0
60 *406:50 *499:14 0
61 *409:44 *499:32 0
62 *413:16 *499:48 0.000290429
63 *413:26 *499:48 0.000439397
64 *414:26 *499:22 0
65 *419:26 *499:40 0.00039131
66 *424:32 *499:48 0.000861618
67 *424:32 *499:56 0
68 *431:18 *499:88 0.000176083
69 *431:35 *499:82 0.000339292
70 *439:22 *499:32 0.000176373
71 *478:16 *499:40 0.000287846
72 *483:32 *499:8 0.00064581
73 *488:30 *499:14 0.000269242
*RES
1 *1116:X *499:8 43.0694 
2 *499:8 *499:14 46.3757 
3 *499:14 *499:22 46.695 
4 *499:22 *499:32 34.4406 
5 *499:32 *499:40 30.9077 
6 *499:40 *499:48 45.6753 
7 *499:48 *499:56 49.7541 
8 *499:56 *499:60 35.37 
9 *499:60 *499:68 46.1079 
10 *499:68 *499:82 48.4872 
11 *499:82 *499:88 40.8446 
12 *499:88 *1351:A 20 
*END

*D_NET *500 0.0290692
*CONN
*I *1352:A I *D sg13g2_buf_1
*I *1117:X O *D sg13g2_buf_1
*CAP
1 *1352:A 0
2 *1117:X 0
3 *500:54 0.000207407
4 *500:48 0.00092061
5 *500:44 0.00123899
6 *500:34 0.00118952
7 *500:28 0.0010346
8 *500:20 0.00144683
9 *500:14 0.00150114
10 *500:6 0.000425182
11 *500:14 *533:22 0
12 *500:20 *532:22 4.63914e-05
13 *500:20 *533:22 0.00327401
14 *500:28 *565:42 0.000770196
15 *500:28 *615:22 0.00151922
16 *500:34 *519:60 0.000227935
17 *500:34 *532:26 0.002001
18 *500:34 *572:40 0.000702033
19 *500:44 *522:26 0.000609913
20 *500:44 *534:20 0.000109244
21 *500:44 *600:36 0.000109244
22 N2BEGb[6] *500:28 0.000109244
23 *132:50 *500:34 0
24 *140:12 *500:54 0
25 *143:18 *500:44 0
26 *144:20 *500:48 0
27 *144:26 *500:48 0.00115458
28 *146:18 *500:44 0.000418797
29 *146:22 *500:44 0
30 *146:28 *500:34 0.000125963
31 *158:16 *500:48 0
32 *161:10 *500:34 0.000177499
33 *169:24 *500:28 0.000663619
34 *169:24 *500:48 0.000343063
35 *172:14 *500:20 0.00157198
36 *172:14 *500:44 0
37 *343:36 *500:44 0.000828442
38 *395:24 *500:14 0.000912034
39 *395:24 *500:20 0
40 *410:42 *500:20 0.00219735
41 *437:46 *500:14 0
42 *470:22 *500:28 0.000109244
43 *476:28 *500:14 0
44 *479:72 *500:54 0
45 *480:38 *500:54 0
46 *483:60 *500:48 0.0011487
47 *488:58 *500:20 0.000556314
48 *488:78 *500:54 0
49 *492:28 *500:14 0
50 *492:28 *500:20 0
51 *492:36 *500:48 0.00141893
*RES
1 *1117:X *500:6 40 
2 *500:6 *500:14 45.5105 
3 *500:14 *500:20 39.9317 
4 *500:20 *500:28 47.7765 
5 *500:28 *500:34 49.4966 
6 *500:34 *500:44 46.9834 
7 *500:44 *500:48 31.9686 
8 *500:48 *500:54 42.0497 
9 *500:54 *1352:A 40 
*END

*D_NET *501 0.0269222
*CONN
*I *1353:A I *D sg13g2_buf_1
*I *1118:X O *D sg13g2_buf_1
*CAP
1 *1353:A 0
2 *1118:X 0.00057773
3 *501:38 0.000165884
4 *501:30 0.0015871
5 *501:24 0.00267851
6 *501:18 0.0033771
7 *501:12 0.00269754
8 *501:12 *505:24 0
9 *501:12 *545:71 0.00100954
10 *501:12 *549:43 7.9225e-05
11 *501:18 *545:71 0
12 *501:18 *551:25 0
13 *501:18 *561:46 0
14 *501:18 *580:38 0
15 *501:18 *599:58 0
16 *501:24 *519:44 0.000823657
17 *501:24 *525:18 0
18 *501:24 *586:24 0.000877384
19 *501:24 *607:26 0.00344918
20 *501:30 *512:22 0
21 *501:30 *515:52 0.000111102
22 *501:30 *525:18 0.00217081
23 *66:55 *501:18 0.000395078
24 *107:24 *501:30 0
25 *131:14 *501:38 7.30101e-05
26 *139:14 *501:30 0
27 *141:14 *501:30 0
28 *150:14 *501:38 0.0002812
29 *253:18 *501:18 0
30 *308:8 *501:12 0
31 *308:8 *501:18 0.000338086
32 *391:52 *501:24 0
33 *398:12 *501:30 0.000666445
34 *414:12 *501:30 0.00040384
35 *414:20 *501:18 0.000299605
36 *416:20 *501:18 0.00209647
37 *479:72 *501:30 0
38 *493:24 *501:24 0
39 *493:24 *501:30 0.00276372
40 *493:32 *501:30 0
*RES
1 *1118:X *501:12 45.6547 
2 *501:12 *501:18 40.3837 
3 *501:18 *501:24 38.1898 
4 *501:24 *501:30 40.7545 
5 *501:30 *501:38 41.751 
6 *501:38 *1353:A 20 
*END

*D_NET *502 0.0347676
*CONN
*I *1354:A I *D sg13g2_buf_1
*I *1119:X O *D sg13g2_buf_1
*CAP
1 *1354:A 7.97149e-05
2 *1119:X 0
3 *502:46 0.00136591
4 *502:40 0.00213837
5 *502:30 0.00130141
6 *502:22 0.00213667
7 *502:14 0.00533477
8 *502:12 0.004046
9 *502:6 0.000398664
10 *502:14 *519:12 0
11 *502:14 *519:24 0
12 *502:14 *578:22 0
13 *502:14 *578:28 0
14 *502:22 *517:36 0.000366412
15 *502:22 *556:96 0
16 *502:22 *599:40 0
17 *502:30 *519:28 0
18 *502:30 *558:83 0
19 *502:30 *558:91 0.000140972
20 *502:40 *901:A1 2.18151e-05
21 *502:40 *956:A3 0.000123139
22 *502:40 *519:52 0.000384689
23 *502:40 *582:43 0.000178292
24 *502:46 *530:68 0.0016256
25 *502:46 *530:92 0.000128777
26 *502:46 *615:32 0.000143908
27 *502:46 *615:45 0
28 *952:S *502:46 0.000112198
29 *956:S1 *502:40 0
30 *115:34 *502:22 0.000481872
31 *127:26 *1354:A 0.00014454
32 *130:40 *502:40 0.000646183
33 *131:14 *502:46 0
34 *132:36 *502:46 0.00038672
35 *135:14 *502:46 0.00038564
36 *147:8 *502:46 0.00049306
37 *149:26 *502:40 0.000695493
38 *150:14 *502:46 0.000488713
39 *150:22 *502:46 0
40 *156:10 *502:46 7.48842e-05
41 *253:18 *502:22 0
42 *312:10 *502:40 0
43 *390:26 *502:14 0
44 *394:40 *502:22 0
45 *410:32 *502:30 0.00157285
46 *411:68 *502:12 0
47 *413:26 *502:22 0
48 *420:22 *502:30 0.00168284
49 *425:44 *502:14 0.00356672
50 *425:62 *502:12 0
51 *428:96 *502:14 0.00312056
52 *464:32 *502:22 0
53 *483:14 *502:12 0
54 *484:24 *502:14 0
55 *499:68 *502:46 0.000855706
56 *499:82 *1354:A 0.00014454
*RES
1 *1119:X *502:6 40 
2 *502:6 *502:12 43.5073 
3 *502:12 *502:14 43.363 
4 *502:14 *502:22 32.9162 
5 *502:22 *502:30 48.7344 
6 *502:30 *502:40 49.1464 
7 *502:40 *502:46 36.3976 
8 *502:46 *1354:A 40.9682 
*END

*D_NET *503 0.00353103
*CONN
*I *1355:A I *D sg13g2_buf_1
*I *1129:X O *D sg13g2_buf_1
*CAP
1 *1355:A 0
2 *1129:X 5.5331e-05
3 *503:22 0.00116037
4 *503:8 0.0012157
5 *503:8 *544:20 0.000289272
6 *503:22 *1362:A 0
7 *503:22 *521:20 0
8 *22:19 *503:22 0.000267713
9 *124:20 *503:22 0
10 *129:10 *503:22 8.00842e-05
11 *135:14 *503:22 4.75151e-05
12 *141:8 *503:22 4.76973e-05
13 *150:14 *503:22 0
14 *387:22 *503:22 0
15 *481:10 *503:8 0.000288121
16 *491:42 *503:22 7.9225e-05
*RES
1 *1129:X *503:8 41.339 
2 *503:8 *503:22 30.2594 
3 *503:22 *1355:A 20 
*END

*D_NET *504 0.0072179
*CONN
*I *1356:A I *D sg13g2_buf_1
*I *1130:X O *D sg13g2_buf_1
*CAP
1 *1356:A 0
2 *1130:X 0.00138309
3 *504:24 0.000601048
4 *504:12 0.00198414
5 *504:12 *985:GATE 3.23417e-05
6 *504:12 *1369:A 0.000208067
7 *504:12 *550:31 0.000691518
8 *504:24 *510:40 0.000499747
9 *1025:D *504:12 0.000175693
10 *1072:A *504:12 8.00842e-05
11 *1101:A *504:12 0.000337402
12 *125:16 *504:24 0.000126871
13 *142:18 *504:24 4.27372e-05
14 *144:10 *504:24 4.77425e-05
15 *151:24 *504:24 0
16 *152:10 *504:24 4.77425e-05
17 *356:10 *504:24 0.000815249
18 *406:18 *504:12 0.000144427
19 *423:10 *504:12 0
*RES
1 *1130:X *504:12 33.2355 
2 *504:12 *504:24 47.1173 
3 *504:24 *1356:A 20 
*END

*D_NET *505 0.0411287
*CONN
*I *1357:A I *D sg13g2_buf_1
*I *1131:X O *D sg13g2_buf_1
*CAP
1 *1357:A 0
2 *1131:X 9.21879e-05
3 *505:66 0.000930178
4 *505:58 0.00298934
5 *505:40 0.00239826
6 *505:34 0.00230642
7 *505:28 0.00316665
8 *505:24 0.00182571
9 *505:18 0.00203112
10 *505:8 0.00149692
11 *505:18 *548:8 0
12 *505:18 *573:38 0.000605085
13 *505:18 *573:59 0.000207646
14 *505:18 *573:67 0.000391465
15 *505:18 *602:14 0.00112822
16 *505:18 *603:24 0.00033973
17 *505:24 *545:71 0
18 *505:24 *556:131 0
19 *505:24 *561:63 0.00159006
20 *505:24 *599:58 0.000337406
21 *505:34 *556:116 0.00199897
22 *505:58 *517:42 0.000172097
23 *505:58 *531:36 0
24 *505:58 *543:28 0.000206042
25 *505:66 *521:26 0.000810035
26 *915:S *505:28 0.000530036
27 *1125:A *505:18 0
28 *106:22 *505:58 1.4965e-05
29 *107:38 *505:58 0.000632067
30 *108:14 *505:34 0.000179801
31 *117:8 *505:40 0.00172958
32 *135:28 *505:66 0.000810035
33 *143:18 *505:66 0.000140671
34 *150:22 *505:66 0.000706696
35 *261:8 *505:18 0.000124862
36 *265:12 *505:58 0.000233231
37 *282:44 *505:18 0.00107408
38 *282:52 *505:18 0
39 *290:24 *505:58 7.78179e-05
40 *341:14 *505:58 4.63914e-05
41 *348:12 *505:58 0
42 *373:14 *505:58 0.000375621
43 *377:14 *505:40 0.00173092
44 *378:16 *505:58 0.000703529
45 *391:28 *505:18 4.75151e-05
46 *394:30 *505:34 0
47 *396:8 *505:8 0
48 *396:12 *505:18 0
49 *415:26 *505:58 0.000124702
50 *426:18 *505:18 0
51 *429:30 *505:8 0.00014428
52 *432:34 *505:34 0.00247161
53 *436:16 *505:18 0
54 *453:42 *505:34 0.00199336
55 *471:18 *505:18 0.000176837
56 *475:39 *505:58 0.00133187
57 *476:64 *505:58 0
58 *488:24 *505:18 0.00070472
59 *488:30 *505:18 0
60 *501:12 *505:24 0
*RES
1 *1131:X *505:8 40.9682 
2 *505:8 *505:18 38.1842 
3 *505:18 *505:24 47.519 
4 *505:24 *505:28 30.2691 
5 *505:28 *505:34 46.9036 
6 *505:34 *505:40 48.0134 
7 *505:40 *505:58 40.0747 
8 *505:58 *505:66 49.7541 
9 *505:66 *1357:A 40 
*END

*D_NET *506 0.00234572
*CONN
*I *1358:A I *D sg13g2_buf_1
*I *1132:X O *D sg13g2_buf_1
*CAP
1 *1358:A 5.1209e-05
2 *1132:X 0.000445653
3 *506:10 0.000496862
4 *506:10 *532:42 2.20248e-05
5 *124:20 *1358:A 0
6 *127:32 *1358:A 0
7 *128:22 *506:10 0.000175693
8 *131:20 *506:10 0.000175648
9 *146:8 *506:10 0.000540614
10 *431:35 *506:10 0.000438014
11 *483:52 *506:10 0
12 *499:82 *506:10 0
*RES
1 *1132:X *506:10 45.2427 
2 *506:10 *1358:A 40.5356 
*END

*D_NET *507 0.00522949
*CONN
*I *1359:A I *D sg13g2_buf_1
*I *1133:X O *D sg13g2_buf_1
*CAP
1 *1359:A 0.00092917
2 *1133:X 0.000679461
3 *507:14 0.00160863
4 *507:14 *1017:D 4.77425e-05
5 *507:14 *531:71 8.00842e-05
6 *507:14 *559:87 0.000229222
7 *507:14 *572:30 0.000809738
8 *1344:A *507:14 0.000337176
9 *13:33 *507:14 0
10 *136:12 *1359:A 0
11 *398:24 *507:14 0
12 *406:12 *1359:A 1.54008e-05
13 *415:22 *507:14 0.000286275
14 *424:16 *1359:A 0.000143676
15 *481:10 *1359:A 4.75151e-05
16 *487:12 *507:14 0
17 *491:18 *507:14 1.54008e-05
*RES
1 *1133:X *507:14 48.0443 
2 *507:14 *1359:A 47.9104 
*END

*D_NET *508 0.00614592
*CONN
*I *1360:A I *D sg13g2_buf_1
*I *1134:X O *D sg13g2_buf_1
*CAP
1 *1360:A 0.00106254
2 *1134:X 0.000594265
3 *508:12 0.00165681
4 *1360:A *1153:A 0.000240264
5 *1360:A *547:14 0.000240377
6 *1360:A *547:170 0
7 *1360:A *595:59 0
8 *508:12 *551:64 0.00033665
9 *508:12 *568:26 0.000490949
10 *508:12 *610:22 0.000232722
11 *265:12 *1360:A 1.54008e-05
12 *284:8 *508:12 0.00054423
13 *301:10 *1360:A 0.00011101
14 *357:20 *508:12 0
15 *363:8 *508:12 0
16 *378:16 *1360:A 0
17 *423:24 *508:12 0
18 *461:44 *508:12 0.000129493
19 *499:56 *508:12 0.000491212
*RES
1 *1134:X *508:12 47.9413 
2 *508:12 *1360:A 49.544 
*END

*D_NET *509 0.0324619
*CONN
*I *1011:D I *D sg13g2_dlhq_1
*I *979:D I *D sg13g2_dlhq_1
*I *1075:A I *D sg13g2_buf_1
*I *1043:D I *D sg13g2_dlhq_1
*I *1180:X O *D sg13g2_buf_1
*CAP
1 *1011:D 0.000409161
2 *979:D 3.34444e-05
3 *1075:A 6.20796e-05
4 *1043:D 0
5 *1180:X 2.93735e-05
6 *509:70 0.000584105
7 *509:59 0.00145246
8 *509:48 0.00268573
9 *509:42 0.00195231
10 *509:36 0.00146818
11 *509:28 0.0017644
12 *509:20 0.00206957
13 *509:14 0.00187474
14 *509:8 0.000646222
15 *979:D *590:8 4.77425e-05
16 *1011:D *546:136 0.000239162
17 *1011:D *549:90 0.000228935
18 *1011:D *593:22 0
19 *1011:D *619:14 0.000654936
20 *509:14 *566:20 0
21 *509:20 *517:42 0.0010373
22 *509:20 *580:26 0
23 *509:20 *599:30 0.00307284
24 *509:28 *561:20 7.78179e-05
25 *509:28 *561:35 0.000172097
26 *509:28 *599:30 0.000770454
27 *509:36 *563:53 0
28 *509:36 *563:70 0
29 *509:36 *585:35 0
30 *509:42 *992:D 0.000337212
31 *509:42 *547:74 0
32 *509:48 *981:D 0.000207845
33 *509:48 *995:GATE 0
34 *509:48 *548:16 0
35 *509:48 *552:67 0
36 *509:48 *552:73 0
37 *509:48 *552:86 0
38 *509:48 *559:25 0.00113605
39 *509:48 *561:46 0
40 *509:48 *561:63 0.00129221
41 *509:59 *981:D 0.000337652
42 *509:59 *556:153 0
43 *509:59 *580:54 0.000491675
44 *509:59 *580:73 0.000494317
45 *509:59 *619:14 0.000335647
46 *509:70 *619:14 0.000335562
47 *902:S1 *509:42 0
48 *24:15 *509:14 0
49 *77:15 *1011:D 0
50 *118:24 *509:28 0.000342688
51 *206:13 *509:59 0
52 *253:30 *509:59 0
53 *285:18 *509:36 0
54 *323:10 *509:42 0
55 *335:12 *509:48 0.00023289
56 *341:22 *509:20 0
57 *345:14 *509:36 0
58 *386:22 *509:36 0.000861291
59 *397:46 *509:42 0
60 *403:14 *509:59 0
61 *403:14 *509:70 0
62 *405:22 *509:20 0
63 *406:44 *509:59 7.33225e-05
64 *407:12 *509:20 7.78179e-05
65 *409:38 *509:28 0
66 *410:50 *509:59 0
67 *413:26 *509:36 0.000755144
68 *418:52 *509:28 0
69 *419:12 *509:14 0.000207641
70 *424:32 *509:36 0.000863861
71 *424:38 *509:36 0.000706493
72 *428:12 *509:14 0
73 *442:14 *509:14 0
74 *442:22 *509:20 0.0014239
75 *442:51 *509:48 0
76 *475:24 *509:8 7.44263e-05
77 *483:32 *509:59 0
78 *499:8 *509:59 0.000541195
*RES
1 *1180:X *509:8 40.3502 
2 *509:8 *509:14 45.2942 
3 *509:14 *509:20 38.437 
4 *509:20 *509:28 47.7765 
5 *509:28 *509:36 32.1437 
6 *509:36 *509:42 44.8616 
7 *509:42 *509:48 35.7796 
8 *509:48 *1043:D 20 
9 *509:48 *509:59 32.5351 
10 *509:59 *1075:A 40.5356 
11 *509:59 *509:70 1.5862 
12 *509:70 *979:D 40.3193 
13 *509:70 *1011:D 44.6865 
*END

*D_NET *510 0.0210112
*CONN
*I *1361:A I *D sg13g2_buf_1
*I *1120:X O *D sg13g2_buf_1
*CAP
1 *1361:A 0.000123168
2 *1120:X 5.26396e-05
3 *510:40 0.00139612
4 *510:32 0.00163695
5 *510:24 0.00133161
6 *510:20 0.00156532
7 *510:14 0.000923148
8 *510:8 0.000378091
9 *510:8 *559:130 7.9848e-05
10 *510:14 *541:46 0.00120749
11 *510:14 *590:51 0.00018265
12 *510:24 *619:22 0.00296273
13 *510:32 *586:28 0.000387024
14 *510:32 *595:22 0.000175693
15 *510:40 *521:26 0
16 *510:40 *552:28 0
17 *1120:A *510:8 0
18 *129:18 *510:40 0.00048843
19 *136:20 *510:32 0.000208035
20 *151:24 *510:40 0.00233773
21 *157:18 *510:24 0.000984324
22 *158:42 *510:20 0.000268816
23 *159:18 *510:40 0.000124547
24 *166:14 *510:32 0.00038561
25 *249:8 *510:40 0.000594205
26 *356:10 *510:40 0
27 *391:48 *510:14 0.00158116
28 *408:42 *510:14 0
29 *413:42 *510:20 7.81669e-05
30 *418:20 *510:40 0.00105797
31 *488:46 *510:20 0
32 *496:22 *510:24 0
33 *504:24 *510:40 0.000499747
*RES
1 *1120:X *510:8 40.5356 
2 *510:8 *510:14 47.2718 
3 *510:14 *510:20 44.6453 
4 *510:20 *510:24 33.699 
5 *510:24 *510:32 44.3157 
6 *510:32 *510:40 36.3461 
7 *510:40 *1361:A 40.9682 
*END

*D_NET *511 0.00435711
*CONN
*I *1362:A I *D sg13g2_buf_1
*I *1121:X O *D sg13g2_buf_1
*CAP
1 *1362:A 0.000551302
2 *1121:X 0.0006859
3 *511:20 0.00089555
4 *511:14 0.00103015
5 *1362:A *521:20 0
6 *511:14 *575:30 0
7 *511:20 *541:14 0
8 *1343:A *1362:A 0.000241562
9 *1344:A *511:14 0.00011101
10 *1347:A *1362:A 0
11 *24:25 *511:14 7.30101e-05
12 *122:28 *1362:A 0
13 *125:16 *1362:A 4.68848e-05
14 *128:16 *1362:A 0
15 *130:34 *511:14 0.000126354
16 *131:14 *1362:A 7.98521e-05
17 *150:14 *1362:A 0
18 *398:12 *511:20 0.000404528
19 *431:18 *1362:A 0
20 *479:72 *511:20 0
21 *481:10 *511:14 0
22 *491:42 *511:14 0
23 *495:22 *511:14 0.00011101
24 *503:22 *1362:A 0
*RES
1 *1121:X *511:14 45.6959 
2 *511:14 *511:20 43.3475 
3 *511:20 *1362:A 45.2118 
*END

*D_NET *512 0.0070886
*CONN
*I *1363:A I *D sg13g2_buf_1
*I *1122:X O *D sg13g2_buf_1
*CAP
1 *1363:A 0
2 *1122:X 0
3 *512:28 3.54873e-05
4 *512:22 0.00122434
5 *512:12 0.00203049
6 *512:6 0.000841642
7 *512:12 *525:12 0.00081721
8 *512:12 *529:10 0
9 *512:12 *569:16 0.000660134
10 *512:22 *516:58 0
11 *512:22 *520:30 0.000270151
12 *512:22 *525:18 7.62864e-05
13 *512:22 *566:20 0
14 *107:24 *512:22 0
15 *124:14 *512:22 0.000593779
16 *127:18 *512:22 0
17 *128:16 *512:28 0.000124547
18 *130:26 *512:22 0
19 *138:12 *512:28 0.000124547
20 *428:12 *512:22 0
21 *428:18 *512:22 0.000289991
22 *471:60 *512:12 0
23 *501:30 *512:22 0
*RES
1 *1122:X *512:6 40 
2 *512:6 *512:12 47.8898 
3 *512:12 *512:22 30.9489 
4 *512:22 *512:28 40.5974 
5 *512:28 *1363:A 20 
*END

*D_NET *513 0.0347577
*CONN
*I *1364:A I *D sg13g2_buf_1
*I *1123:X O *D sg13g2_buf_1
*CAP
1 *1364:A 0
2 *1123:X 0.000522695
3 *513:58 0
4 *513:54 0.00141821
5 *513:46 0.0039083
6 *513:36 0.00260524
7 *513:30 0.00107439
8 *513:22 0.00306426
9 *513:18 0.00339789
10 *513:14 0.00181556
11 *513:14 *573:46 2.14736e-05
12 *513:14 *616:20 0
13 *513:14 *616:22 0.000177127
14 *513:14 *619:12 0
15 *513:18 *573:46 0.000493306
16 *513:18 *613:14 0.00030223
17 *513:18 *614:10 0
18 *513:30 *515:20 0.00104738
19 *513:30 *538:36 0.000672408
20 *513:46 *538:30 0
21 *513:46 *538:36 0
22 *513:46 *555:58 4.63914e-05
23 *513:46 *556:96 0.000109244
24 *513:46 *586:24 0.00010984
25 *513:46 *599:46 0.000362212
26 *513:54 *515:52 0.000453767
27 *513:54 *516:52 0.00179385
28 *513:54 *552:20 0.000503206
29 *1107:A *513:14 2.18151e-05
30 *24:37 *513:54 0
31 *145:16 *513:54 0.00138371
32 *145:22 *513:54 0.00301531
33 *152:24 *513:54 0.0016037
34 *170:20 *513:46 0.000173781
35 *193:17 *513:30 0
36 *212:33 *513:14 7.92265e-05
37 *233:29 *513:14 8.00842e-05
38 *394:14 *513:14 0
39 *397:32 *513:22 0.000718668
40 *410:42 *513:46 0.000173141
41 *411:62 *513:22 0
42 *414:26 *513:30 0
43 *414:26 *513:46 0.002596
44 *414:38 *513:22 0
45 *414:44 *513:18 0
46 *416:24 *513:30 0
47 *416:24 *513:46 0.000456774
48 *417:14 *513:14 0
49 *419:36 *513:22 0
50 *422:28 *513:18 0.000556506
51 *432:46 *513:30 0
52 *433:16 *513:18 0
53 *464:32 *513:46 0
54 *480:18 *513:46 0
*RES
1 *1123:X *513:14 44.7957 
2 *513:14 *513:18 30.918 
3 *513:18 *513:22 39.1374 
4 *513:22 *513:30 49.4451 
5 *513:30 *513:36 40.7519 
6 *513:36 *513:46 44.823 
7 *513:46 *513:54 44.9981 
8 *513:54 *513:58 40 
9 *513:58 *1364:A 40 
*END

*D_NET *514 0.0284298
*CONN
*I *1365:A I *D sg13g2_buf_1
*I *1124:X O *D sg13g2_buf_1
*CAP
1 *1365:A 0
2 *1124:X 0.00029465
3 *514:54 0.000896389
4 *514:40 0.00198124
5 *514:34 0.00191506
6 *514:30 0.000997494
7 *514:22 0.00171981
8 *514:16 0.00195796
9 *514:10 0.000700075
10 *514:10 *541:71 0
11 *514:30 *567:62 0.000237389
12 *514:34 *565:30 0.00301708
13 *514:40 *526:28 0.000926332
14 *514:40 *532:34 0.00023495
15 *514:40 *615:32 0.000360656
16 *514:54 *517:58 0
17 *514:54 *544:43 0
18 *514:54 *575:61 0.00023034
19 *77:23 *514:10 0
20 *129:10 *514:54 7.34762e-05
21 *132:10 *514:54 7.34762e-05
22 *132:22 *514:54 7.32394e-05
23 *136:12 *514:54 0
24 *136:20 *514:54 0
25 *145:22 *514:30 0.000140671
26 *149:10 *514:54 0.0011696
27 *166:14 *514:54 0.000441164
28 *167:14 *514:22 0.000503554
29 *167:14 *514:30 0.000235965
30 *200:13 *514:10 0.000600575
31 *221:9 *514:10 0.000285709
32 *224:9 *514:10 0.000176511
33 *336:8 *514:54 0
34 *395:20 *514:16 0.000144946
35 *405:110 *514:16 0
36 *437:40 *514:34 0.000985365
37 *437:54 *514:16 0
38 *471:26 *514:10 0
39 *471:26 *514:16 0
40 *471:32 *514:22 0
41 *476:40 *514:16 0
42 *476:40 *514:22 0.00415574
43 *476:40 *514:34 0
44 *476:46 *514:34 0.00377423
45 *479:30 *514:22 0
46 *497:24 *514:54 0.000126146
*RES
1 *1124:X *514:10 44.0067 
2 *514:10 *514:16 42.455 
3 *514:16 *514:22 40.6618 
4 *514:22 *514:30 42.06 
5 *514:30 *514:34 38.8902 
6 *514:34 *514:40 48.9713 
7 *514:40 *514:54 49.9704 
8 *514:54 *1365:A 40 
*END

*D_NET *515 0.0261755
*CONN
*I *1366:A I *D sg13g2_buf_1
*I *1125:X O *D sg13g2_buf_1
*CAP
1 *1366:A 0
2 *1125:X 0
3 *515:56 0
4 *515:52 0.000801598
5 *515:44 0.00109301
6 *515:36 0.00131775
7 *515:26 0.00195818
8 *515:20 0.00432407
9 *515:10 0.00339224
10 *515:6 0
11 *515:20 *517:42 0
12 *515:20 *538:30 0.00259614
13 *515:20 *538:36 0
14 *515:20 *561:35 0.000931172
15 *515:20 *614:14 0
16 *515:36 *526:22 0
17 *515:36 *527:32 0.000234993
18 *515:36 *544:43 0
19 *515:36 *619:22 0.000129113
20 *515:44 *517:58 0
21 *515:44 *541:24 0.000614691
22 *515:44 *566:45 0.000615433
23 *515:52 *516:52 0
24 *515:52 *541:24 0
25 *132:22 *515:36 0.00013156
26 *139:14 *515:52 0.000562443
27 *140:20 *515:52 0
28 *155:24 *515:52 0.000562014
29 *157:18 *515:36 0.00258805
30 *170:14 *515:36 7.78179e-05
31 *407:12 *515:26 0
32 *407:48 *515:20 0
33 *408:14 *515:36 0.000984349
34 *408:28 *515:26 0.000713063
35 *416:24 *515:20 0
36 *418:52 *515:20 0
37 *420:22 *515:36 0
38 *432:50 *515:20 0
39 *439:22 *515:20 0
40 *470:40 *515:26 0
41 *479:72 *515:52 0
42 *480:28 *515:26 0.00064925
43 *488:70 *515:36 0
44 *499:32 *515:20 0.000286336
45 *501:30 *515:52 0.000111102
46 *513:30 *515:20 0.00104738
47 *513:54 *515:52 0.000453767
*RES
1 *1125:X *515:6 40 
2 *515:6 *515:10 40 
3 *515:10 *515:20 36.7607 
4 *515:20 *515:26 47.8898 
5 *515:26 *515:36 34.6878 
6 *515:36 *515:44 44.0067 
7 *515:44 *515:52 48.8271 
8 *515:52 *515:56 40 
9 *515:56 *1366:A 20 
*END

*D_NET *516 0.0329511
*CONN
*I *1367:A I *D sg13g2_buf_1
*I *1126:X O *D sg13g2_buf_1
*CAP
1 *1367:A 0
2 *1126:X 0.000370049
3 *516:58 0.000369208
4 *516:52 0.00190458
5 *516:46 0.00264805
6 *516:34 0.00163903
7 *516:28 0.000624679
8 *516:20 0.00172789
9 *516:14 0.00206377
10 *516:8 0.000804248
11 *516:8 *982:GATE 0.00097116
12 *516:20 *571:18 0.0051175
13 *516:20 *573:14 0
14 *516:28 *527:22 0.000129113
15 *516:34 *588:62 7.4563e-05
16 *516:34 *588:85 0.000181664
17 *516:46 *977:GATE 7.30101e-05
18 *516:46 *522:20 4.63914e-05
19 *516:46 *531:36 0
20 *516:46 *547:14 0
21 *516:46 *556:63 0
22 *516:46 *556:80 0.000109967
23 *516:46 *569:22 0
24 *516:46 *580:20 0.000520305
25 *516:52 *541:24 0.000355208
26 *516:52 *580:20 0
27 *66:37 *516:8 0
28 *149:18 *516:52 0.000266776
29 *152:24 *516:52 0.00157978
30 *155:14 *516:58 0
31 *193:17 *516:14 0
32 *285:8 *516:34 0.000228663
33 *290:8 *516:46 0.000177497
34 *301:10 *516:34 0.000648825
35 *361:20 *516:46 0
36 *379:22 *516:20 0.0013582
37 *397:46 *516:8 0.00119023
38 *410:26 *516:28 7.90769e-05
39 *419:26 *516:34 0.000700928
40 *425:28 *516:20 7.95012e-05
41 *439:34 *516:14 0
42 *461:16 *516:20 0.000489108
43 *466:18 *516:20 0.0030874
44 *499:56 *516:34 0.00154091
45 *499:60 *516:52 0
46 *512:22 *516:58 0
47 *513:54 *516:52 0.00179385
48 *515:52 *516:52 0
*RES
1 *1126:X *516:8 46.0358 
2 *516:8 *516:14 42.8899 
3 *516:14 *516:20 48.2323 
4 *516:20 *516:28 41.133 
5 *516:28 *516:34 48.755 
6 *516:34 *516:46 49.0337 
7 *516:46 *516:52 36.7066 
8 *516:52 *516:58 42.4823 
9 *516:58 *1367:A 40 
*END

*D_NET *517 0.0331187
*CONN
*I *1368:A I *D sg13g2_buf_1
*I *1127:X O *D sg13g2_buf_1
*CAP
1 *1368:A 0
2 *1127:X 2.45647e-05
3 *517:58 0.000645771
4 *517:48 0.00142863
5 *517:42 0.00259529
6 *517:36 0.00211267
7 *517:30 0.00270033
8 *517:14 0.00419342
9 *517:8 0.0018179
10 *517:14 *903:A0 0.000387952
11 *517:14 *914:A1 0.000283955
12 *517:14 *556:131 0
13 *517:14 *578:28 0
14 *517:14 *578:32 0
15 *517:14 *578:60 0.000234224
16 *517:14 *584:30 0.000649937
17 *517:14 *584:68 0.00034131
18 *517:14 *602:33 0
19 *517:30 *543:32 0
20 *517:30 *606:18 0
21 *517:30 *611:34 0.00097817
22 *517:30 *611:38 0.000668161
23 *517:42 *561:35 0.000930826
24 *517:42 *580:26 0.00114442
25 *517:42 *599:30 0
26 *517:58 *521:26 0.000119334
27 *517:58 *529:10 0
28 *517:58 *544:43 0
29 *517:58 *566:37 0.000206154
30 *24:77 *517:14 0.00027171
31 *107:24 *517:48 0
32 *135:28 *517:58 7.31655e-05
33 *149:18 *517:48 0.000665652
34 *253:18 *517:36 0
35 *253:36 *517:14 0.000143613
36 *290:24 *517:42 7.78609e-05
37 *333:12 *517:14 0
38 *338:8 *517:14 0
39 *368:10 *517:14 0
40 *386:38 *517:30 0.000263351
41 *386:44 *517:30 0.00151104
42 *411:62 *517:30 0
43 *414:52 *517:14 0
44 *416:30 *517:14 0
45 *418:52 *517:42 0.00151929
46 *419:36 *517:30 0
47 *425:56 *517:30 7.56869e-05
48 *431:18 *517:58 1.61052e-05
49 *434:16 *517:30 0.00203443
50 *439:34 *517:30 0
51 *463:26 *517:14 0
52 *468:22 *517:14 0.000654305
53 *471:60 *517:48 0.00184477
54 *476:64 *517:42 0.00092885
55 *502:22 *517:36 0.000366412
56 *505:58 *517:42 0.000172097
57 *509:20 *517:42 0.0010373
58 *514:54 *517:58 0
59 *515:20 *517:42 0
60 *515:44 *517:58 0
*RES
1 *1127:X *517:8 40.3193 
2 *517:8 *517:14 37.51 
3 *517:14 *517:30 49.7361 
4 *517:30 *517:36 42.4823 
5 *517:36 *517:42 41.7433 
6 *517:42 *517:48 49.991 
7 *517:48 *517:58 45.3457 
8 *517:58 *1368:A 20 
*END

*D_NET *518 0.0141243
*CONN
*I *1369:A I *D sg13g2_buf_1
*I *1128:X O *D sg13g2_buf_1
*CAP
1 *1369:A 0.000680436
2 *1128:X 0
3 *518:18 0.00130422
4 *518:14 0.00165283
5 *518:10 0.00102905
6 *518:6 0
7 *518:14 *556:88 0.000726769
8 *518:18 *536:16 0.000181313
9 *518:18 *556:63 0.000337905
10 *518:18 *569:52 0
11 *518:18 *569:70 0
12 *993:D *1369:A 0.000112198
13 *1101:A *1369:A 0.000337356
14 *158:32 *518:14 0.0030676
15 *378:8 *518:18 0.000863631
16 *409:16 *518:18 0.000649671
17 *424:16 *1369:A 0.000273394
18 *439:14 *518:18 0.00244436
19 *480:18 *518:14 0
20 *481:10 *1369:A 4.75151e-05
21 *497:39 *1369:A 0.000208035
22 *504:12 *1369:A 0.000208067
*RES
1 *1128:X *518:6 40 
2 *518:6 *518:10 40 
3 *518:10 *518:14 34.1934 
4 *518:14 *518:18 31.4742 
5 *518:18 *1369:A 46.592 
*END

*D_NET *519 0.0329548
*CONN
*I *1370:A I *D sg13g2_buf_1
*I *1135:X O *D sg13g2_buf_1
*CAP
1 *1370:A 0
2 *1135:X 0
3 *519:72 0.00102006
4 *519:66 0.00138347
5 *519:60 0.00120663
6 *519:52 0.0011758
7 *519:44 0.000494994
8 *519:36 0.000408464
9 *519:28 0.00274029
10 *519:24 0.00472427
11 *519:12 0.00313677
12 *519:6 0.00090674
13 *519:24 *578:28 0
14 *519:24 *586:14 0.000110503
15 *519:24 *590:22 0.000937058
16 *519:28 *586:24 0
17 *519:36 *570:24 0
18 *519:52 *536:16 0.000301578
19 *519:60 *956:A1 4.77425e-05
20 *519:60 *544:73 0.000209225
21 *519:60 *557:14 0.000369838
22 *519:60 *572:40 0.000331008
23 N1BEG[0] *519:72 0
24 N1BEG[2] *519:72 0.00247092
25 N2BEGb[4] *519:72 0
26 *901:S1 *519:60 0.000234986
27 *912:A0 *519:66 0.000240332
28 *956:S1 *519:52 0.00038595
29 *24:45 *519:28 0
30 *124:20 *519:72 0
31 *127:32 *519:72 0.000273434
32 *129:24 *519:60 0
33 *130:40 *519:60 0
34 *135:36 *519:60 0.000112426
35 *266:16 *519:52 1.4965e-05
36 *343:32 *519:36 0.000140671
37 *391:52 *519:28 0
38 *391:52 *519:44 0.000823657
39 *397:38 *519:24 0.000174615
40 *406:50 *519:24 0
41 *410:32 *519:28 0.00130503
42 *411:62 *519:12 0
43 *413:52 *519:24 0
44 *414:26 *519:24 0
45 *414:38 *519:12 0
46 *420:18 *519:52 0
47 *420:22 *519:28 0
48 *422:28 *519:12 0
49 *422:28 *519:24 0.0027176
50 *423:40 *519:28 0
51 *427:12 *519:28 0
52 *428:38 *519:72 0.000605967
53 *428:64 *519:24 0.000397344
54 *428:96 *519:12 0
55 *432:46 *519:24 0
56 *442:41 *519:28 0.001839
57 *467:38 *519:28 0
58 *475:39 *519:36 0.000277118
59 *488:36 *519:28 0
60 *493:16 *519:28 0
61 *496:18 *519:28 0
62 *500:34 *519:60 0.000227935
63 *501:24 *519:44 0.000823657
64 *502:14 *519:12 0
65 *502:14 *519:24 0
66 *502:30 *519:28 0
67 *502:40 *519:52 0.000384689
*RES
1 *1135:X *519:6 40 
2 *519:6 *519:12 49.888 
3 *519:12 *519:24 45.029 
4 *519:24 *519:28 47.295 
5 *519:28 *519:36 42.2763 
6 *519:36 *519:44 43.9449 
7 *519:44 *519:52 43.8831 
8 *519:52 *519:60 48.3945 
9 *519:60 *519:66 43.1312 
10 *519:66 *519:72 33.3076 
11 *519:72 *1370:A 20 
*END

*D_NET *520 0.0301289
*CONN
*I *1044:D I *D sg13g2_dlhq_1
*I *980:D I *D sg13g2_dlhq_1
*I *1076:A I *D sg13g2_buf_1
*I *1012:D I *D sg13g2_dlhq_1
*I *1181:X O *D sg13g2_buf_1
*CAP
1 *1044:D 0
2 *980:D 2.68585e-05
3 *1076:A 0
4 *1012:D 3.39844e-05
5 *1181:X 0.000333662
6 *520:85 0.000291561
7 *520:75 0.000733736
8 *520:69 0.00088623
9 *520:59 0.00103832
10 *520:40 0.000925789
11 *520:36 0.00269351
12 *520:30 0.00353859
13 *520:22 0.00173087
14 *520:16 0.00156742
15 *520:8 0.00133969
16 *520:16 *565:14 0.000565928
17 *520:16 *575:16 0.000501218
18 *520:22 *539:12 0
19 *520:22 *565:24 0
20 *520:30 *565:30 0
21 *520:36 *567:62 0.00102433
22 *520:36 *594:20 7.78179e-05
23 *520:40 *546:88 0.000282464
24 *520:40 *554:68 0.000229435
25 *520:59 *1012:GATE 0.000144542
26 *520:59 *547:74 0.0001122
27 *520:69 *892:A0 0.000212543
28 *520:69 *583:24 0.000178309
29 *520:75 *554:35 0
30 *520:75 *559:130 0.000235378
31 *520:85 *554:35 0.000286404
32 *520:85 *608:26 4.77425e-05
33 N4BEG[2] *520:40 0
34 *1167:A *520:16 0.000112541
35 *1169:A *520:16 0.000274508
36 *1175:A *520:22 7.33256e-05
37 *1185:A *520:8 0
38 *1211:A *520:8 0.000335582
39 *1226:A *980:D 4.77425e-05
40 *1226:A *520:85 7.98582e-05
41 *16:9 *520:22 0
42 *19:9 *520:16 0
43 *121:30 *520:69 0.000125175
44 *124:14 *520:30 7.81195e-05
45 *126:8 *520:22 0.000126358
46 *130:20 *520:22 0
47 *131:14 *520:22 0
48 *139:14 *520:30 0
49 *144:30 *520:36 0.00174267
50 *150:14 *520:22 0.000335672
51 *154:14 *520:30 0
52 *157:18 *520:36 0
53 *159:18 *520:59 0.000705526
54 *160:36 *520:40 0.000233757
55 *160:36 *520:59 0.000740363
56 *166:14 *520:36 0
57 *167:14 *520:30 0.000586984
58 *167:14 *520:36 0
59 *173:22 *520:40 0.000755813
60 *173:22 *520:59 7.52158e-05
61 *174:13 *520:8 0
62 *206:13 *520:85 0.000207922
63 *207:13 *520:85 7.86681e-05
64 *208:9 *520:69 0.000128779
65 *208:9 *520:75 0
66 *253:30 *520:69 0
67 *296:10 *520:59 0
68 *343:12 *520:69 0.00020604
69 *403:29 *520:59 0.000705526
70 *406:44 *520:75 0.000282474
71 *406:44 *520:85 0
72 *420:34 *520:69 0
73 *420:34 *520:75 0.000870415
74 *431:18 *520:22 0.000596617
75 *471:36 *520:36 0.00131455
76 *479:64 *520:30 0
77 *479:64 *520:36 0
78 *480:38 *520:30 0
79 *483:48 *520:59 0
80 *488:46 *520:69 0
81 *489:8 *520:22 0
82 *497:16 *520:16 0
83 *512:22 *520:30 0.000270151
*RES
1 *1181:X *520:8 43.0694 
2 *520:8 *520:16 30.0734 
3 *520:16 *520:22 46.283 
4 *520:22 *520:30 29.6256 
5 *520:30 *520:36 44.1432 
6 *520:36 *520:40 24.5526 
7 *520:40 *1012:D 40.3193 
8 *520:40 *520:59 47.9681 
9 *520:59 *520:69 44.8204 
10 *520:69 *520:75 25.3663 
11 *520:75 *520:85 43.2754 
12 *520:85 *1076:A 20 
13 *520:75 *980:D 20.3193 
14 *520:69 *1044:D 40 
*END

*D_NET *521 0.0116461
*CONN
*I *1371:A I *D sg13g2_buf_1
*I *1145:X O *D sg13g2_buf_1
*CAP
1 *1371:A 0
2 *1145:X 0.000106802
3 *521:26 0.00172248
4 *521:20 0.0020231
5 *521:10 0.000407427
6 *521:26 *535:54 0.000177583
7 *521:26 *552:28 0.000386398
8 *521:26 *557:14 0
9 *521:26 *557:24 8.00842e-05
10 *521:26 *572:50 0.000176252
11 *1341:A *521:10 4.75166e-05
12 *1347:A *521:20 0.000111568
13 *1362:A *521:20 0
14 *125:16 *521:26 0
15 *127:18 *521:26 7.57764e-05
16 *129:18 *521:26 0.00142341
17 *135:36 *521:26 0.00116894
18 *139:8 *521:26 0.000280355
19 *152:10 *521:26 7.30101e-05
20 *162:12 *521:26 0.000369743
21 *249:8 *521:26 0.000592985
22 *356:10 *521:26 0.00112291
23 *431:18 *521:26 0
24 *482:30 *521:20 1.53931e-05
25 *485:14 *521:10 0.000177481
26 *499:88 *521:26 0.000177499
27 *503:22 *521:20 0
28 *505:66 *521:26 0.000810035
29 *510:40 *521:26 0
30 *517:58 *521:26 0.000119334
*RES
1 *1145:X *521:10 41.1639 
2 *521:10 *521:20 42.9355 
3 *521:20 *521:26 42.3613 
4 *521:26 *1371:A 20 
*END

*D_NET *522 0.0113925
*CONN
*I *1372:A I *D sg13g2_buf_1
*I *1146:X O *D sg13g2_buf_1
*CAP
1 *1372:A 0
2 *1146:X 0.000122927
3 *522:34 0.000157973
4 *522:26 0.000527495
5 *522:20 0.00228023
6 *522:14 0.00246792
7 *522:8 0.000680141
8 *522:14 *527:32 0
9 *522:14 *556:28 0
10 *522:14 *564:41 0
11 *522:20 *535:44 0
12 *522:20 *569:22 0
13 *522:20 *580:20 0
14 *522:34 *572:40 7.55811e-05
15 *146:22 *522:26 0.00125218
16 *290:16 *522:20 0
17 *343:36 *522:26 0
18 *343:44 *522:20 0
19 *359:26 *522:20 0
20 *398:33 *522:20 0.00103743
21 *408:22 *522:20 4.67404e-05
22 *411:8 *522:8 0.000442449
23 *418:28 *522:20 0
24 *432:12 *522:8 0
25 *432:20 *522:8 0.000333466
26 *442:30 *522:14 0.000109244
27 *442:41 *522:14 0.000510373
28 *474:20 *522:14 0.000617102
29 *496:44 *522:34 7.49043e-05
30 *500:44 *522:26 0.000609913
31 *516:46 *522:20 4.63914e-05
*RES
1 *1146:X *522:8 42.0806 
2 *522:8 *522:14 45.5105 
3 *522:14 *522:20 35.1319 
4 *522:20 *522:26 45.7886 
5 *522:26 *522:34 41.5347 
6 *522:34 *1372:A 20 
*END

*D_NET *523 0.0238639
*CONN
*I *1373:A I *D sg13g2_buf_1
*I *1147:X O *D sg13g2_buf_1
*CAP
1 *1373:A 0.000169669
2 *1147:X 0
3 *523:34 0.000891962
4 *523:18 0.00417247
5 *523:12 0.0039709
6 *523:6 0.000520724
7 *523:12 *607:18 0.000366384
8 *523:12 *614:10 0
9 *523:18 *530:48 0
10 *523:18 *594:34 0.00125193
11 *523:18 *619:22 0
12 *523:34 *552:28 7.31655e-05
13 *523:34 *558:83 0.000297846
14 *523:34 *558:91 0
15 *523:34 *566:57 7.30101e-05
16 *135:42 *1373:A 0.000240377
17 *135:42 *523:34 7.30101e-05
18 *136:20 *1373:A 0.000175693
19 *160:22 *523:34 3.73103e-05
20 *391:20 *523:18 0
21 *419:48 *523:12 0
22 *420:22 *523:18 0
23 *423:40 *523:18 0.00533203
24 *427:12 *523:18 0
25 *468:16 *523:18 0.00274843
26 *488:14 *523:18 0.00162539
27 *493:16 *523:18 0
28 *496:18 *523:18 0.00184356
*RES
1 *1147:X *523:6 40 
2 *523:6 *523:12 44.429 
3 *523:12 *523:18 47.2461 
4 *523:18 *523:34 45.4973 
5 *523:34 *1373:A 41.8334 
*END

*D_NET *524 0.000835038
*CONN
*I *1374:A I *D sg13g2_buf_1
*I *1148:X O *D sg13g2_buf_1
*CAP
1 *1374:A 3.31858e-05
2 *1148:X 0.000102271
3 *524:8 0.000135457
4 *524:8 *526:38 0.000228819
5 *524:8 *533:38 0.000335306
6 *133:44 *524:8 0
*RES
1 *1148:X *524:8 41.5862 
2 *524:8 *1374:A 40.3193 
*END

*D_NET *525 0.0145981
*CONN
*I *1375:A I *D sg13g2_buf_1
*I *1149:X O *D sg13g2_buf_1
*CAP
1 *1375:A 0
2 *1149:X 0
3 *525:22 0
4 *525:18 0.0013704
5 *525:12 0.00185984
6 *525:6 0.000489445
7 *525:12 *529:10 0.00081721
8 *525:18 *576:34 0.000268397
9 *525:18 *586:24 0.000268269
10 *391:52 *525:18 0.00226835
11 *428:18 *525:18 0
12 *442:41 *525:18 0.00419188
13 *501:24 *525:18 0
14 *501:30 *525:18 0.00217081
15 *512:12 *525:12 0.00081721
16 *512:22 *525:18 7.62864e-05
*RES
1 *1149:X *525:6 40 
2 *525:6 *525:12 45.5105 
3 *525:12 *525:18 45.1732 
4 *525:18 *525:22 40 
5 *525:22 *1375:A 20 
*END

*D_NET *526 0.0134932
*CONN
*I *1376:A I *D sg13g2_buf_1
*I *1150:X O *D sg13g2_buf_1
*CAP
1 *1376:A 4.87883e-05
2 *1150:X 0.000102368
3 *526:38 0.000243601
4 *526:28 0.00115423
5 *526:22 0.00124181
6 *526:16 0.00210438
7 *526:10 0.00192436
8 *526:10 *1018:D 0.00011101
9 *526:16 *527:32 0
10 *526:16 *535:44 0
11 *526:16 *543:20 0.000395025
12 *526:28 *533:44 0.000182539
13 *133:44 *1376:A 8.00842e-05
14 *133:44 *526:38 0.000440097
15 *144:26 *526:38 4.63914e-05
16 *162:12 *1376:A 1.54008e-05
17 *172:14 *526:28 0.000823969
18 *337:28 *526:10 7.45103e-05
19 *408:14 *526:22 0.000717045
20 *410:26 *526:10 7.33256e-05
21 *425:22 *526:16 0
22 *428:44 *526:38 0.000126307
23 *471:44 *526:28 0.000289134
24 *476:46 *526:28 0.00105239
25 *488:70 *526:22 0.00109132
26 *492:28 *526:28 0
27 *499:60 *526:16 0
28 *514:40 *526:28 0.000926332
29 *515:36 *526:22 0
30 *524:8 *526:38 0.000228819
*RES
1 *1150:X *526:10 41.1021 
2 *526:10 *526:16 33.2149 
3 *526:16 *526:22 45.047 
4 *526:22 *526:28 31.0519 
5 *526:28 *526:38 42.7501 
6 *526:38 *1376:A 40.5356 
*END

*D_NET *527 0.0215463
*CONN
*I *1377:A I *D sg13g2_buf_1
*I *1136:X O *D sg13g2_buf_1
*CAP
1 *1377:A 0
2 *1136:X 0
3 *527:38 0.000111264
4 *527:32 0.00230892
5 *527:22 0.00392887
6 *527:18 0.00258755
7 *527:12 0.00184334
8 *527:6 0.000987004
9 *527:18 *551:25 0
10 *527:22 *539:30 0
11 *527:22 *543:32 0
12 *527:22 *547:18 0.00120235
13 *527:22 *547:37 0.000483316
14 *527:22 *547:112 0.000107078
15 *527:22 *551:42 0
16 *527:22 *577:75 0.00141103
17 *527:22 *611:38 0.00254
18 *527:32 *530:74 0.000129113
19 *527:32 *543:20 0.0003946
20 *140:20 *527:32 0
21 *144:26 *527:32 0.000720909
22 *147:14 *527:32 0
23 *150:22 *527:32 0.000769549
24 *158:32 *527:12 0.000504082
25 *180:25 *527:22 0
26 *344:18 *527:32 0.000204783
27 *361:20 *527:22 0
28 *361:26 *527:22 0
29 *391:48 *527:12 0
30 *397:52 *527:18 0
31 *413:34 *527:18 0
32 *414:26 *527:12 0
33 *418:20 *527:32 0.000330838
34 *425:22 *527:32 7.93742e-05
35 *439:22 *527:18 0
36 *464:16 *527:22 0
37 *474:20 *527:32 0
38 *480:18 *527:12 0
39 *484:36 *527:32 0.000523282
40 *492:36 *527:38 1.4965e-05
41 *499:32 *527:18 0
42 *515:36 *527:32 0.000234993
43 *516:28 *527:22 0.000129113
44 *522:14 *527:32 0
45 *526:16 *527:32 0
*RES
1 *1136:X *527:6 40 
2 *527:6 *527:12 49.0022 
3 *527:12 *527:18 46.3757 
4 *527:18 *527:22 44.5758 
5 *527:22 *527:32 40.1262 
6 *527:32 *527:38 40.7519 
7 *527:38 *1377:A 40 
*END

*D_NET *528 0.00329454
*CONN
*I *1378:A I *D sg13g2_buf_1
*I *1137:X O *D sg13g2_buf_1
*CAP
1 *1378:A 0.000150732
2 *1137:X 0.000302342
3 *528:8 0.000453074
4 *1378:A *956:A3 0
5 *1378:A *1041:GATE 4.75151e-05
6 *956:S1 *1378:A 0
7 *24:25 *528:8 0.000913544
8 *130:34 *1378:A 8.00842e-05
9 *340:10 *1378:A 4.77425e-05
10 *348:12 *528:8 0.00117449
11 *481:10 *528:8 0.000125015
*RES
1 *1137:X *528:8 45.5414 
2 *528:8 *1378:A 41.4008 
*END

*D_NET *529 0.00742879
*CONN
*I *1379:A I *D sg13g2_buf_1
*I *1138:X O *D sg13g2_buf_1
*CAP
1 *1379:A 0
2 *1138:X 0
3 *529:16 3.54873e-05
4 *529:10 0.00216908
5 *529:6 0.00213359
6 *529:10 *569:16 0
7 *24:15 *529:10 0.0015173
8 *127:18 *529:10 0
9 *130:26 *529:10 0
10 *135:28 *529:10 7.93772e-05
11 *137:12 *529:10 4.63914e-05
12 *144:20 *529:10 4.79477e-05
13 *146:8 *529:16 0.000124547
14 *155:14 *529:10 0
15 *158:16 *529:10 0
16 *471:60 *529:10 0
17 *483:52 *529:16 0.000124547
18 *483:60 *529:10 0.000333306
19 *512:12 *529:10 0
20 *517:58 *529:10 0
21 *525:12 *529:10 0.00081721
*RES
1 *1138:X *529:6 40 
2 *529:6 *529:10 38.9211 
3 *529:10 *529:16 40.5974 
4 *529:16 *1379:A 20 
*END

*D_NET *530 0.0339335
*CONN
*I *1380:A I *D sg13g2_buf_1
*I *1139:X O *D sg13g2_buf_1
*CAP
1 *1380:A 0
2 *1139:X 0.000231614
3 *530:92 0.000595452
4 *530:74 0.000767768
5 *530:68 0.000995577
6 *530:58 0.0012366
7 *530:48 0.000986687
8 *530:40 0.00161274
9 *530:34 0.00152194
10 *530:28 0.00156964
11 *530:20 0.00262469
12 *530:14 0.00153759
13 *530:10 0.000231614
14 *530:10 *605:28 0
15 *530:10 *618:8 4.74714e-05
16 *530:10 *619:14 0
17 *530:20 *533:16 0.000749397
18 *530:20 *534:10 0
19 *530:20 *567:74 0.00281101
20 *530:20 *619:22 0
21 *530:28 *532:22 0.00271157
22 *530:40 *555:64 0
23 *530:48 *619:22 0
24 *530:58 *956:A3 0
25 *530:58 *547:170 0.000193054
26 *530:58 *582:43 7.98582e-05
27 *530:68 *566:57 0.000227932
28 *530:68 *567:42 0
29 *530:68 *575:47 0.000754039
30 *956:S1 *530:58 0.00106721
31 *24:37 *530:40 0
32 *128:22 *530:92 0
33 *131:14 *530:92 7.49464e-05
34 *131:20 *530:92 4.75166e-05
35 *143:18 *530:68 0.000110503
36 *143:24 *530:40 0.00130507
37 *145:22 *530:34 0.000426375
38 *150:32 *530:58 0.00106802
39 *153:22 *530:40 0.00023495
40 *165:10 *530:92 8.00842e-05
41 *166:20 *530:28 0.000557535
42 *168:10 *530:92 0.00011101
43 *170:20 *530:40 0.000984744
44 *253:24 *530:40 0.00066345
45 *387:40 *530:68 0
46 *391:20 *530:20 0
47 *399:24 *530:34 0
48 *400:38 *530:34 0
49 *403:14 *530:10 0.000499312
50 *403:41 *530:40 0
51 *406:28 *530:34 0
52 *408:28 *530:48 7.78179e-05
53 *410:42 *530:28 0
54 *410:56 *530:20 0
55 *418:12 *530:92 0
56 *420:22 *530:48 0
57 *428:60 *530:28 0.00244328
58 *468:16 *530:20 0
59 *470:22 *530:28 0.000450683
60 *489:8 *530:92 0.000126552
61 *492:24 *530:20 0
62 *499:60 *530:68 0
63 *499:68 *530:92 0.000234664
64 *502:46 *530:68 0.0016256
65 *502:46 *530:92 0.000128777
66 *523:18 *530:48 0
67 *527:32 *530:74 0.000129113
*RES
1 *1139:X *530:10 42.6471 
2 *530:10 *530:14 40 
3 *530:14 *530:20 38.2825 
4 *530:20 *530:28 38.54 
5 *530:28 *530:34 43.9964 
6 *530:34 *530:40 32.6278 
7 *530:40 *530:48 44.5938 
8 *530:48 *530:58 46.6898 
9 *530:58 *530:68 49.9035 
10 *530:68 *530:74 41.5862 
11 *530:74 *530:92 46.3716 
12 *530:92 *1380:A 20 
*END

*D_NET *531 0.0328684
*CONN
*I *985:D I *D sg13g2_dlhq_1
*I *1049:A I *D sg13g2_buf_1
*I *1017:D I *D sg13g2_dlhq_1
*I *1182:X O *D sg13g2_buf_1
*CAP
1 *985:D 9.5546e-05
2 *1049:A 0
3 *1017:D 0.000129207
4 *1182:X 0
5 *531:71 0.000232618
6 *531:59 0.000446318
7 *531:44 0.000913306
8 *531:36 0.00261907
9 *531:26 0.00261988
10 *531:16 0.00413646
11 *531:10 0.0034697
12 *531:6 0
13 *985:D *559:75 0.000176252
14 *1017:D *564:16 0.000385369
15 *531:16 *573:14 0
16 *531:36 *539:26 0
17 *531:36 *547:14 0.00014193
18 *531:36 *576:14 0.00087236
19 *531:44 *538:91 7.44734e-05
20 *531:44 *559:75 0
21 *531:44 *563:26 0.00107099
22 *531:44 *564:16 0.000390572
23 *531:59 *559:75 0.000208592
24 I_top2 *531:26 0
25 I_top2 *531:36 0
26 *13:33 *531:71 0
27 *24:83 *531:16 0
28 *107:42 *531:16 0.00071686
29 *116:18 *531:36 0.00156538
30 *116:22 *531:26 0
31 *181:9 *531:26 0.000917769
32 *181:9 *531:36 0
33 *258:8 *531:44 0.000230271
34 *302:8 *531:44 0.000388458
35 *377:14 *531:26 0
36 *390:26 *531:16 0.00352752
37 *398:24 *1017:D 0
38 *409:16 *531:71 0.00030074
39 *415:8 *1017:D 0.000385448
40 *415:8 *531:44 0.000157535
41 *422:16 *531:16 0
42 *425:44 *531:16 0
43 *434:20 *531:16 0
44 *439:14 *531:71 0.000124826
45 *439:38 *531:16 0
46 *461:16 *531:16 0.00258527
47 *467:50 *531:16 0.00315561
48 *476:64 *531:36 0
49 *482:30 *531:71 0.000332501
50 *484:24 *531:16 0
51 *487:12 *985:D 0.000161152
52 *487:12 *531:59 0.000208592
53 *498:51 *531:36 0
54 *505:58 *531:36 0
55 *507:14 *1017:D 4.77425e-05
56 *507:14 *531:71 8.00842e-05
57 *516:46 *531:36 0
*RES
1 *1182:X *531:6 40 
2 *531:6 *531:10 40 
3 *531:10 *531:16 47.2461 
4 *531:16 *531:26 46.5199 
5 *531:26 *531:36 38.8902 
6 *531:36 *531:44 28.4357 
7 *531:44 *1017:D 42.1527 
8 *531:44 *531:59 21.4008 
9 *531:59 *531:71 43.2548 
10 *531:71 *1049:A 20 
11 *531:59 *985:D 21.1845 
*END

*D_NET *532 0.0226135
*CONN
*I *1381:A I *D sg13g2_buf_1
*I *1140:X O *D sg13g2_buf_1
*CAP
1 *1381:A 0
2 *1140:X 0
3 *532:42 0.000244331
4 *532:34 0.000666132
5 *532:26 0.00155875
6 *532:22 0.00316029
7 *532:12 0.00214085
8 *532:6 0.000117505
9 *532:22 *533:26 0.000769677
10 *532:22 *565:42 2.6713e-05
11 *532:22 *615:22 0
12 *532:26 *546:63 0.000336212
13 *532:26 *575:83 7.47964e-05
14 *532:34 *533:44 0.00119806
15 *143:12 *532:34 0.000182512
16 *146:18 *532:34 0
17 *146:28 *532:26 0
18 *169:8 *532:42 0.00039467
19 *172:14 *532:34 0.000931327
20 *173:34 *532:26 2.14736e-05
21 *395:24 *532:22 0
22 *405:110 *532:12 0.000209967
23 *428:56 *532:26 0.000701964
24 *431:35 *532:42 0
25 *431:47 *532:26 0.00256902
26 *431:53 *532:26 0.0006488
27 *437:54 *532:12 0.000209967
28 *470:22 *532:22 0.000824279
29 *476:28 *532:22 0.000610265
30 *483:52 *532:42 0
31 *500:20 *532:22 4.63914e-05
32 *500:34 *532:26 0.002001
33 *506:10 *532:42 2.20248e-05
34 *514:40 *532:34 0.00023495
35 *530:28 *532:22 0.00271157
*RES
1 *1140:X *532:6 40 
2 *532:6 *532:12 41.4008 
3 *532:12 *532:22 45.3174 
4 *532:22 *532:26 37.407 
5 *532:26 *532:34 47.1585 
6 *532:34 *532:42 42.6471 
7 *532:42 *1381:A 40 
*END

*D_NET *533 0.0286543
*CONN
*I *1382:A I *D sg13g2_buf_1
*I *1141:X O *D sg13g2_buf_1
*CAP
1 *1382:A 0
2 *1141:X 0.000482386
3 *533:44 0.000388379
4 *533:38 0.000957582
5 *533:32 0.000770373
6 *533:26 0.000812984
7 *533:22 0.0015277
8 *533:16 0.00182306
9 *533:10 0.00138956
10 *533:10 *590:16 0
11 *533:10 *616:22 0.00111858
12 *533:16 *600:20 0
13 *533:26 *565:42 0.00146564
14 *533:38 *557:74 0.000282463
15 *533:38 *558:124 0
16 N2BEGb[6] *533:32 0
17 N4BEG[7] *533:38 7.31655e-05
18 *143:12 *533:44 0
19 *155:24 *533:32 0.000270379
20 *169:24 *533:26 0.000823985
21 *190:9 *533:38 0
22 *359:16 *533:26 0.0008773
23 *391:28 *533:10 0.000144027
24 *410:56 *533:16 0
25 *415:40 *533:10 0.000751278
26 *428:44 *533:38 0.000860516
27 *428:64 *533:16 0
28 *437:26 *533:32 0.000109543
29 *470:16 *533:22 0.000109244
30 *470:22 *533:26 0
31 *471:18 *533:10 0.000241052
32 *479:18 *533:16 7.78179e-05
33 *483:52 *533:38 0.00159083
34 *492:24 *533:16 0
35 *492:28 *533:22 0.00346519
36 *492:28 *533:44 0.00173229
37 *500:14 *533:22 0
38 *500:20 *533:22 0.00327401
39 *524:8 *533:38 0.000335306
40 *526:28 *533:44 0.000182539
41 *530:20 *533:16 0.000749397
42 *532:22 *533:26 0.000769677
43 *532:34 *533:44 0.00119806
*RES
1 *1141:X *533:10 46.9113 
2 *533:10 *533:16 47.6735 
3 *533:16 *533:22 37.7572 
4 *533:22 *533:26 30.9798 
5 *533:26 *533:32 41.8334 
6 *533:32 *533:38 48.755 
7 *533:38 *533:44 48.0134 
8 *533:44 *1382:A 40 
*END

*D_NET *534 0.0213185
*CONN
*I *1383:A I *D sg13g2_buf_1
*I *1142:X O *D sg13g2_buf_1
*CAP
1 *1383:A 0
2 *1142:X 0
3 *534:28 0.000381642
4 *534:20 0.000811821
5 *534:14 0.00381026
6 *534:12 0.00338008
7 *534:10 0.00190788
8 *534:6 0.00190788
9 *534:10 *538:72 0
10 *534:10 *600:12 0
11 *534:10 *611:18 0
12 *534:14 *567:48 0.00018265
13 *534:14 *572:60 0.00221497
14 *534:14 *572:81 0.000236188
15 *534:14 *591:32 0
16 *534:14 *615:22 0
17 *140:20 *534:14 0
18 *145:22 *534:14 0
19 *147:20 *534:28 0.00130252
20 *151:32 *534:14 0.000879413
21 *155:24 *534:14 6.90087e-05
22 *168:22 *534:14 0
23 *387:57 *534:20 0.00014102
24 *388:16 *534:10 0
25 *400:24 *534:14 0.00103788
26 *410:56 *534:10 0
27 *414:34 *534:10 0
28 *428:72 *534:10 0
29 *470:28 *534:14 0.000932816
30 *476:46 *534:20 0.000549564
31 *479:64 *534:28 0
32 *492:28 *534:28 0.00146363
33 *500:44 *534:20 0.000109244
34 *530:20 *534:10 0
*RES
1 *1142:X *534:6 40 
2 *534:6 *534:10 33.7299 
3 *534:10 *534:12 20 
4 *534:12 *534:14 37.4302 
5 *534:14 *534:20 43.7801 
6 *534:20 *534:28 47.313 
7 *534:28 *1383:A 40 
*END

*D_NET *535 0.0315261
*CONN
*I *1384:A I *D sg13g2_buf_1
*I *1143:X O *D sg13g2_buf_1
*CAP
1 *1384:A 0
2 *1143:X 0
3 *535:54 0.000500412
4 *535:44 0.00251544
5 *535:38 0.00201503
6 *535:34 0.000315747
7 *535:26 0.00111106
8 *535:18 0.00479792
9 *535:12 0.00503824
10 *535:6 0.00103564
11 *535:18 *555:64 0.000238939
12 *535:18 *567:74 0.00190618
13 *535:18 *591:38 0.000663468
14 *535:34 *581:16 0.000176252
15 *535:44 *556:88 0.00173885
16 *535:44 *567:42 0.000266377
17 *535:44 *569:22 0.000823366
18 *535:54 *556:10 0.000341637
19 *535:54 *575:30 1.54008e-05
20 *535:54 *575:47 8.00842e-05
21 *535:54 *615:45 8.00842e-05
22 *135:28 *535:54 0.000177583
23 *162:28 *535:26 0.00012559
24 *373:8 *535:34 7.92265e-05
25 *373:14 *535:34 0.000858065
26 *388:16 *535:18 0
27 *397:14 *535:12 0
28 *399:18 *535:18 0
29 *399:30 *535:18 0.00205434
30 *408:34 *535:26 0.000179045
31 *418:72 *535:12 0
32 *424:58 *535:18 0.00296247
33 *436:16 *535:12 0
34 *437:54 *535:18 0
35 *439:14 *535:34 0.00085928
36 *474:14 *535:26 0
37 *474:20 *535:44 0
38 *479:12 *535:12 0
39 *493:16 *535:26 0.000392781
40 *496:22 *535:18 0
41 *499:60 *535:44 0
42 *521:26 *535:54 0.000177583
43 *522:20 *535:44 0
44 *526:16 *535:44 0
*RES
1 *1143:X *535:6 40 
2 *535:6 *535:12 49.1876 
3 *535:12 *535:18 47.2461 
4 *535:18 *535:26 46.1703 
5 *535:26 *535:34 45.2427 
6 *535:34 *535:38 40 
7 *535:38 *535:44 38.9932 
8 *535:44 *535:54 45.1912 
9 *535:54 *1384:A 20 
*END

*D_NET *536 0.00941455
*CONN
*I *1385:A I *D sg13g2_buf_1
*I *1144:X O *D sg13g2_buf_1
*CAP
1 *1385:A 0
2 *1144:X 0
3 *536:26 0.000176631
4 *536:16 0.0017891
5 *536:6 0.00161247
6 *536:16 *550:115 0.000233606
7 *536:16 *550:130 0.00123067
8 *536:16 *552:63 0.000127271
9 *536:16 *559:47 0.00143392
10 *536:16 *569:70 0.000233975
11 *536:26 *1033:GATE 0
12 *536:26 *558:114 1.54008e-05
13 *897:S0 *536:26 7.98582e-05
14 *148:16 *536:16 0.000395902
15 *158:28 *536:16 0
16 *162:20 *536:16 0.000492336
17 *166:14 *536:26 7.48306e-05
18 *398:39 *536:16 0
19 *399:34 *536:26 0
20 *408:34 *536:16 0.000124859
21 *439:14 *536:16 0.000910816
22 *488:66 *536:16 0
23 *518:18 *536:16 0.000181313
24 *519:52 *536:16 0.000301578
*RES
1 *1144:X *536:6 40 
2 *536:6 *536:16 39.879 
3 *536:16 *536:26 41.6686 
4 *536:26 *1385:A 20 
*END

*D_NET *537 0.00790298
*CONN
*I *1386:A I *D sg13g2_buf_1
*I *1151:X O *D sg13g2_buf_1
*CAP
1 *1386:A 0
2 *1151:X 0.000416984
3 *537:16 0.00131942
4 *537:12 0.00318762
5 *537:8 0.00228518
6 *1098:A *537:8 0.00069377
7 *1292:A *537:8 0
8 *69:9 *537:12 0
9 *411:68 *537:12 0
10 *425:68 *537:12 0
11 *440:8 *537:12 0
*RES
1 *1151:X *537:8 44.6453 
2 *537:8 *537:12 40.8678 
3 *537:12 *537:16 34.3788 
4 *537:16 *1386:A 40 
*END

*D_NET *538 0.0321731
*CONN
*I *1013:D I *D sg13g2_dlhq_1
*I *1045:D I *D sg13g2_dlhq_1
*I *981:D I *D sg13g2_dlhq_1
*I *1077:A I *D sg13g2_buf_1
*I *1183:X O *D sg13g2_buf_2
*CAP
1 *1013:D 0
2 *1045:D 6.12248e-05
3 *981:D 0.000889924
4 *1077:A 4.34496e-05
5 *1183:X 0.000151754
6 *538:91 4.65681e-05
7 *538:72 0.000560589
8 *538:49 0.00160084
9 *538:38 0.000255004
10 *538:36 0.00138656
11 *538:30 0.00371159
12 *538:18 0.0023716
13 *538:16 0.000994711
14 *538:12 0.00239178
15 *538:8 0.00154882
16 *981:D *990:GATE 0
17 *981:D *553:63 0.000756427
18 *981:D *585:10 7.92265e-05
19 *1045:D *549:33 4.77425e-05
20 *1077:A *585:18 8.00842e-05
21 *538:12 *539:16 0
22 *538:16 *543:20 0.00238738
23 *538:16 *555:12 0
24 *538:30 *543:20 0.00044978
25 *538:30 *550:92 0.00109317
26 *538:30 *580:26 0
27 *538:36 *596:14 0
28 *538:49 *603:36 0.000602385
29 *538:72 *560:98 0.000229275
30 *538:72 *603:36 0.000946621
31 *538:91 *563:26 7.44734e-05
32 *1226:A *1077:A 7.98484e-05
33 *21:13 *538:8 0
34 *23:23 *538:8 0
35 *193:17 *538:36 0
36 *206:13 *538:49 0
37 *209:13 *981:D 0.000305545
38 *341:22 *538:30 0.000771778
39 *344:18 *538:30 0
40 *405:22 *538:16 0
41 *407:38 *538:49 0.000229431
42 *407:38 *538:72 0.000966118
43 *414:34 *538:72 0
44 *416:24 *538:36 0.00110657
45 *418:60 *538:49 0
46 *428:84 *538:72 7.31655e-05
47 *464:12 *538:12 0
48 *464:32 *538:30 0
49 *464:78 *538:72 7.30101e-05
50 *471:60 *538:30 0
51 *471:60 *538:91 0
52 *474:20 *538:30 7.78179e-05
53 *474:20 *538:91 4.6693e-05
54 *480:38 *538:12 0
55 *499:32 *538:36 0.00179362
56 *509:48 *981:D 0.000207845
57 *509:59 *981:D 0.000337652
58 *513:30 *538:36 0.000672408
59 *513:46 *538:30 0
60 *513:46 *538:36 0
61 *515:20 *538:30 0.00259614
62 *515:20 *538:36 0
63 *531:44 *538:91 7.44734e-05
64 *534:10 *538:72 0
*RES
1 *1183:X *538:8 41.5862 
2 *538:8 *538:12 34.1625 
3 *538:12 *538:16 32.7102 
4 *538:16 *538:18 20 
5 *538:18 *538:30 46.7903 
6 *538:30 *538:36 36.6345 
7 *538:36 *538:38 20 
8 *538:38 *1077:A 40.5356 
9 *538:38 *538:49 2.8222 
10 *538:49 *981:D 48.9919 
11 *538:49 *538:72 47.0452 
12 *538:72 *1045:D 40.6695 
13 *538:18 *538:91 40.6695 
14 *538:91 *1013:D 20 
*END

*D_NET *539 0.0389337
*CONN
*I *1014:D I *D sg13g2_dlhq_1
*I *982:D I *D sg13g2_dlhq_1
*I *1078:A I *D sg13g2_buf_1
*I *1046:D I *D sg13g2_dlhq_1
*I *1184:X O *D sg13g2_buf_2
*CAP
1 *1014:D 0
2 *982:D 0
3 *1078:A 0
4 *1046:D 0
5 *1184:X 0.000681056
6 *539:61 0.000495879
7 *539:48 0.00119418
8 *539:40 0.00189103
9 *539:32 0.00119274
10 *539:30 0.00113419
11 *539:26 0.00145872
12 *539:20 0.00137341
13 *539:16 0.00271502
14 *539:12 0.0023472
15 *539:20 *542:16 0.00270632
16 *539:20 *579:16 0
17 *539:20 *579:18 0
18 *539:30 *551:42 0.00264178
19 *539:30 *577:75 0
20 *539:30 *579:18 0
21 *539:30 *588:58 0.000930932
22 *539:40 *982:GATE 0
23 *539:48 *982:GATE 0.0003875
24 *539:48 *549:33 0.000443366
25 *539:48 *599:80 0.00012651
26 *539:61 *552:105 0
27 *539:61 *560:115 0.000178734
28 *1184:A *539:12 1.54556e-05
29 *1338:A *539:12 0.000273652
30 *17:17 *539:12 0.000284374
31 *21:13 *539:12 0
32 *23:23 *539:12 0
33 *24:15 *539:20 0
34 *66:37 *539:40 0.000783947
35 *66:45 *539:40 0
36 *114:16 *539:20 0
37 *114:26 *539:26 4.669e-05
38 *118:20 *539:20 0
39 *123:10 *539:12 0.000273854
40 *123:16 *539:12 0
41 *254:12 *539:40 0.00204798
42 *254:12 *539:48 0
43 *263:16 *539:40 0
44 *270:10 *539:61 0.00102654
45 *308:22 *539:48 0
46 *324:14 *539:61 0.00112851
47 *343:16 *539:40 0.000605405
48 *394:24 *539:48 4.76973e-05
49 *394:24 *539:61 0.00028921
50 *402:30 *539:48 0
51 *407:16 *539:30 0.00344413
52 *407:24 *539:40 0.000606035
53 *410:20 *539:20 0.00179788
54 *419:36 *539:30 0.000558795
55 *428:84 *539:61 0.000153365
56 *435:14 *539:48 0
57 *435:14 *539:61 0
58 *464:12 *539:16 0.0022934
59 *464:16 *539:30 0.00135822
60 *520:22 *539:12 0
61 *527:22 *539:30 0
62 *531:36 *539:26 0
63 *538:12 *539:16 0
*RES
1 *1184:X *539:12 46.6435 
2 *539:12 *539:16 37.6233 
3 *539:16 *539:20 37.1598 
4 *539:20 *539:26 40.6028 
5 *539:26 *539:30 43.3398 
6 *539:30 *539:32 20 
7 *539:32 *539:40 15.4294 
8 *539:40 *539:48 27.1688 
9 *539:48 *1046:D 20 
10 *539:48 *539:61 48.0855 
11 *539:61 *1078:A 20 
12 *539:40 *982:D 40 
13 *539:32 *1014:D 40 
*END

*D_NET *540 0.00738901
*CONN
*I *1018:D I *D sg13g2_dlhq_1
*I *986:D I *D sg13g2_dlhq_1
*I *1050:A I *D sg13g2_buf_1
*I *1185:X O *D sg13g2_buf_1
*CAP
1 *1018:D 0.000605378
2 *986:D 1.82514e-05
3 *1050:A 0
4 *1185:X 8.22225e-05
5 *540:35 0.00089606
6 *540:33 0.00127344
7 *540:18 0.000381395
8 *540:6 0.00146463
9 *1018:D *550:21 0.000111568
10 *540:18 *588:18 0.00012651
11 *540:33 *924:A0 0.00059207
12 *540:33 *559:75 0
13 *540:33 *588:18 0
14 *540:35 *551:71 0
15 *540:35 *570:18 0.000240935
16 *2:17 *540:6 0
17 *2:17 *540:18 0.000126354
18 *2:17 *540:33 0.000126047
19 *29:11 *540:18 0
20 *344:28 *540:33 0.000540534
21 *398:24 *540:33 0
22 *432:12 *540:18 4.76973e-05
23 *490:12 *540:33 0
24 *491:18 *540:33 0.000388496
25 *498:20 *540:6 9.62471e-05
26 *498:20 *540:18 0.000160161
27 *526:10 *1018:D 0.00011101
*RES
1 *1185:X *540:6 20.7519 
2 *540:6 *540:18 43.7492 
3 *540:18 *1050:A 20 
4 *540:6 *540:33 49.6717 
5 *540:33 *540:35 2.59045 
6 *540:35 *986:D 20.2111 
7 *540:35 *1018:D 25.7526 
*END

*D_NET *541 0.0355873
*CONN
*I *1019:D I *D sg13g2_dlhq_1
*I *1051:A I *D sg13g2_buf_1
*I *987:D I *D sg13g2_dlhq_1
*I *1186:X O *D sg13g2_buf_1
*CAP
1 *1019:D 0
2 *1051:A 2.60565e-05
3 *987:D 0
4 *1186:X 4.83931e-05
5 *541:83 2.60565e-05
6 *541:79 0.000687904
7 *541:71 0.000971428
8 *541:60 0.000392137
9 *541:52 0.00192
10 *541:46 0.00242235
11 *541:36 0.00190829
12 *541:32 0.00201058
13 *541:24 0.00236338
14 *541:14 0.00255475
15 *541:8 0.000953008
16 *541:8 *564:16 0
17 *541:14 *544:20 0
18 *541:14 *567:18 0
19 *541:36 *1032:D 0
20 *541:36 *548:29 0.000970069
21 *541:36 *552:63 0
22 *541:36 *557:48 0.000231839
23 *541:36 *574:54 0.000179494
24 *541:36 *582:16 0.00359871
25 *541:36 *610:65 0
26 *541:46 *599:46 0
27 *541:52 *591:24 0.000172798
28 *541:52 *600:12 0
29 *541:52 *607:22 0
30 *541:60 *587:10 0.000178997
31 *1117:A *541:60 4.77425e-05
32 *1117:A *541:71 0.000257274
33 *24:67 *541:46 0.000131139
34 *24:67 *541:52 0
35 *77:23 *541:71 0.000444878
36 *107:16 *541:14 0.000734956
37 *107:38 *541:24 1.52665e-05
38 *133:30 *541:24 0
39 *140:20 *541:24 0
40 *141:20 *541:24 0
41 *143:24 *541:24 0.00135922
42 *149:18 *541:32 0.000663596
43 *152:24 *541:24 0.0024356
44 *162:28 *541:36 0.000437461
45 *174:13 *541:8 0
46 *216:19 *541:79 0
47 *221:9 *541:71 0.000391223
48 *239:21 *1051:A 4.77425e-05
49 *326:10 *541:36 0.000437332
50 *343:12 *541:46 4.63914e-05
51 *380:10 *1051:A 4.77425e-05
52 *398:12 *541:14 0
53 *398:24 *541:14 0
54 *405:46 *541:36 0.000543204
55 *405:110 *541:79 0
56 *408:28 *541:32 0
57 *408:34 *541:36 0
58 *408:42 *541:46 0.000129136
59 *408:58 *541:52 0.000824097
60 *410:62 *541:52 0
61 *415:46 *541:52 0.000129113
62 *420:18 *541:32 0.000394599
63 *463:20 *541:60 0
64 *467:46 *541:52 0.000399911
65 *471:18 *541:71 0
66 *476:28 *541:79 0.00066425
67 *476:46 *541:24 0
68 *479:72 *541:14 0.000145601
69 *483:32 *541:52 0
70 *488:70 *541:32 0
71 *488:78 *541:14 0
72 *492:16 *541:52 0.00106616
73 *510:14 *541:46 0.00120749
74 *511:20 *541:14 0
75 *514:10 *541:71 0
76 *515:44 *541:24 0.000614691
77 *515:52 *541:24 0
78 *516:52 *541:24 0.000355208
*RES
1 *1186:X *541:8 40.3502 
2 *541:8 *541:14 48.755 
3 *541:14 *541:24 40.6515 
4 *541:24 *541:32 46.695 
5 *541:32 *541:36 39.1374 
6 *541:36 *541:46 47.1688 
7 *541:46 *541:52 37.4791 
8 *541:52 *541:60 41.1639 
9 *541:60 *987:D 20 
10 *541:60 *541:71 23.914 
11 *541:71 *541:79 47.8074 
12 *541:79 *541:83 40 
13 *541:83 *1051:A 40.3193 
14 *541:71 *1019:D 40 
*END

*D_NET *542 0.0284012
*CONN
*I *988:D I *D sg13g2_dlhq_1
*I *1020:D I *D sg13g2_dlhq_1
*I *1052:A I *D sg13g2_buf_1
*I *1187:X O *D sg13g2_buf_1
*CAP
1 *988:D 0.000151171
2 *1020:D 0.000140062
3 *1052:A 0
4 *1187:X 0
5 *542:49 0.000291233
6 *542:47 0.00269263
7 *542:32 0.000130759
8 *542:24 0.00282339
9 *542:22 0.00158342
10 *542:16 0.00316605
11 *542:12 0.00218438
12 *542:6 0.000601745
13 *542:12 *545:16 0
14 *542:12 *580:14 0.000439
15 *542:16 *573:14 0
16 *542:22 *576:34 0
17 *542:22 *614:14 0
18 *542:47 *896:A2 0.00028477
19 *542:47 *1020:GATE 0.000344341
20 *542:47 *558:45 0
21 *542:47 *592:24 0
22 *542:47 *592:41 0
23 *542:47 *599:52 0
24 *1226:A *988:D 0.000208035
25 *1226:A *1020:D 0
26 *24:15 *542:16 0
27 *107:16 *542:12 0
28 *107:42 *542:16 0.00205005
29 *118:20 *542:16 0
30 *118:20 *542:22 0
31 *118:24 *542:22 0
32 *119:22 *542:22 0.00328342
33 *119:22 *542:32 7.78179e-05
34 *121:14 *542:22 0
35 *163:14 *542:47 0
36 *180:13 *542:16 0
37 *184:17 *542:12 0
38 *202:13 *1020:D 4.77425e-05
39 *205:13 *542:47 0
40 *253:30 *542:47 0
41 *260:8 *542:47 0
42 *343:12 *542:47 0
43 *395:30 *542:47 0
44 *409:38 *542:22 0.0023791
45 *410:12 *542:12 0
46 *416:20 *542:47 0
47 *428:56 *542:47 0
48 *431:83 *1020:D 4.75166e-05
49 *431:83 *542:47 0
50 *439:28 *542:47 0
51 *461:16 *542:16 0.000662832
52 *473:18 *542:16 0.00210538
53 *496:18 *542:47 0
54 *539:20 *542:16 0.00270632
*RES
1 *1187:X *542:6 40 
2 *542:6 *542:12 45.7268 
3 *542:12 *542:16 45.3174 
4 *542:16 *542:22 40.7236 
5 *542:22 *542:24 20 
6 *542:24 *542:32 41.0712 
7 *542:32 *1052:A 20 
8 *542:24 *542:47 40.9979 
9 *542:47 *542:49 20 
10 *542:49 *1020:D 21.3184 
11 *542:49 *988:D 21.4008 
*END

*D_NET *543 0.0312351
*CONN
*I *1021:D I *D sg13g2_dlhq_1
*I *989:D I *D sg13g2_dlhq_1
*I *1053:A I *D sg13g2_buf_1
*I *1188:X O *D sg13g2_buf_1
*CAP
1 *1021:D 4.83489e-05
2 *989:D 0
3 *1053:A 0
4 *1188:X 2.74364e-05
5 *543:67 0.000249107
6 *543:60 0.00103165
7 *543:52 0.00223372
8 *543:46 0.00187739
9 *543:40 0.000833142
10 *543:32 0.00197576
11 *543:28 0.00229032
12 *543:20 0.00181462
13 *543:14 0.00162163
14 *543:8 0.000507596
15 *543:8 *575:10 7.34081e-05
16 *543:14 *567:18 0
17 *543:14 *588:18 0
18 *543:28 *561:14 0.00135888
19 *543:32 *547:18 0.000720168
20 *543:32 *547:37 0.000504513
21 *543:32 *547:112 0.000129113
22 *543:32 *606:18 0
23 *543:32 *611:38 0.00264563
24 *543:40 *611:38 0.000775013
25 *543:46 *590:51 0
26 *543:46 *611:34 0.00014193
27 *543:52 *545:71 0
28 *543:52 *580:38 0.000758295
29 *543:52 *611:18 0
30 *543:60 *975:GATE 0
31 *543:60 *548:10 0
32 *543:60 *561:63 0
33 *543:60 *580:46 2.14736e-05
34 *1037:D *543:60 0.000702488
35 *1125:A *543:60 0.000337166
36 *1125:A *543:67 0.000289469
37 *24:67 *543:52 0.000524081
38 *29:11 *543:8 0
39 *107:38 *543:28 0.000204783
40 *282:8 *543:60 0
41 *341:22 *543:20 0
42 *343:12 *543:46 0
43 *344:18 *543:20 0.000129113
44 *361:20 *543:32 0
45 *373:18 *543:28 0
46 *405:14 *543:14 0
47 *405:22 *543:20 0
48 *414:34 *543:52 0.000441285
49 *418:60 *543:52 0.0028756
50 *419:36 *543:40 0
51 *426:8 *543:60 0
52 *426:8 *543:67 0
53 *442:22 *543:20 0
54 *464:12 *543:14 0
55 *471:12 *543:60 0.00018128
56 *484:14 *543:46 0
57 *484:30 *543:20 0
58 *488:30 *543:60 0
59 *499:32 *543:40 7.78179e-05
60 *505:58 *543:28 0.000206042
61 *517:30 *543:32 0
62 *526:16 *543:20 0.000395025
63 *527:22 *543:32 0
64 *527:32 *543:20 0.0003946
65 *538:16 *543:20 0.00238738
66 *538:30 *543:20 0.00044978
*RES
1 *1188:X *543:8 40.3502 
2 *543:8 *543:14 42.4592 
3 *543:14 *543:20 35.656 
4 *543:20 *543:28 47.6838 
5 *543:28 *543:32 38.643 
6 *543:32 *543:40 44.3466 
7 *543:40 *543:46 43.3475 
8 *543:46 *543:52 37.0156 
9 *543:52 *543:60 48.0546 
10 *543:60 *1053:A 20 
11 *543:60 *543:67 2.0497 
12 *543:67 *989:D 20 
13 *543:67 *1021:D 20.5974 
*END

*D_NET *544 0.0216591
*CONN
*I *962:D I *D sg13g2_dlhq_1
*I *994:D I *D sg13g2_dlhq_1
*I *1026:D I *D sg13g2_dlhq_1
*I *1058:A I *D sg13g2_buf_1
*I *1189:X O *D sg13g2_buf_1
*CAP
1 *962:D 0
2 *994:D 0
3 *1026:D 0
4 *1058:A 0
5 *1189:X 0.000262099
6 *544:104 0.000483373
7 *544:94 0.000747924
8 *544:85 0.000595422
9 *544:81 0.00071471
10 *544:73 0.00135072
11 *544:63 0.00144926
12 *544:49 0.000794971
13 *544:43 0.00138511
14 *544:26 0.00126895
15 *544:20 0.0013884
16 *544:10 0.00145407
17 *544:10 *566:10 0
18 *544:10 *577:8 0.000178206
19 *544:43 *575:30 0
20 *544:73 *557:6 6.46834e-05
21 *544:73 *557:14 0.000111568
22 *544:73 *558:124 0.000112426
23 *544:73 *572:50 0.000441757
24 *544:81 *595:10 0.000279156
25 *544:85 *964:GATE 0
26 *544:85 *581:16 0
27 *544:94 *964:GATE 6.46834e-05
28 *544:94 *547:134 0.000337402
29 *544:104 *964:GATE 0.000175693
30 *544:104 *546:29 9.66528e-05
31 *544:104 *546:31 0.00024014
32 *544:104 *547:126 0.000112426
33 *544:104 *547:134 1.54008e-05
34 N1BEG[1] *544:63 0.00167255
35 N1BEG[3] *544:63 0.00168457
36 N2BEGb[2] *544:73 0.00023234
37 *1108:A *544:49 1.54008e-05
38 *1177:A *544:20 0.000124855
39 *23:23 *544:10 0.00011101
40 *129:24 *544:73 0.000273049
41 *132:50 *544:73 0.000748776
42 *132:50 *544:81 2.21468e-05
43 *135:42 *544:73 0
44 *136:12 *544:43 0
45 *150:32 *544:104 0.000230787
46 *156:16 *544:43 0
47 *157:12 *544:43 0
48 *164:8 *544:81 0
49 *170:8 *544:49 7.92265e-05
50 *170:14 *544:43 0
51 *171:12 *544:73 0
52 *174:13 *544:10 0.000493542
53 *348:12 *544:26 0.000128742
54 *349:8 *544:104 0.000230347
55 *398:12 *544:20 0
56 *398:24 *544:20 0
57 *406:12 *544:26 8.00842e-05
58 *406:12 *544:43 1.54008e-05
59 *478:10 *544:104 0
60 *481:10 *544:20 0
61 *481:10 *544:26 0.000182216
62 *483:48 *544:85 0.000304759
63 *486:10 *544:20 0
64 *486:23 *544:20 0
65 *488:58 *544:81 0.000173781
66 *495:22 *544:43 0
67 *497:24 *544:43 0.000231865
68 *503:8 *544:20 0.000289272
69 *514:54 *544:43 0
70 *515:36 *544:43 0
71 *517:58 *544:43 0
72 *519:60 *544:73 0.000209225
73 *541:14 *544:20 0
*RES
1 *1189:X *544:10 43.0797 
2 *544:10 *544:20 49.2391 
3 *544:20 *544:26 22.2454 
4 *544:26 *1058:A 20 
5 *544:26 *544:43 47.9575 
6 *544:43 *544:49 42.6986 
7 *544:49 *544:63 49.8159 
8 *544:63 *544:73 30.2382 
9 *544:73 *544:81 43.1724 
10 *544:81 *544:85 22.9149 
11 *544:85 *1026:D 20 
12 *544:85 *544:94 2.8634 
13 *544:94 *544:104 45.1912 
14 *544:104 *994:D 20 
15 *544:94 *962:D 20 
*END

*D_NET *545 0.031214
*CONN
*I *1054:A I *D sg13g2_buf_1
*I *1022:D I *D sg13g2_dlhq_1
*I *990:D I *D sg13g2_dlhq_1
*I *1190:X O *D sg13g2_buf_1
*CAP
1 *1054:A 0
2 *1022:D 0
3 *990:D 7.20162e-05
4 *1190:X 0.000298444
5 *545:88 0.000340292
6 *545:75 0.000444894
7 *545:71 0.00100325
8 *545:56 0.00266636
9 *545:50 0.00263812
10 *545:36 0.00178615
11 *545:28 0.00131505
12 *545:20 0.00184454
13 *545:16 0.00210347
14 *545:10 0.00102869
15 *545:10 *562:14 0
16 *545:10 *577:20 0.000242312
17 *545:20 *571:16 0
18 *545:28 *965:GATE 0.00017625
19 *545:28 *568:54 0.000111567
20 *545:36 *919:A1 0.000265461
21 *545:36 *568:54 2.2291e-05
22 *545:36 *581:46 0.00065923
23 *545:36 *581:63 0.000181387
24 *545:50 *902:A2 0.00017677
25 *545:50 *1024:D 8.00842e-05
26 *545:50 *547:74 0
27 *545:50 *550:140 0
28 *545:50 *556:106 0.000599709
29 *545:56 *1032:D 0
30 *545:56 *548:16 0
31 *545:56 *552:67 0.00145168
32 *545:56 *555:70 0
33 *545:56 *582:16 0
34 *545:56 *610:65 0
35 *545:71 *556:131 0.000496966
36 *545:71 *580:38 0.000177439
37 *545:71 *618:16 0
38 *545:75 *975:GATE 0
39 *545:75 *559:17 0.000143835
40 *545:88 *1037:GATE 0.000225168
41 *545:88 *559:17 8.00394e-05
42 *929:S *545:50 0.000175693
43 *1190:A *545:10 0
44 *24:15 *545:20 0
45 *107:16 *545:16 0
46 *174:13 *545:10 0
47 *179:9 *545:28 7.52149e-05
48 *206:13 *990:D 0.000112418
49 *206:13 *545:56 0.000418293
50 *261:8 *545:88 0
51 *263:16 *545:36 0.00012816
52 *279:12 *545:56 0
53 *327:10 *545:36 0.00103403
54 *343:16 *545:36 0
55 *349:16 *545:20 0.00365868
56 *391:36 *545:56 0
57 *394:46 *545:36 0.00108118
58 *411:36 *545:20 0.00130275
59 *414:34 *545:71 0.00101429
60 *432:34 *545:28 0.000289002
61 *453:61 *545:50 0
62 *471:12 *545:88 0.000283268
63 *488:30 *545:88 0
64 *498:26 *545:16 0
65 *501:12 *545:71 0.00100954
66 *501:18 *545:71 0
67 *505:24 *545:71 0
68 *542:12 *545:16 0
69 *543:52 *545:71 0
*RES
1 *1190:X *545:10 42.8325 
2 *545:10 *545:16 46.1594 
3 *545:16 *545:20 42.5982 
4 *545:20 *545:28 44.9028 
5 *545:28 *545:36 31.6493 
6 *545:36 *545:50 49.2288 
7 *545:50 *545:56 36.1195 
8 *545:56 *990:D 20.7519 
9 *545:56 *545:71 30.6605 
10 *545:71 *545:75 20.9682 
11 *545:75 *1022:D 20 
12 *545:75 *545:88 43.3887 
13 *545:88 *1054:A 20 
*END

*D_NET *546 0.0368816
*CONN
*I *971:GATE I *D sg13g2_dlhq_1
*I *967:GATE I *D sg13g2_dlhq_1
*I *959:GATE I *D sg13g2_dlhq_1
*I *962:GATE I *D sg13g2_dlhq_1
*I *963:GATE I *D sg13g2_dlhq_1
*I *970:GATE I *D sg13g2_dlhq_1
*I *965:GATE I *D sg13g2_dlhq_1
*I *964:GATE I *D sg13g2_dlhq_1
*I *1152:X O *D sg13g2_buf_8
*CAP
1 *971:GATE 0.000212163
2 *967:GATE 0
3 *959:GATE 1.51983e-05
4 *962:GATE 0.000291033
5 *963:GATE 0
6 *970:GATE 4.57066e-05
7 *965:GATE 0.000698009
8 *964:GATE 0.000616085
9 *1152:X 0.000710678
10 *546:161 0.000227333
11 *546:155 0.000404897
12 *546:149 0.00113092
13 *546:136 0.00154777
14 *546:126 0.00115214
15 *546:124 0.00102974
16 *546:112 0.00115614
17 *546:102 0.00148576
18 *546:98 0.00116018
19 *546:88 0.000346696
20 *546:67 0.000748849
21 *546:63 0.000637636
22 *546:31 0.00155771
23 *546:29 0.000871438
24 *546:10 0.00101927
25 *959:GATE *593:22 0
26 *962:GATE *996:D 8.00842e-05
27 *962:GATE *555:52 1.54008e-05
28 *964:GATE *547:126 1.51734e-05
29 *964:GATE *586:28 0.000124547
30 *965:GATE *1029:GATE 4.77425e-05
31 *965:GATE *606:28 0.000272718
32 *970:GATE *1029:GATE 0
33 *970:GATE *560:26 0
34 *971:GATE *593:22 0
35 *971:GATE *612:20 0.000319746
36 *546:10 *586:28 0.000156076
37 *546:29 *581:16 0.000111963
38 *546:31 *1034:GATE 8.00842e-05
39 *546:31 *559:57 0.000401227
40 *546:31 *560:26 0
41 *546:31 *581:16 0.00011219
42 *546:63 *566:65 0.000337402
43 *546:67 *552:10 0
44 *546:102 *558:24 0.000445426
45 *546:102 *558:45 0
46 *546:102 *572:96 0.000440068
47 *546:102 *583:69 0.000338413
48 *546:112 *558:49 6.46834e-05
49 *546:112 *558:61 0.000895203
50 *546:112 *587:16 0
51 *546:124 *553:38 0.0001122
52 *546:124 *587:10 0.000735882
53 *546:124 *587:16 0.000176239
54 *546:124 *600:20 0.000598647
55 *546:126 *612:20 0.00156023
56 *546:136 *549:82 0
57 *546:136 *593:22 0
58 *546:149 *603:16 0
59 *546:161 *552:141 0.000125963
60 N4BEG[1] *546:67 0.000144768
61 N4BEG[2] *546:88 1.51734e-05
62 *1011:D *546:136 0.000239162
63 *77:15 *546:149 0
64 *108:10 *546:155 0
65 *143:24 *546:98 8.03346e-05
66 *146:28 *546:63 0.000336212
67 *150:32 *546:10 0.000400669
68 *160:36 *546:88 0.000283988
69 *166:14 *964:GATE 0.000124547
70 *166:14 *546:10 0.000176399
71 *170:28 *546:102 0.000235086
72 *173:22 *546:98 0.000334703
73 *224:9 *971:GATE 0
74 *224:9 *546:126 0
75 *233:29 *971:GATE 0.000144352
76 *257:10 *546:31 0.000401036
77 *271:8 *546:161 0
78 *272:12 *546:102 0
79 *274:10 *959:GATE 1.61708e-05
80 *274:10 *546:136 0.000210602
81 *313:12 *964:GATE 0.000465239
82 *375:18 *962:GATE 0.000112426
83 *386:74 *546:161 0.000603728
84 *403:29 *546:112 0.00102995
85 *405:82 *546:98 0
86 *463:20 *546:124 0.000755685
87 *463:20 *546:126 0.00134942
88 *467:22 *546:112 0
89 *467:22 *546:124 0.000336222
90 *468:28 *546:155 0.000239997
91 *472:28 *965:GATE 0.000144542
92 *476:18 *546:149 0.000872756
93 *483:48 *964:GATE 0.000143926
94 *483:48 *546:98 0.00033428
95 *483:48 *546:102 0.00134547
96 *520:40 *546:88 0.000282464
97 *532:26 *546:63 0.000336212
98 *544:85 *964:GATE 0
99 *544:94 *964:GATE 6.46834e-05
100 *544:104 *964:GATE 0.000175693
101 *544:104 *546:29 9.66528e-05
102 *544:104 *546:31 0.00024014
103 *545:28 *965:GATE 0.00017625
*RES
1 *1152:X *546:10 43.5432 
2 *546:10 *964:GATE 46.6229 
3 *546:10 *546:29 20.7519 
4 *546:29 *546:31 7.8898 
5 *546:31 *965:GATE 26.3784 
6 *546:31 *970:GATE 20.5974 
7 *546:29 *963:GATE 20 
8 *1152:X *546:63 44.2848 
9 *546:63 *546:67 22.266 
10 *546:67 *962:GATE 22.7192 
11 *546:67 *546:88 42.4411 
12 *546:88 *546:98 42.472 
13 *546:98 *546:102 31.4742 
14 *546:102 *546:112 46.9525 
15 *546:112 *546:124 49.1876 
16 *546:124 *546:126 7.2718 
17 *546:126 *546:136 25.392 
18 *546:136 *959:GATE 20.2111 
19 *546:136 *546:149 48.3224 
20 *546:149 *546:155 41.6171 
21 *546:155 *546:161 42.8222 
22 *546:161 *967:GATE 20 
23 *546:126 *971:GATE 42.5544 
*END

*D_NET *547 0.0355092
*CONN
*I *969:GATE I *D sg13g2_dlhq_1
*I *973:GATE I *D sg13g2_dlhq_1
*I *961:GATE I *D sg13g2_dlhq_1
*I *1152:A I *D sg13g2_buf_8
*I *974:GATE I *D sg13g2_dlhq_1
*I *972:GATE I *D sg13g2_dlhq_1
*I *966:GATE I *D sg13g2_dlhq_1
*I *978:GATE I *D sg13g2_dlhq_1
*I *1153:X O *D sg13g2_buf_8
*CAP
1 *969:GATE 0
2 *973:GATE 0
3 *961:GATE 0
4 *1152:A 0
5 *974:GATE 8.56733e-05
6 *972:GATE 0
7 *966:GATE 8.99545e-05
8 *978:GATE 0.000421624
9 *1153:X 0.00159755
10 *547:170 0.00159755
11 *547:152 0.000159594
12 *547:134 0.000294086
13 *547:126 0.00161877
14 *547:112 0.0016606
15 *547:93 0.000346281
16 *547:82 0.000513131
17 *547:74 0.00242584
18 *547:66 0.00191271
19 *547:62 0.00126431
20 *547:51 0.00013064
21 *547:45 0.00147118
22 *547:43 0.000913218
23 *547:37 0.000910945
24 *547:24 0.00048841
25 *547:18 0.000451708
26 *547:14 0.000609441
27 *547:4 0.000472713
28 *978:GATE *1010:GATE 0.000272718
29 *547:45 *573:14 0
30 *547:45 *576:20 0.00135857
31 *547:51 *576:34 4.63914e-05
32 *547:62 *573:14 0
33 *547:74 *902:A2 0
34 *547:74 *1012:GATE 0
35 *547:74 *1157:A 0.00036963
36 *547:74 *548:16 0
37 *547:74 *550:140 0.000239882
38 *547:74 *550:155 0.000273049
39 *547:74 *554:39 6.44559e-05
40 *547:74 *603:52 0.000208035
41 *547:74 *616:36 0.00025674
42 *547:93 *573:14 0
43 *547:112 *562:22 0.000229461
44 *547:112 *574:14 0.000229691
45 *547:112 *611:48 0
46 *547:134 *581:16 0.000337402
47 *547:152 *562:22 0.000495374
48 *547:170 *905:A0 0.000465909
49 *547:170 *559:69 0.000143351
50 *547:170 *607:40 4.76973e-05
51 I_top5 *974:GATE 0
52 N4BEG[13] *547:82 0.000240377
53 *897:S1 *547:126 0
54 *901:A3 *547:170 4.77425e-05
55 *905:S1 *547:152 8.00842e-05
56 *912:A0 *547:170 9.17262e-05
57 *912:S *547:170 0.000368771
58 *929:S *547:74 0
59 *953:S *547:74 0
60 *964:GATE *547:126 1.51734e-05
61 *1001:D *547:170 8.00842e-05
62 *1360:A *547:14 0.000240377
63 *1360:A *547:170 0
64 *154:28 *547:134 0.0002802
65 *160:36 *547:82 0.00044462
66 *162:20 *547:126 0.000112236
67 *176:13 *547:14 7.31655e-05
68 *180:13 *547:45 0.000665151
69 *310:12 *547:74 4.77425e-05
70 *310:12 *547:134 0.000176236
71 *313:12 *547:126 8.00842e-05
72 *327:10 *978:GATE 0.000143351
73 *345:14 *547:14 7.30101e-05
74 *361:20 *547:18 0
75 *390:44 *547:74 0.000144542
76 *397:46 *547:74 0
77 *410:26 *547:43 0.000330489
78 *410:26 *547:112 0.000299486
79 *415:22 *547:170 0.000240377
80 *424:26 *547:152 0.000495114
81 *453:61 *547:74 0.000626444
82 *461:16 *547:45 0
83 *461:16 *547:62 0
84 *461:16 *547:93 0
85 *464:22 *547:24 7.78179e-05
86 *467:22 *547:82 0.000446386
87 *470:40 *547:43 0.000487621
88 *472:28 *547:126 0.000144542
89 *478:10 *547:126 5.33868e-05
90 *479:42 *547:82 0.00036963
91 *509:42 *547:74 0
92 *516:46 *547:14 0
93 *520:59 *547:74 0.0001122
94 *527:22 *547:18 0.00120235
95 *527:22 *547:37 0.000483316
96 *527:22 *547:112 0.000107078
97 *530:58 *547:170 0.000193054
98 *531:36 *547:14 0.00014193
99 *543:32 *547:18 0.000720168
100 *543:32 *547:37 0.000504513
101 *543:32 *547:112 0.000129113
102 *544:94 *547:134 0.000337402
103 *544:104 *547:126 0.000112426
104 *544:104 *547:134 1.54008e-05
105 *545:50 *547:74 0
*RES
1 *1153:X *547:4 20 
2 *547:4 *547:14 42.9355 
3 *547:14 *547:18 25.5414 
4 *547:18 *547:24 40.5356 
5 *547:24 *978:GATE 44.1303 
6 *547:18 *547:37 2.3278 
7 *547:37 *547:43 44.2127 
8 *547:43 *547:45 6.5302 
9 *547:45 *547:51 40.3193 
10 *547:51 *966:GATE 40.7519 
11 *547:45 *547:62 7.7662 
12 *547:62 *547:66 40 
13 *547:66 *547:74 36.8209 
14 *547:74 *547:82 46.2933 
15 *547:82 *972:GATE 20 
16 *547:62 *547:93 42.0806 
17 *547:93 *974:GATE 40.9682 
18 *547:37 *547:112 43.7389 
19 *547:112 *547:126 31.9892 
20 *547:126 *547:134 43.605 
21 *547:134 *1152:A 20 
22 *547:126 *961:GATE 20 
23 *547:4 *547:152 42.8634 
24 *547:152 *973:GATE 20 
25 *1153:X *547:170 34.5951 
26 *547:170 *969:GATE 20 
*END

*D_NET *548 0.0226267
*CONN
*I *975:GATE I *D sg13g2_dlhq_1
*I *960:GATE I *D sg13g2_dlhq_1
*I *976:GATE I *D sg13g2_dlhq_1
*I *1153:A I *D sg13g2_buf_8
*I *977:GATE I *D sg13g2_dlhq_1
*I *968:GATE I *D sg13g2_dlhq_1
*I *1154:X O *D sg13g2_buf_8
*CAP
1 *975:GATE 0.000523952
2 *960:GATE 0.000144546
3 *976:GATE 0
4 *1153:A 0.000469651
5 *977:GATE 0.000113683
6 *968:GATE 0
7 *1154:X 0.000290226
8 *548:67 0.000211727
9 *548:41 0.000710515
10 *548:35 0.00138686
11 *548:29 0.00176629
12 *548:16 0.00199179
13 *548:10 0.00218214
14 *548:8 0.00115486
15 *960:GATE *990:GATE 0.000208035
16 *975:GATE *1038:GATE 0
17 *1153:A *1018:GATE 0
18 *1153:A *556:63 0
19 *548:8 *590:16 0
20 *548:16 *552:67 0.000870769
21 *548:16 *552:73 0
22 *548:16 *552:86 0
23 *548:16 *552:101 0
24 *548:29 *610:65 0.000707875
25 *548:35 *551:25 7.81669e-05
26 *548:41 *569:37 7.44263e-05
27 *548:67 *551:25 9.42794e-05
28 *1125:A *975:GATE 0.000175693
29 *1360:A *1153:A 0.000240264
30 *158:32 *548:35 0.00344176
31 *252:40 *548:8 0
32 *282:8 *548:10 0.00060439
33 *282:8 *548:16 0.000547687
34 *290:8 *977:GATE 0
35 *290:8 *548:41 0
36 *343:32 *548:35 0
37 *378:8 *977:GATE 0.000126358
38 *378:8 *548:41 0.000316722
39 *378:16 *977:GATE 4.77425e-05
40 *391:28 *548:8 0
41 *397:58 *548:35 0.00146465
42 *398:33 *548:35 0.000556655
43 *414:14 *548:35 0
44 *418:48 *548:35 0
45 *420:18 *548:35 0
46 *421:14 *975:GATE 0.000372368
47 *421:14 *548:10 0.000709556
48 *471:12 *975:GATE 0
49 *505:18 *548:8 0
50 *509:48 *548:16 0
51 *516:46 *977:GATE 7.30101e-05
52 *541:36 *548:29 0.000970069
53 *543:60 *975:GATE 0
54 *543:60 *548:10 0
55 *545:56 *548:16 0
56 *545:75 *975:GATE 0
57 *547:74 *548:16 0
*RES
1 *1154:X *548:8 42.4823 
2 *548:8 *548:10 4.5526 
3 *548:10 *548:16 34.9144 
4 *548:16 *968:GATE 20 
5 *548:16 *548:29 44.8719 
6 *548:29 *548:35 38.6842 
7 *548:35 *548:41 41.5862 
8 *548:41 *977:GATE 41.1639 
9 *548:41 *1153:A 43.7801 
10 *548:29 *548:67 41.6171 
11 *548:67 *976:GATE 20 
12 *548:10 *960:GATE 41.4008 
13 *548:8 *975:GATE 44.9646 
*END

*D_NET *549 0.0257094
*CONN
*I *1081:A I *D sg13g2_buf_1
*I *979:GATE I *D sg13g2_dlhq_1
*I *1154:A I *D sg13g2_buf_8
*I *981:GATE I *D sg13g2_dlhq_1
*I *980:GATE I *D sg13g2_dlhq_1
*I *982:GATE I *D sg13g2_dlhq_1
*I *1155:X O *D sg13g2_buf_8
*CAP
1 *1081:A 0
2 *979:GATE 0
3 *1154:A 0
4 *981:GATE 7.62984e-05
5 *980:GATE 0
6 *982:GATE 0.000440768
7 *1155:X 0.000194079
8 *549:113 0.000754545
9 *549:107 0.00113698
10 *549:90 0.000106296
11 *549:82 0.00111379
12 *549:78 0.00175268
13 *549:59 0.000465988
14 *549:51 0.000882362
15 *549:43 0.0012936
16 *549:33 0.00186945
17 *549:12 0.00118802
18 *982:GATE *939:A0 4.77425e-05
19 *549:12 *584:16 0.000208035
20 *549:33 *556:131 0
21 *549:33 *618:32 0
22 *549:43 *603:36 0.000230615
23 *549:43 *618:32 2.21356e-05
24 *549:51 *553:44 0
25 *549:51 *553:63 2.21356e-05
26 *549:51 *580:54 0
27 *549:59 *608:26 0.000595689
28 *549:59 *611:18 7.35515e-05
29 *549:78 *552:105 0.0013897
30 *549:82 *1164:A 0
31 *549:82 *556:135 0.0001122
32 *549:82 *556:142 0.000916176
33 *549:82 *556:153 0.000207126
34 *549:82 *603:24 0
35 *549:90 *593:22 8.00842e-05
36 *549:107 *891:A0 7.9657e-05
37 *549:107 *552:105 0.00015611
38 *549:107 *552:124 0.000233917
39 *549:107 *552:130 7.9225e-05
40 *549:107 *573:30 0.000176728
41 *549:113 *573:22 7.48209e-05
42 *916:S *549:43 0.000261824
43 *916:S *549:51 0
44 *1011:D *549:90 0.000228935
45 *1045:D *549:33 4.77425e-05
46 *1119:A *549:113 0.000240684
47 *1215:A *549:59 0.000369743
48 *66:25 *549:33 0.000176692
49 *66:37 *982:GATE 0.000122823
50 *77:15 *549:90 0.000234224
51 *209:13 *549:59 0.000369653
52 *252:32 *549:59 0
53 *252:50 *549:78 0.00144534
54 *252:50 *549:107 0.000654625
55 *274:10 *549:82 0.000239996
56 *275:10 *549:82 0.00020799
57 *282:14 *549:43 0
58 *308:14 *549:12 4.75166e-05
59 *308:22 *982:GATE 0
60 *308:22 *549:33 0
61 *324:14 *549:113 0
62 *392:16 *549:51 0
63 *393:33 *549:113 0.000813451
64 *402:30 *549:113 0
65 *421:8 *549:43 0
66 *430:10 *549:107 0.000177891
67 *433:20 *549:113 0.00145491
68 *436:20 *549:113 0
69 *439:62 *549:113 0.000240684
70 *464:78 *549:33 7.98567e-05
71 *468:28 *549:82 0.000433075
72 *469:10 *549:113 0
73 *501:12 *549:43 7.9225e-05
74 *516:8 *982:GATE 0.00097116
75 *539:40 *982:GATE 0
76 *539:48 *982:GATE 0.0003875
77 *539:48 *549:33 0.000443366
78 *546:136 *549:82 0
*RES
1 *1155:X *549:12 42.0703 
2 *549:12 *982:GATE 45.5826 
3 *549:12 *549:33 45.5311 
4 *549:33 *549:43 28.6005 
5 *549:43 *549:51 42.7089 
6 *549:51 *549:59 45.3045 
7 *549:59 *980:GATE 20 
8 *549:51 *981:GATE 20.7519 
9 *549:43 *1154:A 20 
10 *549:33 *549:78 7.0246 
11 *549:78 *549:82 30.2691 
12 *549:82 *549:90 41.6274 
13 *549:90 *979:GATE 20 
14 *549:78 *549:107 45.3869 
15 *549:107 *549:113 30.1249 
16 *549:113 *1081:A 20 
*END

*D_NET *550 0.0321463
*CONN
*I *991:GATE I *D sg13g2_dlhq_1
*I *992:GATE I *D sg13g2_dlhq_1
*I *994:GATE I *D sg13g2_dlhq_1
*I *1002:GATE I *D sg13g2_dlhq_1
*I *986:GATE I *D sg13g2_dlhq_1
*I *985:GATE I *D sg13g2_dlhq_1
*I *993:GATE I *D sg13g2_dlhq_1
*I *997:GATE I *D sg13g2_dlhq_1
*I *1156:X O *D sg13g2_buf_8
*CAP
1 *991:GATE 0.000244548
2 *992:GATE 0
3 *994:GATE 0.00034311
4 *1002:GATE 0
5 *986:GATE 6.43146e-05
6 *985:GATE 2.62171e-05
7 *993:GATE 0
8 *997:GATE 0
9 *1156:X 0.000179633
10 *550:155 0.00113777
11 *550:140 0.000268133
12 *550:130 0.0017109
13 *550:115 0.00113449
14 *550:100 0.000391873
15 *550:92 0.000478454
16 *550:84 0.000954381
17 *550:67 0.000690287
18 *550:65 0.000330099
19 *550:43 0.00055992
20 *550:31 0.00133792
21 *550:21 0.00122924
22 *550:12 0.000147356
23 *550:10 0.000179633
24 *986:GATE *1018:GATE 0.000112426
25 *994:GATE *552:51 2.21754e-05
26 *994:GATE *574:54 0.000176883
27 *550:10 *588:50 0.000390282
28 *550:10 *610:22 0.000387763
29 *550:21 *551:56 0.000143718
30 *550:21 *551:71 9.64682e-05
31 *550:21 *610:30 4.77425e-05
32 *550:43 *556:28 0
33 *550:43 *556:63 0.000546741
34 *550:43 *570:18 0
35 *550:43 *572:30 0.000437669
36 *550:65 *574:14 0
37 *550:84 *1018:GATE 9.5609e-05
38 *550:84 *562:22 0.00101937
39 *550:84 *574:14 0.00102118
40 *550:92 *563:26 0.000110503
41 *550:100 *610:57 0.000491567
42 *550:115 *558:12 0
43 *550:130 *552:63 0
44 *550:130 *552:67 0.000234845
45 *550:140 *561:46 0.000336303
46 *550:155 *582:16 0.00192726
47 *550:155 *597:14 0.00135137
48 I_top9 *991:GATE 0.000434199
49 *911:S *550:100 0.000491654
50 *929:S *550:155 0
51 *1018:D *550:21 0.000111568
52 *1226:A *991:GATE 0.000434009
53 *176:13 *550:31 0.000444048
54 *176:13 *550:65 0.000232418
55 *279:12 *550:155 0.000392589
56 *319:12 *550:100 0
57 *319:12 *550:115 1.54008e-05
58 *325:8 *550:155 0
59 *345:14 *550:65 0.000335499
60 *349:12 *550:92 0.000110503
61 *357:20 *550:31 0.000522529
62 *357:20 *550:65 0.000211845
63 *363:8 *550:10 0
64 *373:8 *550:115 7.86681e-05
65 *409:16 *550:43 0.000439037
66 *416:20 *550:140 0.000339017
67 *432:20 *986:GATE 8.00842e-05
68 *432:20 *550:84 4.75151e-05
69 *439:14 *550:115 0.000234533
70 *439:14 *550:130 0.00189226
71 *442:30 *550:31 8.00842e-05
72 *464:32 *550:92 0.000826042
73 *473:12 *550:84 0
74 *484:24 *550:84 0
75 *491:10 *550:31 0.000240377
76 *504:12 *985:GATE 3.23417e-05
77 *504:12 *550:31 0.000691518
78 *536:16 *550:115 0.000233606
79 *536:16 *550:130 0.00123067
80 *538:30 *550:92 0.00109317
81 *545:50 *550:140 0
82 *547:74 *550:140 0.000239882
83 *547:74 *550:155 0.000273049
*RES
1 *1156:X *550:10 42.6162 
2 *550:10 *550:12 20 
3 *550:12 *997:GATE 20 
4 *550:12 *550:21 21.6171 
5 *550:21 *550:31 28.6932 
6 *550:31 *550:43 46.6384 
7 *550:43 *993:GATE 20 
8 *550:31 *985:GATE 20.3193 
9 *550:21 *550:65 43.6462 
10 *550:65 *550:67 20 
11 *550:67 *986:GATE 20.7519 
12 *550:67 *550:84 47.6014 
13 *550:84 *550:92 45.7989 
14 *550:92 *550:100 42.678 
15 *550:100 *1002:GATE 20 
16 *550:100 *550:115 22.9458 
17 *550:115 *994:GATE 43.0488 
18 *550:115 *550:130 29.0022 
19 *550:130 *550:140 43.5226 
20 *550:140 *992:GATE 20 
21 *550:130 *550:155 33.2355 
22 *550:155 *991:GATE 42.9149 
*END

*D_NET *551 0.0234607
*CONN
*I *1012:GATE I *D sg13g2_dlhq_1
*I *998:GATE I *D sg13g2_dlhq_1
*I *1010:GATE I *D sg13g2_dlhq_1
*I *1009:GATE I *D sg13g2_dlhq_1
*I *1013:GATE I *D sg13g2_dlhq_1
*I *1156:A I *D sg13g2_buf_8
*I *1014:GATE I *D sg13g2_dlhq_1
*I *1008:GATE I *D sg13g2_dlhq_1
*I *1157:X O *D sg13g2_buf_8
*CAP
1 *1012:GATE 0.000635894
2 *998:GATE 2.99958e-05
3 *1010:GATE 0.000209016
4 *1009:GATE 0.000987378
5 *1013:GATE 0
6 *1156:A 0
7 *1014:GATE 0
8 *1008:GATE 0.000345985
9 *1157:X 0.000808384
10 *551:71 0.00148831
11 *551:64 0.000203875
12 *551:56 0.00130693
13 *551:50 0.000874914
14 *551:48 0.000162143
15 *551:42 0.000994961
16 *551:33 8.13393e-05
17 *551:25 0.00215289
18 *551:10 0.00166343
19 *998:GATE *965:D 1.54008e-05
20 *998:GATE *1029:D 3.23417e-05
21 *1008:GATE *557:48 0
22 *1008:GATE *558:24 0.00036944
23 *1008:GATE *570:24 0.000126392
24 *1008:GATE *582:16 0.000127594
25 *1009:GATE *556:63 0
26 *1009:GATE *572:30 0.000819442
27 *1012:GATE *616:36 0.000175693
28 *551:10 *570:24 0.000128451
29 *551:10 *582:16 0.000315935
30 *551:33 *923:A0 0
31 *551:56 *577:52 0.00044038
32 *551:56 *588:62 7.4563e-05
33 *551:56 *588:85 0.000159943
34 *907:S *551:33 0
35 *928:S *1009:GATE 0
36 *929:S *1012:GATE 0.000288586
37 *929:S *551:10 0.000111455
38 *978:GATE *1010:GATE 0.000272718
39 *119:10 *551:50 0.000319852
40 *119:10 *551:56 0.000807352
41 *248:10 *1009:GATE 1.54008e-05
42 *250:10 *1008:GATE 8.00842e-05
43 *301:10 *551:56 0.000649976
44 *325:8 *551:10 0
45 *337:28 *551:56 0
46 *363:8 *551:56 0.000861236
47 *385:18 *551:10 0.000111455
48 *407:12 *551:48 7.81195e-05
49 *409:24 *1009:GATE 0.000192634
50 *409:24 *551:71 0.000240377
51 *411:16 *551:56 0.000175869
52 *411:16 *551:71 0.000240935
53 *413:34 *551:25 0
54 *419:26 *551:50 0.000338967
55 *419:26 *551:56 7.5081e-05
56 *423:24 *551:64 0.000333999
57 *464:32 *551:25 0
58 *466:12 *551:25 0
59 *499:32 *551:25 0
60 *501:18 *551:25 0
61 *508:12 *551:64 0.00033665
62 *520:59 *1012:GATE 0.000144542
63 *527:18 *551:25 0
64 *527:22 *551:42 0
65 *539:30 *551:42 0.00264178
66 *540:35 *551:71 0
67 *547:74 *1012:GATE 0
68 *548:35 *551:25 7.81669e-05
69 *548:67 *551:25 9.42794e-05
70 *550:21 *551:56 0.000143718
71 *550:21 *551:71 9.64682e-05
*RES
1 *1157:X *551:10 42.3381 
2 *551:10 *1008:GATE 43.7286 
3 *551:10 *551:25 28.5387 
4 *551:25 *551:33 40.6695 
5 *551:33 *1014:GATE 20 
6 *551:25 *551:42 32.2158 
7 *551:42 *551:48 40.5356 
8 *551:48 *551:50 1.5862 
9 *551:50 *551:56 29.4451 
10 *551:56 *551:64 42.5544 
11 *551:64 *1156:A 20 
12 *551:56 *551:71 4.8616 
13 *551:71 *1013:GATE 20 
14 *551:71 *1009:GATE 29.2906 
15 *551:50 *1010:GATE 42.0497 
16 *551:48 *998:GATE 40.3193 
17 *1157:X *1012:GATE 45.9637 
*END

*D_NET *552 0.0361894
*CONN
*I *1000:GATE I *D sg13g2_dlhq_1
*I *999:GATE I *D sg13g2_dlhq_1
*I *1011:GATE I *D sg13g2_dlhq_1
*I *983:GATE I *D sg13g2_dlhq_1
*I *1007:GATE I *D sg13g2_dlhq_1
*I *995:GATE I *D sg13g2_dlhq_1
*I *984:GATE I *D sg13g2_dlhq_1
*I *1001:GATE I *D sg13g2_dlhq_1
*I *1158:X O *D sg13g2_buf_8
*CAP
1 *1000:GATE 0.00012576
2 *999:GATE 0.000163454
3 *1011:GATE 0.000826735
4 *983:GATE 0.000282452
5 *1007:GATE 0.000102502
6 *995:GATE 0.000153971
7 *984:GATE 0.000106789
8 *1001:GATE 0.000256876
9 *1158:X 0.000517948
10 *552:149 0.00126318
11 *552:141 0.000740662
12 *552:130 0.000821829
13 *552:124 0.000642122
14 *552:105 0.000910168
15 *552:101 0.00157331
16 *552:86 0.00182177
17 *552:73 0.000970837
18 *552:67 0.00069343
19 *552:63 0.0011547
20 *552:51 0.00179689
21 *552:28 0.000631494
22 *552:20 0.000649897
23 *552:10 0.00179769
24 *984:GATE *1032:D 0
25 *995:GATE *580:46 0.000143494
26 *999:GATE *599:105 0.000529823
27 *1001:GATE *558:124 0
28 *1011:GATE *891:A1 0.00024014
29 *1011:GATE *958:A2 0
30 *1011:GATE *573:38 0
31 *1011:GATE *602:14 0.000418022
32 *1011:GATE *605:28 0
33 *1011:GATE *618:8 0
34 *552:10 *996:D 1.54008e-05
35 *552:10 *572:56 7.33256e-05
36 *552:20 *572:56 0.000283647
37 *552:28 *557:14 0.000333092
38 *552:28 *566:57 0.000280657
39 *552:28 *566:61 0.000281807
40 *552:51 *555:41 0
41 *552:51 *558:83 0
42 *552:51 *566:65 8.00842e-05
43 *552:63 *557:48 7.49043e-05
44 *552:67 *561:46 0
45 *552:73 *1032:D 0
46 *552:86 *559:25 0.000976921
47 *552:101 *1038:GATE 0
48 *552:101 *559:25 0.000682272
49 *552:101 *618:32 0.000272746
50 *552:105 *606:10 0.000493371
51 *552:105 *618:32 7.31628e-05
52 *552:124 *584:26 0.00011101
53 *552:130 *891:A0 0
54 *552:130 *584:26 0
55 *552:141 *599:105 0.00018128
56 *552:149 *899:A0 7.23838e-05
57 *552:149 *938:A0 0
58 *552:149 *618:16 0.000180882
59 *911:S *552:51 1.53556e-05
60 *927:S *552:51 0.000127486
61 *994:GATE *552:51 2.21754e-05
62 *24:37 *552:20 0.000503364
63 *108:10 *1007:GATE 0.00014454
64 *149:34 *552:51 0
65 *160:22 *552:28 0.000126307
66 *160:36 *552:10 0.000105299
67 *160:36 *552:20 0.000283647
68 *206:13 *995:GATE 0
69 *252:40 *552:101 0
70 *252:50 *552:124 0.000285112
71 *252:50 *552:149 0.0001122
72 *271:8 *999:GATE 0.0004452
73 *271:8 *552:141 0.000498662
74 *279:12 *1000:GATE 0
75 *282:36 *552:124 0.000110965
76 *288:14 *1001:GATE 0
77 *295:8 *552:124 0.00012816
78 *299:10 *1011:GATE 0.000176134
79 *316:10 *999:GATE 0
80 *324:14 *552:105 0
81 *333:12 *552:101 0.000704672
82 *386:74 *552:141 0
83 *393:33 *552:149 0
84 *394:18 *552:124 0
85 *394:18 *552:149 0.000180968
86 *396:27 *1011:GATE 0.0001122
87 *405:68 *552:51 0
88 *408:34 *552:63 0.00140452
89 *421:14 *552:101 0.000547387
90 *428:84 *552:105 0
91 *442:51 *995:GATE 1.54008e-05
92 *465:12 *983:GATE 0
93 *465:12 *552:149 0.00062668
94 *496:38 *552:28 7.78179e-05
95 *509:48 *995:GATE 0
96 *509:48 *552:67 0
97 *509:48 *552:73 0
98 *509:48 *552:86 0
99 *510:40 *552:28 0
100 *513:54 *552:20 0.000503206
101 *521:26 *552:28 0.000386398
102 *523:34 *552:28 7.31655e-05
103 *536:16 *552:63 0.000127271
104 *539:61 *552:105 0
105 *541:36 *552:63 0
106 *545:56 *552:67 0.00145168
107 *546:67 *552:10 0
108 *546:161 *552:141 0.000125963
109 *548:16 *552:67 0.000870769
110 *548:16 *552:73 0
111 *548:16 *552:86 0
112 *548:16 *552:101 0
113 *549:78 *552:105 0.0013897
114 *549:107 *552:105 0.00015611
115 *549:107 *552:124 0.000233917
116 *549:107 *552:130 7.9225e-05
117 *550:130 *552:63 0
118 *550:130 *552:67 0.000234845
*RES
1 *1158:X *552:10 44.5938 
2 *552:10 *552:20 44.4187 
3 *552:20 *552:28 44.841 
4 *552:28 *1001:GATE 42.0497 
5 *552:10 *552:51 49.0434 
6 *552:51 *552:63 48.2297 
7 *552:63 *552:67 27.0246 
8 *552:67 *552:73 21.5965 
9 *552:73 *984:GATE 41.0712 
10 *552:73 *552:86 6.283 
11 *552:86 *995:GATE 41.4008 
12 *552:86 *552:101 30.7738 
13 *552:101 *552:105 27.2718 
14 *552:105 *1007:GATE 40.9682 
15 *552:105 *552:124 43.1827 
16 *552:124 *552:130 23.4814 
17 *552:130 *983:GATE 22.4823 
18 *552:130 *552:141 22.3278 
19 *552:141 *552:149 45.0573 
20 *552:149 *1011:GATE 47.8074 
21 *552:141 *999:GATE 42.8943 
22 *552:67 *1000:GATE 21.3493 
*END

*D_NET *553 0.0182467
*CONN
*I *1080:A I *D sg13g2_buf_1
*I *1003:GATE I *D sg13g2_dlhq_1
*I *987:GATE I *D sg13g2_dlhq_1
*I *989:GATE I *D sg13g2_dlhq_1
*I *1006:GATE I *D sg13g2_dlhq_1
*I *1005:GATE I *D sg13g2_dlhq_1
*I *988:GATE I *D sg13g2_dlhq_1
*I *1004:GATE I *D sg13g2_dlhq_1
*I *1159:X O *D sg13g2_buf_8
*CAP
1 *1080:A 0.00065005
2 *1003:GATE 4.87124e-05
3 *987:GATE 8.28519e-05
4 *989:GATE 0
5 *1006:GATE 0
6 *1005:GATE 0.00017272
7 *988:GATE 8.28444e-05
8 *1004:GATE 0.000133627
9 *1159:X 9.55936e-05
10 *553:90 0.000902968
11 *553:77 0.000639842
12 *553:63 0.00117508
13 *553:44 0.00175994
14 *553:38 0.000926592
15 *553:32 0.000920231
16 *553:10 0.000580769
17 *553:8 0.000512881
18 *987:GATE *589:8 0.000143908
19 *987:GATE *590:8 0.000143908
20 *1003:GATE *591:16 4.77425e-05
21 *1003:GATE *592:10 8.00842e-05
22 *1004:GATE *587:16 0
23 *1004:GATE *592:14 0.000126354
24 *1004:GATE *612:20 0.000144203
25 *1080:A *567:110 0
26 *1080:A *592:14 5.30319e-05
27 *1080:A *613:8 8.0039e-05
28 *1080:A *615:12 0
29 *553:10 *592:14 0.000809289
30 *553:32 *592:14 0.000230633
31 *553:38 *940:A1 0.000337402
32 *553:38 *580:63 0
33 *553:38 *580:73 8.00842e-05
34 *553:44 *597:14 0.00038823
35 *553:63 *990:GATE 0
36 *553:63 *585:10 7.92265e-05
37 *553:77 *587:10 0
38 *553:77 *592:14 0.00102796
39 *553:90 *589:8 6.41542e-05
40 *553:90 *590:8 7.92265e-05
41 *553:90 *592:14 0.000550358
42 *915:S *553:63 0
43 *917:S *553:8 0.00014391
44 *981:D *553:63 0.000756427
45 *1117:A *553:38 0
46 *1215:A *988:GATE 0.00014391
47 *1229:A *553:44 0.000401819
48 *209:13 *988:GATE 0.00014391
49 *209:13 *1004:GATE 0.000143604
50 *209:13 *553:63 0
51 *212:13 *553:90 0
52 *214:9 *1080:A 0.00086432
53 *214:9 *553:90 0.000337389
54 *225:13 *1080:A 0
55 *227:9 *1080:A 0.000338845
56 *230:15 *1080:A 8.00842e-05
57 *235:9 *1080:A 0
58 *239:21 *1080:A 0.000124547
59 *252:40 *553:44 0.000240667
60 *292:8 *553:10 0
61 *382:10 *553:38 0.000337402
62 *389:34 *1080:A 7.33256e-05
63 *392:16 *553:44 0
64 *392:16 *553:63 0
65 *408:46 *553:63 0.000389403
66 *492:24 *553:10 2.16289e-05
67 *492:24 *553:32 0.000209556
68 *492:24 *553:77 0.000211122
69 *546:124 *553:38 0.0001122
70 *549:51 *553:44 0
71 *549:51 *553:63 2.21356e-05
*RES
1 *1159:X *553:8 40.9682 
2 *553:8 *553:10 3.811 
3 *553:10 *1004:GATE 41.5656 
4 *553:10 *988:GATE 40.9682 
5 *553:8 *553:32 1.0918 
6 *553:32 *553:38 25.1238 
7 *553:38 *553:44 24.532 
8 *553:44 *1005:GATE 41.4008 
9 *553:44 *553:63 31.1652 
10 *553:63 *1006:GATE 20 
11 *553:38 *989:GATE 20 
12 *553:32 *553:77 24.7998 
13 *553:77 *987:GATE 20.9682 
14 *553:77 *553:90 23.1106 
15 *553:90 *1003:GATE 40.5356 
16 *553:90 *1080:A 47.4881 
*END

*D_NET *554 0.0185589
*CONN
*I *1159:A I *D sg13g2_buf_8
*I *996:GATE I *D sg13g2_dlhq_1
*I *1158:A I *D sg13g2_buf_8
*I *1157:A I *D sg13g2_buf_8
*I *990:GATE I *D sg13g2_dlhq_1
*I *1160:X O *D sg13g2_buf_8
*CAP
1 *1159:A 0
2 *996:GATE 0
3 *1158:A 0
4 *1157:A 0.000277681
5 *990:GATE 0.00108014
6 *1160:X 0.000183538
7 *554:68 0.000495571
8 *554:60 0.00093765
9 *554:58 0.000865969
10 *554:39 0.000754558
11 *554:35 0.00130083
12 *554:12 0.00288975
13 *554:6 0.000745308
14 *990:GATE *586:8 4.75151e-05
15 *554:6 *941:A1 0
16 *554:35 *576:60 0
17 *554:35 *592:24 0.00039238
18 *554:60 *557:38 0
19 *953:S *1157:A 0
20 *960:GATE *990:GATE 0.000208035
21 *981:D *990:GATE 0
22 *1216:A *990:GATE 1.54008e-05
23 *1216:A *554:6 0
24 *1216:A *554:12 0.000594719
25 *121:20 *554:60 0
26 *121:40 *554:35 0
27 *160:36 *554:68 0.000230956
28 *171:32 *554:68 0.000434201
29 *207:13 *554:35 0.000699405
30 *250:10 *554:58 0.000442394
31 *251:12 *554:58 0.00065129
32 *251:12 *554:60 0.000594995
33 *375:18 *554:35 0.000388274
34 *400:44 *554:58 0.000231766
35 *415:40 *554:35 0.000495081
36 *415:40 *554:58 0.000442663
37 *420:34 *554:35 0.00161269
38 *423:28 *554:58 0
39 *474:8 *554:58 0
40 *483:32 *554:35 0.000596223
41 *520:40 *554:68 0.000229435
42 *520:75 *554:35 0
43 *520:85 *554:35 0.000286404
44 *547:74 *1157:A 0.00036963
45 *547:74 *554:39 6.44559e-05
46 *553:63 *990:GATE 0
*RES
1 *1160:X *554:6 21.6171 
2 *554:6 *554:12 5.3148 
3 *554:12 *990:GATE 29.2082 
4 *554:12 *554:35 36.4903 
5 *554:35 *554:39 20.5356 
6 *554:39 *1157:A 22.8325 
7 *554:39 *554:58 46.18 
8 *554:58 *554:60 4.2127 
9 *554:60 *554:68 45.0882 
10 *554:68 *1158:A 20 
11 *554:60 *996:GATE 20 
12 *554:6 *1159:A 20 
*END

*D_NET *555 0.0224942
*CONN
*I *1027:D I *D sg13g2_dlhq_1
*I *995:D I *D sg13g2_dlhq_1
*I *963:D I *D sg13g2_dlhq_1
*I *1059:A I *D sg13g2_buf_1
*I *1200:X O *D sg13g2_buf_1
*CAP
1 *1027:D 0
2 *995:D 0
3 *963:D 0
4 *1059:A 0
5 *1200:X 0
6 *555:70 9.599e-05
7 *555:64 0.00236278
8 *555:58 0.00230784
9 *555:52 0.000304246
10 *555:41 0.000314253
11 *555:35 0.00152873
12 *555:18 0.000249502
13 *555:12 0.00345682
14 *555:10 0.00172964
15 *555:6 0
16 *555:12 *564:41 0.000130157
17 *555:12 *569:22 0
18 *555:35 *576:34 0.000803406
19 *555:64 *596:14 0.000875859
20 *962:GATE *555:52 1.54008e-05
21 *24:61 *555:64 0
22 *154:28 *555:52 0.000126275
23 *252:24 *555:64 0
24 *253:24 *555:64 0
25 *310:12 *555:52 0.000179461
26 *343:22 *555:35 0
27 *344:18 *555:12 0
28 *391:36 *555:70 0.000234604
29 *398:33 *555:12 0
30 *399:18 *555:64 0
31 *399:30 *555:64 0.00151913
32 *403:41 *555:64 0.000823942
33 *405:68 *555:41 0
34 *405:68 *555:52 0
35 *420:18 *555:12 0
36 *464:32 *555:35 0
37 *474:20 *555:12 0.00253475
38 *474:20 *555:35 0.000563108
39 *480:18 *555:35 0
40 *484:30 *555:12 0.00205302
41 *513:46 *555:58 4.63914e-05
42 *530:40 *555:64 0
43 *535:18 *555:64 0.000238939
44 *538:16 *555:12 0
45 *545:56 *555:70 0
46 *552:51 *555:41 0
*RES
1 *1200:X *555:6 40 
2 *555:6 *555:10 40 
3 *555:10 *555:12 23.0926 
4 *555:12 *555:18 41.6171 
5 *555:18 *1059:A 40 
6 *555:12 *555:35 33.699 
7 *555:35 *555:41 40.5356 
8 *555:41 *963:D 20 
9 *555:41 *555:52 22.0268 
10 *555:52 *555:58 40.3193 
11 *555:58 *555:64 43.8445 
12 *555:64 *555:70 41.0918 
13 *555:70 *995:D 20 
14 *555:52 *1027:D 40 
*END

*D_NET *556 0.054788
*CONN
*I *1016:GATE I *D sg13g2_dlhq_1
*I *1019:GATE I *D sg13g2_dlhq_1
*I *1020:GATE I *D sg13g2_dlhq_1
*I *1021:GATE I *D sg13g2_dlhq_1
*I *1022:GATE I *D sg13g2_dlhq_1
*I *1015:GATE I *D sg13g2_dlhq_1
*I *1018:GATE I *D sg13g2_dlhq_1
*I *1017:GATE I *D sg13g2_dlhq_1
*I *1161:X O *D sg13g2_buf_8
*CAP
1 *1016:GATE 0.00018043
2 *1019:GATE 0.000265462
3 *1020:GATE 0.000186664
4 *1021:GATE 0
5 *1022:GATE 0
6 *1015:GATE 0
7 *1018:GATE 0.000908998
8 *1017:GATE 0
9 *1161:X 0.000938059
10 *556:169 0.000732476
11 *556:159 0.00121788
12 *556:153 0.00113023
13 *556:142 0.00124037
14 *556:135 0.000587874
15 *556:131 0.00138536
16 *556:120 0.00163254
17 *556:116 0.00169993
18 *556:110 0.00199265
19 *556:106 0.00106988
20 *556:96 0.00121529
21 *556:88 0.00186142
22 *556:80 0.00140036
23 *556:63 0.00195854
24 *556:36 0.000209488
25 *556:28 0.00106585
26 *556:10 0.00272902
27 *1018:GATE *577:52 0
28 *1019:GATE *604:20 2.20966e-05
29 *556:10 *1025:GATE 0.000203754
30 *556:10 *575:30 0
31 *556:28 *575:30 4.77425e-05
32 *556:63 *572:30 0
33 *556:96 *560:18 0.000124547
34 *556:96 *561:35 0.000173657
35 *556:96 *580:38 0.00102024
36 *556:106 *1024:D 8.00842e-05
37 *556:110 *594:56 0.00012816
38 *556:110 *603:52 0.000872614
39 *556:110 *620:50 0
40 *556:131 *1038:GATE 0.000497726
41 *556:131 *561:63 0
42 *556:131 *578:32 0.000553297
43 *556:131 *599:74 0
44 *556:131 *599:80 0
45 *556:153 *580:54 0.000334398
46 *556:153 *589:14 0.000495393
47 *556:153 *591:24 0
48 *556:153 *619:14 0.00107279
49 *556:169 *896:A2 0.00065444
50 *556:169 *604:20 0.000891278
51 I_top11 *556:116 0.00119544
52 I_top14 *556:120 0
53 I_top5 *556:116 0
54 I_top6 *556:116 0
55 *906:S1 *1016:GATE 0.000257317
56 *906:S1 *556:116 7.46939e-05
57 *928:S *556:10 5.40389e-05
58 *928:S *556:63 2.14475e-05
59 *940:S *556:159 0.00030506
60 *986:GATE *1018:GATE 0.000112426
61 *1009:GATE *556:63 0
62 *1116:A *556:159 0.000208035
63 *1118:A *556:120 0
64 *1153:A *1018:GATE 0
65 *1153:A *556:63 0
66 *24:25 *556:28 0.000126358
67 *66:55 *556:96 0.000603122
68 *66:55 *556:106 0.000593998
69 *77:35 *1019:GATE 6.93947e-05
70 *108:14 *556:116 0
71 *130:34 *556:28 0.000546753
72 *150:32 *556:28 7.48551e-05
73 *158:32 *556:88 0
74 *200:13 *1019:GATE 0
75 *253:30 *556:153 0.00118151
76 *263:16 *556:106 0.000175693
77 *273:12 *1020:GATE 1.54008e-05
78 *290:8 *556:63 0
79 *388:20 *1019:GATE 0.000315227
80 *388:20 *556:169 0.00154589
81 *390:46 *556:110 0.000234744
82 *394:24 *556:120 0
83 *394:24 *556:131 0
84 *398:33 *556:88 0
85 *409:16 *556:36 0.000125867
86 *416:20 *556:96 0
87 *425:32 *556:110 0.000232834
88 *428:24 *556:10 0
89 *431:83 *1020:GATE 0.000446469
90 *439:14 *556:36 0.000126644
91 *442:41 *556:28 0
92 *453:22 *1018:GATE 0.00127106
93 *463:20 *556:142 0.000883835
94 *463:20 *556:153 0.000288723
95 *471:60 *556:28 0.000528013
96 *480:18 *556:88 0.00156543
97 *482:14 *556:36 0.00014454
98 *502:22 *556:96 0
99 *505:24 *556:131 0
100 *505:34 *556:116 0.00199897
101 *509:59 *556:153 0
102 *513:46 *556:96 0.000109244
103 *516:46 *556:63 0
104 *516:46 *556:80 0.000109967
105 *517:14 *556:131 0
106 *518:14 *556:88 0.000726769
107 *518:18 *556:63 0.000337905
108 *522:14 *556:28 0
109 *535:44 *556:88 0.00173885
110 *535:54 *556:10 0.000341637
111 *542:47 *1020:GATE 0.000344341
112 *545:50 *556:106 0.000599709
113 *545:71 *556:131 0.000496966
114 *549:33 *556:131 0
115 *549:82 *556:135 0.0001122
116 *549:82 *556:142 0.000916176
117 *549:82 *556:153 0.000207126
118 *550:43 *556:28 0
119 *550:43 *556:63 0.000546741
120 *550:84 *1018:GATE 9.5609e-05
*RES
1 *1161:X *556:10 28.2658 
2 *556:10 *556:28 48.8013 
3 *556:28 *556:36 42.2145 
4 *556:36 *1017:GATE 20 
5 *556:10 *556:63 49.131 
6 *556:63 *1018:GATE 29.1361 
7 *556:63 *556:80 41.1021 
8 *556:80 *556:88 36.8405 
9 *556:88 *556:96 47.0658 
10 *556:96 *556:106 46.8289 
11 *556:106 *556:110 25.5414 
12 *556:110 *556:116 39.055 
13 *556:116 *556:120 22.6986 
14 *556:120 *1015:GATE 20 
15 *556:120 *556:131 32.7823 
16 *556:131 *556:135 20.7519 
17 *556:135 *1022:GATE 20 
18 *556:135 *556:142 6.1594 
19 *556:142 *1021:GATE 20 
20 *556:142 *556:153 30.8047 
21 *556:153 *556:159 43.8116 
22 *556:159 *556:169 49.0228 
23 *556:169 *1020:GATE 42.8325 
24 *556:159 *1019:GATE 42.7501 
25 *556:110 *1016:GATE 21.8334 
*END

*D_NET *557 0.0173231
*CONN
*I *1161:A I *D sg13g2_buf_8
*I *1025:GATE I *D sg13g2_dlhq_1
*I *1026:GATE I *D sg13g2_dlhq_1
*I *1028:GATE I *D sg13g2_dlhq_1
*I *1027:GATE I *D sg13g2_dlhq_1
*I *1023:GATE I *D sg13g2_dlhq_1
*I *1162:X O *D sg13g2_buf_2
*CAP
1 *1161:A 5.70397e-05
2 *1025:GATE 0.000503375
3 *1026:GATE 0
4 *1028:GATE 0.000312035
5 *1027:GATE 0
6 *1023:GATE 0
7 *1162:X 3.9505e-05
8 *557:74 0.00102881
9 *557:48 0.000998345
10 *557:38 0.00125491
11 *557:30 0.00104201
12 *557:24 0.000988324
13 *557:14 0.00108747
14 *557:6 0.00108046
15 *557:14 *566:57 0.000697575
16 *557:24 *595:22 0.000175833
17 *557:48 *610:61 0
18 *557:74 *558:124 0.000127853
19 *894:S1 *557:48 0
20 *928:S *1025:GATE 0.000272718
21 *969:D *1025:GATE 9.7025e-05
22 *1008:GATE *557:48 0
23 *121:20 *557:48 0
24 *121:30 *557:38 0.00033591
25 *130:40 *557:6 8.00842e-05
26 *130:40 *557:14 0.000530175
27 *136:20 *557:24 0.000230641
28 *154:28 *557:24 0.000124702
29 *159:18 *557:30 0.00165165
30 *171:32 *1028:GATE 0.0001122
31 *173:14 *557:30 0.00117878
32 *250:10 *557:48 0
33 *310:12 *557:38 0.000336412
34 *387:40 *1025:GATE 0.000175693
35 *405:68 *557:38 0
36 *406:28 *557:24 0.000435582
37 *406:28 *557:30 0
38 *428:24 *1161:A 0
39 *431:35 *1025:GATE 0.000503534
40 *431:35 *557:74 0
41 *467:14 *557:48 0.0001122
42 *483:52 *1025:GATE 0
43 *483:52 *557:74 0
44 *519:60 *557:14 0.000369838
45 *521:26 *557:14 0
46 *521:26 *557:24 8.00842e-05
47 *533:38 *557:74 0.000282463
48 *541:36 *557:48 0.000231839
49 *544:73 *557:6 6.46834e-05
50 *544:73 *557:14 0.000111568
51 *552:28 *557:14 0.000333092
52 *552:63 *557:48 7.49043e-05
53 *554:60 *557:38 0
54 *556:10 *1025:GATE 0.000203754
*RES
1 *1162:X *557:6 20.5356 
2 *557:6 *557:14 46.8804 
3 *557:14 *557:24 45.3148 
4 *557:24 *557:30 47.7662 
5 *557:30 *557:38 42.987 
6 *557:38 *557:48 49.0846 
7 *557:48 *1023:GATE 20 
8 *557:38 *1027:GATE 20 
9 *557:30 *1028:GATE 22.6986 
10 *557:14 *1026:GATE 20 
11 *557:6 *557:74 23.811 
12 *557:74 *1025:GATE 45.9946 
13 *557:74 *1161:A 40.5356 
*END

*D_NET *558 0.0298126
*CONN
*I *1033:GATE I *D sg13g2_dlhq_1
*I *1162:A I *D sg13g2_buf_2
*I *1041:GATE I *D sg13g2_dlhq_1
*I *1035:GATE I *D sg13g2_dlhq_1
*I *1043:GATE I *D sg13g2_dlhq_1
*I *1036:GATE I *D sg13g2_dlhq_1
*I *1163:X O *D sg13g2_buf_2
*CAP
1 *1033:GATE 2.49763e-05
2 *1162:A 0
3 *1041:GATE 0.000648161
4 *1035:GATE 0
5 *1043:GATE 0.000224835
6 *1036:GATE 4.99409e-05
7 *1163:X 0.000900599
8 *558:124 0.000566795
9 *558:114 0.00124006
10 *558:95 0.0016827
11 *558:91 0.000896067
12 *558:83 0.0011874
13 *558:61 0.000871922
14 *558:49 0.0006932
15 *558:45 0.000856737
16 *558:24 0.0017829
17 *558:18 0.00165356
18 *558:12 0.0023094
19 *1043:GATE *937:A1 0.000337313
20 *558:12 *574:44 0
21 *558:12 *574:54 0
22 *558:18 *570:24 0
23 *558:45 *904:A1 0.00012816
24 *558:45 *583:69 2.14736e-05
25 *558:45 *596:18 0.000500329
26 *558:114 *956:A0 0
27 *976:D *558:18 0.000104836
28 *1001:GATE *558:124 0
29 *1008:GATE *558:24 0.00036944
30 *1035:D *558:61 0
31 *1128:A *558:24 0
32 *1148:A *558:114 0.000240377
33 *1148:A *558:124 0.000482433
34 *1226:A *558:61 0
35 *1378:A *1041:GATE 4.75151e-05
36 *66:67 *558:12 0
37 *121:40 *1043:GATE 0.000401996
38 *129:24 *558:124 0.000112381
39 *133:44 *558:124 0.000386938
40 *149:26 *558:83 0.000542486
41 *150:32 *1041:GATE 0.00117084
42 *150:32 *558:95 0.000855101
43 *162:28 *558:12 0.000207845
44 *162:28 *558:83 0.000193078
45 *163:14 *558:18 0
46 *289:12 *558:12 0.000551293
47 *296:10 *558:24 0.00062672
48 *348:12 *1041:GATE 0
49 *348:12 *558:95 0
50 *378:16 *1041:GATE 4.77425e-05
51 *385:18 *1036:GATE 8.00842e-05
52 *399:30 *558:91 0.000230189
53 *403:41 *558:91 0.000236076
54 *410:26 *558:91 1.4965e-05
55 *415:26 *558:95 0
56 *423:28 *558:83 0.000596179
57 *428:56 *558:24 0
58 *428:56 *558:45 0.00107426
59 *442:51 *558:18 0
60 *467:14 *558:24 0
61 *467:22 *558:61 0.000812264
62 *470:40 *558:91 0
63 *475:39 *558:18 0.000441662
64 *475:50 *558:18 0.000312215
65 *479:48 *558:24 0.00028494
66 *483:48 *558:45 0.000602806
67 *488:46 *558:45 0
68 *496:38 *558:83 0.000109593
69 *502:30 *558:83 0
70 *502:30 *558:91 0.000140972
71 *523:34 *558:83 0.000297846
72 *523:34 *558:91 0
73 *533:38 *558:124 0
74 *536:26 *1033:GATE 0
75 *536:26 *558:114 1.54008e-05
76 *542:47 *558:45 0
77 *544:73 *558:124 0.000112426
78 *546:102 *558:24 0.000445426
79 *546:102 *558:45 0
80 *546:112 *558:49 6.46834e-05
81 *546:112 *558:61 0.000895203
82 *550:115 *558:12 0
83 *552:51 *558:83 0
84 *557:74 *558:124 0.000127853
*RES
1 *1163:X *558:12 28.1953 
2 *558:12 *558:18 46.7774 
3 *558:18 *558:24 29.7541 
4 *558:24 *1036:GATE 40.5356 
5 *558:24 *558:45 49.6202 
6 *558:45 *558:49 20.5356 
7 *558:49 *558:61 47.828 
8 *558:61 *1043:GATE 22.6986 
9 *558:49 *1035:GATE 20 
10 *558:12 *558:83 47.3542 
11 *558:83 *558:91 44.4393 
12 *558:91 *558:95 24.0582 
13 *558:95 *1041:GATE 46.228 
14 *558:95 *558:114 25.7474 
15 *558:114 *558:124 45.9328 
16 *558:124 *1162:A 20 
17 *558:114 *1033:GATE 20.3502 
*END

*D_NET *559 0.0386033
*CONN
*I *1037:GATE I *D sg13g2_dlhq_1
*I *1044:GATE I *D sg13g2_dlhq_1
*I *1032:GATE I *D sg13g2_dlhq_1
*I *1040:GATE I *D sg13g2_dlhq_1
*I *1034:GATE I *D sg13g2_dlhq_1
*I *1042:GATE I *D sg13g2_dlhq_1
*I *1079:A I *D sg13g2_buf_1
*I *1045:GATE I *D sg13g2_dlhq_1
*I *1164:X O *D sg13g2_buf_8
*CAP
1 *1037:GATE 0.000153558
2 *1044:GATE 0
3 *1032:GATE 0
4 *1040:GATE 8.10296e-05
5 *1034:GATE 4.95144e-05
6 *1042:GATE 3.03288e-05
7 *1079:A 0
8 *1045:GATE 0.000273015
9 *1164:X 2.83881e-05
10 *559:130 0.000809915
11 *559:87 0.00017678
12 *559:75 0.00123818
13 *559:69 0.00148184
14 *559:61 0.00058355
15 *559:57 0.000693206
16 *559:47 0.00095013
17 *559:41 0.00124135
18 *559:37 0.00213114
19 *559:31 0.00164666
20 *559:27 0.00114557
21 *559:25 0.000809737
22 *559:17 0.00119265
23 *559:6 0.000530762
24 *1037:GATE *561:63 0.000272911
25 *559:17 *561:63 4.77425e-05
26 *559:25 *561:63 0.0014414
27 *559:37 *560:68 0
28 *559:41 *560:53 4.77425e-05
29 *559:57 *580:38 0
30 *559:57 *611:50 0.00012559
31 *559:61 *580:38 0.000282412
32 *559:69 *611:50 0
33 *559:75 *924:A0 0
34 *894:A3 *559:41 0.000175693
35 *894:S1 *559:41 0
36 *970:D *559:57 0.000111567
37 *985:D *559:75 0.000176252
38 *1120:A *559:130 0
39 *1136:A *559:31 0
40 *1136:A *559:130 0
41 *1212:A *559:130 0.000594663
42 *1344:A *559:87 0.000116933
43 *66:45 *559:37 0.00139529
44 *66:59 *559:41 0
45 *205:21 *559:130 0.000369743
46 *208:9 *559:130 0.000235378
47 *254:12 *559:37 0.000500879
48 *255:10 *559:37 0
49 *258:8 *559:75 0.00175238
50 *266:8 *559:61 0.000128112
51 *266:8 *559:69 0.000180811
52 *298:12 *1042:GATE 4.77425e-05
53 *322:10 *559:75 0.000650032
54 *324:8 *1045:GATE 0.000175693
55 *333:12 *559:25 0.00139196
56 *341:14 *559:57 0.000493361
57 *376:14 *559:69 0.000387131
58 *386:22 *559:41 0
59 *386:28 *559:37 0
60 *394:52 *559:61 0.000469208
61 *394:52 *559:69 0.000338088
62 *405:36 *559:69 0.000439229
63 *408:34 *559:47 0.00143466
64 *415:8 *559:75 0.000128578
65 *419:26 *559:37 0.000656539
66 *424:10 *559:87 0
67 *424:32 *559:37 0
68 *435:14 *559:17 0
69 *462:10 *559:75 0.000913853
70 *464:44 *559:37 0.000127744
71 *464:86 *1045:GATE 0
72 *472:10 *559:37 0.00144861
73 *472:16 *559:41 0
74 *472:34 *559:69 0
75 *487:12 *559:75 0
76 *487:12 *559:87 0.000124547
77 *495:22 *559:87 0.000117609
78 *507:14 *559:87 0.000229222
79 *509:48 *559:25 0.00113605
80 *510:8 *559:130 7.9848e-05
81 *520:75 *559:130 0.000235378
82 *531:44 *559:75 0
83 *531:59 *559:75 0.000208592
84 *536:16 *559:47 0.00143392
85 *540:33 *559:75 0
86 *545:75 *559:17 0.000143835
87 *545:88 *1037:GATE 0.000225168
88 *545:88 *559:17 8.00394e-05
89 *546:31 *1034:GATE 8.00842e-05
90 *546:31 *559:57 0.000401227
91 *547:170 *559:69 0.000143351
92 *552:86 *559:25 0.000976921
93 *552:101 *559:25 0.000682272
*RES
1 *1164:X *559:6 20.3502 
2 *559:6 *1045:GATE 22.6162 
3 *559:6 *559:17 2.266 
4 *559:17 *559:25 34.8629 
5 *559:25 *559:27 20 
6 *559:27 *559:31 3.0797 
7 *559:31 *559:37 36.274 
8 *559:37 *559:41 27.0246 
9 *559:41 *559:47 46.7774 
10 *559:47 *559:57 45.7783 
11 *559:57 *559:61 22.3278 
12 *559:61 *559:69 45.2736 
13 *559:69 *559:75 33.3385 
14 *559:75 *559:87 42.2969 
15 *559:87 *1079:A 20 
16 *559:61 *1042:GATE 40.3193 
17 *559:47 *1034:GATE 20.5356 
18 *559:41 *1040:GATE 20.8858 
19 *559:31 *1032:GATE 20 
20 *559:27 *559:130 47.4967 
21 *559:130 *1044:GATE 20 
22 *559:17 *1037:GATE 21.8334 
*END

*D_NET *560 0.0218764
*CONN
*I *1164:A I *D sg13g2_buf_8
*I *1046:GATE I *D sg13g2_dlhq_1
*I *1038:GATE I *D sg13g2_dlhq_1
*I *1031:GATE I *D sg13g2_dlhq_1
*I *1039:GATE I *D sg13g2_dlhq_1
*I *1024:GATE I *D sg13g2_dlhq_1
*I *1030:GATE I *D sg13g2_dlhq_1
*I *1029:GATE I *D sg13g2_dlhq_1
*I *1165:X O *D sg13g2_buf_8
*CAP
1 *1164:A 0.000295312
2 *1046:GATE 0.000161105
3 *1038:GATE 0.000380977
4 *1031:GATE 0.000164157
5 *1039:GATE 2.92584e-05
6 *1024:GATE 3.77166e-05
7 *1030:GATE 0.000209508
8 *1029:GATE 9.01944e-05
9 *1165:X 0.000973255
10 *560:115 0.00114033
11 *560:98 0.00132572
12 *560:85 0.00136738
13 *560:68 0.00144143
14 *560:53 0.000955561
15 *560:26 0.00067682
16 *560:18 0.000902305
17 *1038:GATE *618:32 0.00030506
18 *1164:A *606:10 0.000239996
19 *560:18 *580:38 0.000282961
20 *560:18 *581:24 0.000598401
21 *560:26 *581:16 4.68833e-05
22 *560:53 *927:A0 0
23 *560:53 *562:22 0.000860011
24 *560:53 *562:33 0.000601001
25 *560:53 *562:48 0.000127878
26 *560:68 *562:48 0.00111733
27 *560:85 *585:35 0.000922954
28 *560:85 *590:30 0.000178379
29 *560:85 *599:66 0.000334416
30 *560:85 *599:74 0
31 *560:85 *618:32 0
32 *560:85 *618:44 0
33 *560:98 *599:74 0
34 *560:115 *584:18 0
35 *560:115 *599:74 0
36 *965:GATE *1029:GATE 4.77425e-05
37 *970:GATE *1029:GATE 0
38 *970:GATE *560:26 0
39 *975:GATE *1038:GATE 0
40 *1118:A *1031:GATE 0.000240187
41 *1142:A *1031:GATE 0.000240141
42 *66:67 *560:53 0.000177998
43 *252:8 *560:26 1.54008e-05
44 *270:10 *560:115 0
45 *285:26 *560:53 0.000444304
46 *327:18 *560:18 0.000177812
47 *341:14 *560:18 0.000338077
48 *407:32 *560:85 0.000918591
49 *416:20 *560:18 0
50 *418:60 *560:53 0.000652534
51 *418:60 *560:68 0.00113518
52 *428:84 *560:115 0
53 *428:92 *560:115 0.000128007
54 *435:14 *1046:GATE 0
55 *453:76 *560:85 0
56 *464:78 *560:85 0.000340396
57 *468:28 *1046:GATE 0
58 *499:48 *1030:GATE 0.000175693
59 *538:72 *560:98 0.000229275
60 *539:61 *560:115 0.000178734
61 *546:31 *560:26 0
62 *549:82 *1164:A 0
63 *552:101 *1038:GATE 0
64 *556:96 *560:18 0.000124547
65 *556:131 *1038:GATE 0.000497726
66 *559:37 *560:68 0
67 *559:41 *560:53 4.77425e-05
*RES
1 *1165:X *560:18 46.4272 
2 *560:18 *560:26 23.0865 
3 *560:26 *1029:GATE 21.1639 
4 *560:26 *1030:GATE 21.9529 
5 *1165:X *560:53 47.5911 
6 *560:53 *1024:GATE 40.3193 
7 *560:53 *560:68 27.3439 
8 *560:68 *1039:GATE 20.3502 
9 *560:68 *560:85 31.4742 
10 *560:85 *1031:GATE 41.9364 
11 *560:85 *560:98 2.0806 
12 *560:98 *1038:GATE 43.9964 
13 *560:98 *560:115 25.6856 
14 *560:115 *1046:GATE 21.4008 
15 *560:115 *1164:A 22.1248 
*END

*D_NET *561 0.027122
*CONN
*I *959:D I *D sg13g2_dlhq_1
*I *991:D I *D sg13g2_dlhq_1
*I *1023:D I *D sg13g2_dlhq_1
*I *1055:A I *D sg13g2_buf_1
*I *1191:X O *D sg13g2_buf_1
*CAP
1 *959:D 0
2 *991:D 0
3 *1023:D 0
4 *1055:A 0
5 *1191:X 0
6 *561:63 0.0015041
7 *561:46 0.00269137
8 *561:37 0.00118727
9 *561:35 0.000583252
10 *561:20 6.6021e-05
11 *561:14 0.00290294
12 *561:10 0.00225367
13 *561:6 0
14 *561:35 *599:46 0.00014223
15 *561:46 *599:58 7.44237e-05
16 *561:46 *610:57 0.00107174
17 *561:63 *562:65 0.000760488
18 *561:63 *599:58 0
19 *1037:GATE *561:63 0.000272911
20 *115:24 *561:14 0.00141103
21 *119:22 *561:14 0.000396338
22 *180:25 *561:14 0
23 *309:8 *561:46 0
24 *335:12 *561:46 0.000231739
25 *361:20 *561:14 0
26 *373:18 *561:14 0
27 *405:22 *561:14 0
28 *409:34 *561:14 0
29 *409:38 *561:14 0
30 *409:59 *561:46 0.000496705
31 *413:34 *561:46 0.000917216
32 *416:20 *561:46 0
33 *419:18 *561:14 0
34 *425:16 *561:14 0
35 *426:8 *561:63 4.77425e-05
36 *435:14 *561:63 0
37 *437:14 *561:35 7.78179e-05
38 *439:14 *561:46 0
39 *461:36 *561:14 0.00168083
40 *464:16 *561:14 0
41 *501:18 *561:46 0
42 *505:24 *561:63 0.00159006
43 *509:28 *561:20 7.78179e-05
44 *509:28 *561:35 0.000172097
45 *509:48 *561:46 0
46 *509:48 *561:63 0.00129221
47 *515:20 *561:35 0.000931172
48 *517:42 *561:35 0.000930826
49 *543:28 *561:14 0.00135888
50 *543:60 *561:63 0
51 *550:140 *561:46 0.000336303
52 *552:67 *561:46 0
53 *556:96 *561:35 0.000173657
54 *556:131 *561:63 0
55 *559:17 *561:63 4.77425e-05
56 *559:25 *561:63 0.0014414
*RES
1 *1191:X *561:6 40 
2 *561:6 *561:10 40 
3 *561:10 *561:14 48.2838 
4 *561:14 *561:20 40.5356 
5 *561:20 *1055:A 20 
6 *561:14 *561:35 47.7559 
7 *561:35 *561:37 20 
8 *561:37 *1023:D 40 
9 *561:37 *561:46 13.9462 
10 *561:46 *991:D 40 
11 *561:46 *561:63 38.6734 
12 *561:63 *959:D 20 
*END

*D_NET *562 0.0238329
*CONN
*I *960:D I *D sg13g2_dlhq_1
*I *1056:A I *D sg13g2_buf_1
*I *992:D I *D sg13g2_dlhq_1
*I *1024:D I *D sg13g2_dlhq_1
*I *1192:X O *D sg13g2_buf_1
*CAP
1 *960:D 0
2 *1056:A 0
3 *992:D 0.000228144
4 *1024:D 4.37077e-05
5 *1192:X 9.30747e-05
6 *562:65 0.000441329
7 *562:48 0.00109528
8 *562:33 0.00111396
9 *562:22 0.00220386
10 *562:14 0.00295258
11 *562:8 0.00111736
12 *562:8 *577:20 0
13 *562:14 *570:12 0.0011226
14 *562:14 *570:18 7.92265e-05
15 *562:14 *574:12 0
16 *562:14 *599:20 0
17 *562:14 *599:26 0
18 *562:22 *563:78 0
19 *562:22 *574:12 0.000336744
20 *562:22 *574:14 0
21 *562:22 *598:12 0
22 *562:22 *599:40 2.18755e-05
23 *562:22 *610:38 0.000496832
24 *562:33 *563:78 0
25 *562:48 *563:78 0
26 *562:65 *599:58 0.000760488
27 *1010:D *562:22 0.000125963
28 *66:67 *562:22 0
29 *174:13 *562:8 0
30 *182:11 *562:14 0
31 *339:12 *992:D 0
32 *357:8 *562:22 0.00180308
33 *361:8 *562:22 0.000651914
34 *405:30 *562:22 0.000229485
35 *411:8 *562:14 0.00128069
36 *423:10 *562:14 0.00011101
37 *424:26 *562:22 0.000179079
38 *432:12 *562:14 0
39 *453:61 *562:48 0
40 *472:28 *562:22 0.00112021
41 *472:34 *562:22 0
42 *484:8 *562:48 0.000180021
43 *498:20 *562:14 0.000283647
44 *498:51 *562:22 5.24248e-05
45 *509:42 *992:D 0.000337212
46 *545:10 *562:14 0
47 *545:50 *1024:D 8.00842e-05
48 *547:112 *562:22 0.000229461
49 *547:152 *562:22 0.000495374
50 *550:84 *562:22 0.00101937
51 *556:106 *1024:D 8.00842e-05
52 *560:53 *562:22 0.000860011
53 *560:53 *562:33 0.000601001
54 *560:53 *562:48 0.000127878
55 *560:68 *562:48 0.00111733
56 *561:63 *562:65 0.000760488
*RES
1 *1192:X *562:8 40.7519 
2 *562:8 *562:14 32.4733 
3 *562:14 *562:22 45.4925 
4 *562:22 *1024:D 40.5356 
5 *562:22 *562:33 2.8222 
6 *562:33 *992:D 42.266 
7 *562:33 *562:48 28.0855 
8 *562:48 *1056:A 20 
9 *562:48 *562:65 46.0667 
10 *562:65 *960:D 20 
*END

*D_NET *563 0.0227523
*CONN
*I *923:A1 I *D sg13g2_mux2_1
*I *947:A1 I *D sg13g2_mux2_1
*I *907:A1 I *D sg13g2_mux2_1
*I *955:A1 I *D sg13g2_mux4_1
*I *1193:X O *D sg13g2_buf_1
*CAP
1 *923:A1 0.00010705
2 *947:A1 0
3 *907:A1 0.000522385
4 *955:A1 0.000250963
5 *1193:X 0.000161733
6 *563:78 0.000862638
7 *563:70 0.00110432
8 *563:53 0.000798889
9 *563:42 0.000976764
10 *563:34 0.000759143
11 *563:26 0.00194884
12 *563:8 0.00193536
13 *907:A1 *923:A0 0
14 *923:A1 *923:A0 0.000176139
15 *955:A1 *581:34 8.00842e-05
16 *563:26 *564:16 0.00133113
17 *563:26 *610:57 0.000332607
18 *563:26 *611:48 0.00030528
19 *563:34 *574:14 0.000124547
20 *563:34 *606:28 0.000112426
21 *563:70 *923:A0 0.000143908
22 *563:78 *594:56 1.54008e-05
23 *563:78 *598:12 0
24 *894:A3 *955:A1 4.77425e-05
25 *907:S *907:A1 0
26 *911:S *563:26 0.000491092
27 *2:17 *563:8 0
28 *285:18 *563:42 0.00097472
29 *285:18 *563:53 0.000362572
30 *285:26 *923:A1 0
31 *285:26 *563:70 0
32 *302:8 *563:26 0.00012559
33 *345:14 *563:42 0.00100995
34 *345:14 *563:53 0.000491152
35 *345:14 *563:70 0.000126354
36 *349:12 *563:26 0.000299062
37 *377:8 *907:A1 8.00842e-05
38 *386:12 *563:26 0.00353783
39 *394:62 *563:26 0.000963574
40 *410:26 *563:26 0
41 *413:26 *563:42 0
42 *416:20 *563:26 0
43 *453:61 *563:78 0.000809427
44 *482:30 *563:8 4.78772e-05
45 *482:30 *563:26 0
46 *498:20 *563:8 7.97032e-05
47 *509:36 *563:53 0
48 *509:36 *563:70 0
49 *531:44 *563:26 0.00107099
50 *538:91 *563:26 7.44734e-05
51 *550:92 *563:26 0.000110503
52 *562:22 *563:78 0
53 *562:33 *563:78 0
54 *562:48 *563:78 0
*RES
1 *1193:X *563:8 41.4008 
2 *563:8 *563:26 46.0693 
3 *563:26 *563:34 41.5656 
4 *563:34 *563:42 27.1997 
5 *563:42 *955:A1 42.0497 
6 *563:42 *563:53 2.3278 
7 *563:53 *907:A1 43.9829 
8 *563:53 *563:70 21.5656 
9 *563:70 *563:78 47.7147 
10 *563:78 *947:A1 20 
11 *563:70 *923:A1 21.1845 
*END

*D_NET *564 0.0130505
*CONN
*I *948:A1 I *D sg13g2_mux2_1
*I *908:A1 I *D sg13g2_mux2_1
*I *956:A1 I *D sg13g2_mux4_1
*I *924:A1 I *D sg13g2_mux2_1
*I *1194:X O *D sg13g2_buf_1
*CAP
1 *948:A1 0
2 *908:A1 8.15786e-05
3 *956:A1 0.00057956
4 *924:A1 0
5 *1194:X 0.000713808
6 *564:75 0.000180434
7 *564:60 0.00039193
8 *564:45 0.00156453
9 *564:41 0.00101964
10 *564:26 0.000256648
11 *564:18 0.000421233
12 *564:16 0.000713808
13 *564:16 *572:16 0.000144027
14 *564:26 *924:A0 1.54008e-05
15 *564:26 *569:16 0
16 *564:41 *569:16 0
17 *564:41 *569:22 0.000130134
18 *564:75 *948:A0 0.000112426
19 *1017:D *564:16 0.000385369
20 *1185:A *564:16 0
21 *28:9 *564:16 0.000143982
22 *174:13 *564:16 0
23 *373:14 *564:45 0.000127224
24 *373:14 *564:60 0.000261643
25 *373:14 *564:75 0.000551223
26 *386:12 *564:45 0
27 *386:12 *564:75 0.000549441
28 *394:56 *908:A1 1.54008e-05
29 *398:24 *564:16 0
30 *405:46 *956:A1 0
31 *424:16 *564:26 0
32 *439:14 *564:45 0.00196737
33 *439:14 *564:60 0.000282365
34 *453:22 *564:45 0
35 *471:60 *564:26 0.000302598
36 *471:60 *564:41 0.00019145
37 *482:14 *564:26 4.76977e-05
38 *519:60 *956:A1 4.77425e-05
39 *522:14 *564:41 0
40 *531:44 *564:16 0.000390572
41 *541:8 *564:16 0
42 *555:12 *564:41 0.000130157
43 *563:26 *564:16 0.00133113
*RES
1 *1194:X *564:16 49.2288 
2 *564:16 *564:18 20 
3 *564:18 *564:26 42.369 
4 *564:26 *924:A1 20 
5 *564:18 *564:41 41.8849 
6 *564:41 *564:45 29.2494 
7 *564:45 *956:A1 44.8616 
8 *564:45 *564:60 21.8746 
9 *564:60 *908:A1 20.7519 
10 *564:60 *564:75 43.3269 
11 *564:75 *948:A1 20 
*END

*D_NET *565 0.0357071
*CONN
*I *933:A1 I *D sg13g2_mux2_1
*I *917:A1 I *D sg13g2_mux2_1
*I *941:A1 I *D sg13g2_mux2_1
*I *1195:X O *D sg13g2_buf_1
*CAP
1 *933:A1 0
2 *917:A1 0.000135406
3 *941:A1 0.000449131
4 *1195:X 0.000459993
5 *565:58 0.000855957
6 *565:50 0.00040515
7 *565:48 0.000879835
8 *565:42 0.00213853
9 *565:36 0.00207409
10 *565:30 0.00343698
11 *565:24 0.00349007
12 *565:14 0.00260097
13 *565:10 0.00232621
14 *565:14 *575:16 0
15 *565:14 *599:20 0.000695077
16 *565:14 *610:14 0
17 *565:42 *615:22 0
18 *565:58 *612:24 0.000127853
19 NN4BEG[13] *565:48 0
20 *1160:A *941:A1 0
21 *1175:A *565:14 0
22 *1175:A *565:24 0
23 *1194:A *565:10 0
24 *1216:A *941:A1 0
25 *2:9 *565:14 0
26 *13:13 *565:10 0
27 *19:9 *565:24 0.000232082
28 *20:11 *565:14 0
29 *22:11 *565:14 0
30 *24:9 *565:10 0
31 *27:11 *565:10 7.34081e-05
32 *27:11 *565:14 0.0010514
33 *28:9 *565:10 0
34 *126:8 *565:24 0
35 *128:16 *565:24 0.000919962
36 *131:14 *565:24 0
37 *139:18 *565:30 0
38 *156:16 *565:30 0
39 *158:16 *565:30 0
40 *158:42 *565:42 0
41 *165:26 *565:30 0.00109183
42 *176:29 *565:10 7.44263e-05
43 *186:11 *565:10 0
44 *187:13 *565:10 0
45 *192:11 *565:48 0
46 *193:11 *565:48 0
47 *196:9 *565:58 0
48 *197:11 *565:58 0
49 *198:9 *917:A1 0.000547738
50 *200:13 *941:A1 0
51 *207:13 *565:50 0.000209378
52 *208:9 *565:50 0.000241765
53 *359:12 *565:36 0.000172097
54 *365:10 *917:A1 0.000578673
55 *365:10 *565:58 0.00039057
56 *400:28 *565:48 0.00208761
57 *405:98 *565:48 0.000658971
58 *405:106 *565:48 0
59 *437:46 *565:42 0.000237467
60 *480:38 *565:30 0
61 *483:60 *565:30 0.000365525
62 *488:78 *565:24 0
63 *489:8 *565:24 0.000853404
64 *492:44 *565:24 0
65 *500:28 *565:42 0.000770196
66 *514:34 *565:30 0.00301708
67 *520:16 *565:14 0.000565928
68 *520:22 *565:24 0
69 *520:30 *565:30 0
70 *532:22 *565:42 2.6713e-05
71 *533:26 *565:42 0.00146564
72 *554:6 *941:A1 0
*RES
1 *1195:X *565:10 44.3775 
2 *565:10 *565:14 38.7048 
3 *565:14 *565:24 49.1464 
4 *565:24 *565:30 49.6846 
5 *565:30 *565:36 44.6453 
6 *565:36 *565:42 33.9874 
7 *565:42 *565:48 49.991 
8 *565:48 *565:50 1.6171 
9 *565:50 *565:58 23.4917 
10 *565:58 *941:A1 43.7801 
11 *565:58 *917:A1 42.8222 
12 *565:50 *933:A1 20 
*END

*D_NET *566 0.0180105
*CONN
*I *996:D I *D sg13g2_dlhq_1
*I *1028:D I *D sg13g2_dlhq_1
*I *964:D I *D sg13g2_dlhq_1
*I *1060:A I *D sg13g2_buf_1
*I *1211:X O *D sg13g2_buf_1
*CAP
1 *996:D 9.97827e-05
2 *1028:D 5.14085e-05
3 *964:D 0
4 *1060:A 6.13589e-05
5 *1211:X 0.000512092
6 *566:65 0.000271298
7 *566:61 0.000560065
8 *566:57 0.00092238
9 *566:45 0.00148623
10 *566:37 0.0010875
11 *566:20 0.00134027
12 *566:10 0.00150775
13 *566:10 *572:30 0.000489834
14 *566:10 *575:24 0
15 *566:10 *577:8 0
16 *566:20 *567:34 0
17 *566:37 *567:34 7.46997e-05
18 *566:57 *595:22 8.00842e-05
19 *962:GATE *996:D 8.00842e-05
20 *19:17 *566:10 0
21 *19:23 *566:10 0
22 *23:23 *566:10 0.000112426
23 *124:14 *566:20 0.000271919
24 *129:10 *566:37 0
25 *132:10 *1060:A 0.000112426
26 *132:36 *566:57 0
27 *135:36 *566:57 0
28 *135:42 *566:57 0.000853761
29 *136:12 *566:37 7.31655e-05
30 *141:20 *566:45 0
31 *143:24 *566:45 0.000823746
32 *149:10 *566:20 0
33 *159:18 *996:D 0.000210282
34 *159:18 *566:61 0.000961061
35 *160:36 *996:D 0.000231653
36 *160:36 *566:61 0.000649251
37 *170:20 *566:45 0.00114441
38 *387:40 *566:57 0.000279469
39 *387:57 *566:57 0.000124547
40 *418:28 *566:45 7.78179e-05
41 *428:12 *566:20 0
42 *442:10 *566:10 0
43 *442:14 *566:20 0.000143188
44 *485:14 *566:20 0.000388662
45 *487:12 *566:10 0
46 *493:32 *566:20 0
47 *495:22 *1060:A 0.000112426
48 *497:24 *566:20 0
49 *497:24 *566:37 0
50 *509:14 *566:20 0
51 *512:22 *566:20 0
52 *515:44 *566:45 0.000615433
53 *517:58 *566:37 0.000206154
54 *523:34 *566:57 7.30101e-05
55 *530:68 *566:57 0.000227932
56 *544:10 *566:10 0
57 *546:63 *566:65 0.000337402
58 *552:10 *996:D 1.54008e-05
59 *552:28 *566:57 0.000280657
60 *552:28 *566:61 0.000281807
61 *552:51 *566:65 8.00842e-05
62 *557:14 *566:57 0.000697575
*RES
1 *1211:X *566:10 44.8101 
2 *566:10 *566:20 48.2503 
3 *566:20 *1060:A 40.7519 
4 *566:20 *566:37 42.4926 
5 *566:37 *566:45 30.2279 
6 *566:45 *566:57 48.7241 
7 *566:57 *566:61 24.5526 
8 *566:61 *566:65 22.266 
9 *566:65 *964:D 20 
10 *566:65 *1028:D 20.5974 
11 *566:61 *996:D 41.6274 
*END

*D_NET *567 0.043627
*CONN
*I *918:A1 I *D sg13g2_mux2_1
*I *934:A1 I *D sg13g2_mux2_1
*I *942:A1 I *D sg13g2_mux2_1
*I *1196:X O *D sg13g2_buf_1
*CAP
1 *918:A1 0
2 *934:A1 0
3 *942:A1 0
4 *1196:X 0.000340599
5 *567:110 0.000315544
6 *567:95 0.000845678
7 *567:80 3.15552e-05
8 *567:74 0.00269546
9 *567:68 0.00307752
10 *567:62 0.00256576
11 *567:48 0.00208777
12 *567:42 0.00105802
13 *567:34 0.0012663
14 *567:18 0.00194575
15 *567:14 0.0016123
16 *567:14 *577:32 0
17 *567:14 *580:8 7.33256e-05
18 *567:14 *610:22 0
19 *567:18 *588:18 0
20 *567:62 *600:30 0
21 *567:62 *600:36 0.000454935
22 *567:74 *619:22 0
23 *567:80 *619:14 7.33256e-05
24 *567:95 *603:16 0
25 *567:95 *611:12 0
26 *567:95 *612:20 0
27 NN4BEG[2] *567:68 4.63914e-05
28 *1080:A *567:110 0
29 *1172:A *567:34 7.30101e-05
30 *13:13 *567:14 4.77425e-05
31 *22:19 *567:34 0.000478874
32 *29:11 *567:14 0
33 *107:16 *567:18 0.00161184
34 *129:10 *567:34 0.000595411
35 *133:30 *567:62 0.000360743
36 *140:20 *567:48 0.00125184
37 *141:20 *567:42 0.0012603
38 *144:30 *567:62 6.78941e-05
39 *147:20 *567:62 0.00239191
40 *154:18 *567:42 0.00126064
41 *155:24 *567:48 0
42 *158:42 *567:68 0.00112118
43 *167:14 *567:62 0
44 *184:23 *567:14 1.54008e-05
45 *189:19 *567:14 0.000336105
46 *224:9 *567:95 0
47 *233:29 *567:110 7.93661e-05
48 *235:9 *567:110 0.000391169
49 *237:9 *567:110 0.000111568
50 *239:21 *567:110 7.3236e-05
51 *372:22 *567:34 0.000281461
52 *380:18 *567:95 0
53 *398:8 *567:34 0.000137431
54 *400:38 *567:68 0
55 *403:14 *567:80 0
56 *405:98 *567:68 0
57 *420:12 *567:18 0.000508564
58 *424:58 *567:74 0.00119859
59 *433:12 *567:95 0.000112426
60 *433:12 *567:110 0.000143908
61 *471:32 *567:62 8.45428e-05
62 *471:36 *567:62 0.00242777
63 *479:30 *567:62 0.0002363
64 *479:64 *567:62 0.000770158
65 *488:78 *567:18 0
66 *496:22 *567:74 0.00120473
67 *514:30 *567:62 0.000237389
68 *520:36 *567:62 0.00102433
69 *530:20 *567:74 0.00281101
70 *530:68 *567:42 0
71 *534:14 *567:48 0.00018265
72 *535:18 *567:74 0.00190618
73 *535:44 *567:42 0.000266377
74 *541:14 *567:18 0
75 *543:14 *567:18 0
76 *566:20 *567:34 0
77 *566:37 *567:34 7.46997e-05
*RES
1 *1196:X *567:14 43.3166 
2 *567:14 *567:18 33.2973 
3 *567:18 *567:34 47.416 
4 *567:34 *567:42 48.4872 
5 *567:42 *567:48 45.7886 
6 *567:48 *567:62 44.8454 
7 *567:62 *567:68 47.6735 
8 *567:68 *567:74 48.3559 
9 *567:74 *567:80 40.3502 
10 *567:80 *942:A1 20 
11 *567:74 *567:95 43.9243 
12 *567:95 *934:A1 20 
13 *567:95 *567:110 43.5535 
14 *567:110 *918:A1 20 
*END

*D_NET *568 0.0196789
*CONN
*I *935:A1 I *D sg13g2_mux2_1
*I *919:A1 I *D sg13g2_mux2_1
*I *943:A1 I *D sg13g2_mux2_1
*I *955:A3 I *D sg13g2_mux4_1
*I *1197:X O *D sg13g2_buf_1
*CAP
1 *935:A1 0
2 *919:A1 0.000244447
3 *943:A1 0.00100441
4 *955:A3 0
5 *1197:X 0
6 *568:58 0.00107298
7 *568:54 0.00077388
8 *568:46 0.00111663
9 *568:26 0.000983759
10 *568:12 0.00158519
11 *568:6 0.0012572
12 *943:A1 *894:A1 8.00842e-05
13 *943:A1 *943:A0 0.000208035
14 *943:A1 *598:29 6.38242e-05
15 *568:26 *935:A0 7.98567e-05
16 *568:26 *577:67 7.45103e-05
17 *568:46 *935:A0 3.73469e-05
18 I_top0 *568:46 0.00155445
19 *919:A0 *919:A1 4.77425e-05
20 *927:S *943:A1 0.000166433
21 *1040:D *943:A1 0.000240377
22 *1197:A *568:12 0
23 *1319:A *568:12 0
24 *114:26 *568:46 0.00123664
25 *118:8 *568:12 0.000181825
26 *119:10 *568:46 1.54008e-05
27 *119:10 *568:54 2.17891e-05
28 *178:23 *568:12 4.75151e-05
29 *187:13 *568:12 0.00218869
30 *327:10 *568:54 0.00108563
31 *327:18 *943:A1 0.000707826
32 *327:18 *568:58 0.000112426
33 *343:16 *919:A1 0.000285602
34 *343:16 *568:54 0.000392939
35 *410:26 *568:12 0
36 *411:16 *568:12 0
37 *423:24 *568:26 0.000700455
38 *424:32 *568:26 7.5496e-05
39 *425:32 *568:46 0.000231871
40 *470:52 *568:12 0.000445305
41 *478:16 *568:54 0
42 *499:40 *568:54 0.000340199
43 *499:56 *568:26 0.000127923
44 *508:12 *568:26 0.000490949
45 *545:28 *568:54 0.000111567
46 *545:36 *919:A1 0.000265461
47 *545:36 *568:54 2.2291e-05
*RES
1 *1197:X *568:6 40 
2 *568:6 *568:12 33.7093 
3 *568:12 *568:26 45.1191 
4 *568:26 *568:46 30.5781 
5 *568:46 *568:54 46.4787 
6 *568:54 *568:58 20.7519 
7 *568:58 *955:A3 20 
8 *568:58 *943:A1 30.1043 
9 *568:54 *919:A1 42.9561 
10 *568:26 *935:A1 20 
*END

*D_NET *569 0.0123882
*CONN
*I *920:A1 I *D sg13g2_mux2_1
*I *944:A1 I *D sg13g2_mux2_1
*I *936:A1 I *D sg13g2_mux2_1
*I *956:A3 I *D sg13g2_mux4_1
*I *1198:X O *D sg13g2_buf_1
*CAP
1 *920:A1 0
2 *944:A1 0
3 *936:A1 0
4 *956:A3 0.000496606
5 *1198:X 0.000244017
6 *569:70 0.000445641
7 *569:52 0.000730544
8 *569:37 0.000332579
9 *569:24 0.000544282
10 *569:22 0.000842133
11 *569:16 0.00148064
12 *569:10 0.000882526
13 *569:10 *588:44 0.000447561
14 *569:10 *610:22 7.50939e-05
15 *569:70 *944:A0 0
16 *893:S0 *956:A3 4.77425e-05
17 *920:A0 *569:52 8.00842e-05
18 *920:A0 *569:70 1.54008e-05
19 *1378:A *956:A3 0
20 *13:13 *569:10 0
21 *176:21 *569:10 0.000606084
22 *288:14 *569:70 0.000164799
23 *290:8 *569:37 7.31655e-05
24 *290:24 *569:52 0.000124547
25 *326:10 *569:52 0.000542258
26 *362:8 *956:A3 0.000208035
27 *373:24 *569:16 0
28 *378:8 *569:52 0
29 *398:33 *569:22 0
30 *398:39 *569:70 0.000393214
31 *405:46 *569:52 0.000107163
32 *405:46 *569:70 4.76977e-05
33 *461:36 *569:16 0
34 *461:44 *569:10 0
35 *474:20 *569:22 0.00141121
36 *476:64 *569:22 0
37 *502:40 *956:A3 0.000123139
38 *512:12 *569:16 0.000660134
39 *516:46 *569:22 0
40 *518:18 *569:52 0
41 *518:18 *569:70 0
42 *522:20 *569:22 0
43 *529:10 *569:16 0
44 *530:58 *956:A3 0
45 *535:44 *569:22 0.000823366
46 *536:16 *569:70 0.000233975
47 *548:41 *569:37 7.44263e-05
48 *555:12 *569:22 0
49 *564:26 *569:16 0
50 *564:41 *569:16 0
51 *564:41 *569:22 0.000130134
*RES
1 *1198:X *569:10 43.5741 
2 *569:10 *569:16 45.5105 
3 *569:16 *569:22 30.8974 
4 *569:22 *569:24 20 
5 *569:24 *956:A3 44.5938 
6 *569:24 *569:37 0.5974 
7 *569:37 *936:A1 40 
8 *569:37 *569:52 23.6462 
9 *569:52 *569:70 45.6341 
10 *569:70 *944:A1 20 
11 *569:52 *920:A1 20 
*END

*D_NET *570 0.0217224
*CONN
*I *921:A1 I *D sg13g2_mux2_1
*I *937:A1 I *D sg13g2_mux2_1
*I *945:A1 I *D sg13g2_mux2_1
*I *957:A3 I *D sg13g2_mux4_1
*I *1199:X O *D sg13g2_buf_1
*CAP
1 *921:A1 0
2 *937:A1 0.000626235
3 *945:A1 2.64812e-05
4 *957:A3 0.000516163
5 *1199:X 0.00037966
6 *570:46 0.000941385
7 *570:35 0.000561318
8 *570:24 0.00350707
9 *570:18 0.00346852
10 *570:12 0.00107695
11 *570:12 *574:12 0.00117714
12 *570:12 *588:30 7.9225e-05
13 *570:24 *582:16 0.000697214
14 *570:24 *582:18 0.000287215
15 *570:24 *582:20 0.000333804
16 *570:24 *582:26 0.000176083
17 *570:24 *595:34 0.000227849
18 *921:A0 *570:46 7.49652e-05
19 *977:D *570:18 0.000177042
20 *1008:GATE *570:24 0.000126392
21 *1043:GATE *937:A1 0.000337313
22 *1226:A *937:A1 0
23 *325:8 *570:24 0.00108072
24 *325:8 *570:35 0.000156438
25 *326:10 *570:24 0
26 *339:12 *957:A3 0
27 *362:14 *570:24 0.00102179
28 *392:16 *937:A1 0.00023256
29 *405:56 *570:24 0.00138632
30 *408:46 *937:A1 0.000548651
31 *408:46 *570:35 0
32 *408:46 *570:46 0
33 *415:22 *570:24 0
34 *418:40 *570:24 0.000911546
35 *442:51 *570:24 0
36 *442:51 *570:35 0
37 *442:51 *570:46 0
38 *475:39 *570:24 0
39 *495:22 *570:12 1.51e-05
40 *519:36 *570:24 0
41 *540:35 *570:18 0.000240935
42 *550:43 *570:18 0
43 *551:10 *570:24 0.000128451
44 *558:18 *570:24 0
45 *562:14 *570:12 0.0011226
46 *562:14 *570:18 7.92265e-05
*RES
1 *1199:X *570:12 46.4272 
2 *570:12 *570:18 46.1594 
3 *570:18 *570:24 29.6331 
4 *570:24 *957:A3 43.9964 
5 *570:24 *570:35 1.8334 
6 *570:35 *945:A1 40.3193 
7 *570:35 *570:46 2.575 
8 *570:46 *937:A1 46.5714 
9 *570:46 *921:A1 40 
*END

*D_NET *571 0.0300979
*CONN
*I *938:A1 I *D sg13g2_mux2_1
*I *922:A1 I *D sg13g2_mux2_1
*I *958:A3 I *D sg13g2_mux4_1
*I *946:A1 I *D sg13g2_mux2_1
*I *1201:X O *D sg13g2_buf_1
*CAP
1 *938:A1 0
2 *922:A1 5.00667e-05
3 *958:A3 0
4 *946:A1 0
5 *1201:X 0.000123451
6 *571:61 0.000801998
7 *571:40 0.00103594
8 *571:36 0.000710969
9 *571:28 0.000642349
10 *571:24 0.000240203
11 *571:18 0.00428731
12 *571:16 0.00520326
13 *571:12 0.000940764
14 *571:8 0.000123451
15 *922:A1 *599:105 0
16 *922:A1 *620:22 4.77425e-05
17 *571:16 *573:14 0
18 *571:61 *914:A1 0
19 *571:61 *946:A0 0.000240187
20 *571:61 *602:33 0.0007026
21 *571:61 *609:18 1.54008e-05
22 *571:61 *617:22 0.000445052
23 I_top13 *571:24 7.52149e-05
24 *914:S *571:61 0.000240889
25 *922:A0 *922:A1 5.00526e-06
26 *922:A0 *571:40 3.73746e-05
27 *922:S *571:40 0
28 *1103:A *571:61 0
29 *1111:A *571:61 0
30 *1196:A *571:8 0.000208035
31 *13:13 *571:8 0.000175693
32 *24:15 *571:16 0
33 *78:9 *571:28 0
34 *120:8 *571:36 0.000660642
35 *242:9 *571:24 0
36 *333:12 *571:61 0.000282464
37 *349:16 *571:16 0
38 *349:16 *571:18 0.00242341
39 *354:10 *571:36 0.000501961
40 *379:22 *571:16 0.00174082
41 *379:22 *571:18 0
42 *393:33 *571:40 0.000193512
43 *411:36 *571:18 0
44 *432:46 *571:18 0
45 *434:20 *571:18 0.00274451
46 *465:12 *571:61 8.00842e-05
47 *466:18 *571:18 0
48 *468:28 *571:36 0
49 *516:20 *571:18 0.0051175
50 *545:20 *571:16 0
*RES
1 *1201:X *571:8 41.4008 
2 *571:8 *571:12 40 
3 *571:12 *571:16 10.8047 
4 *571:16 *571:18 55.723 
5 *571:18 *571:24 40.3502 
6 *571:24 *571:28 21.7454 
7 *571:28 *571:36 45.3354 
8 *571:36 *571:40 2.3999 
9 *571:40 *946:A1 20 
10 *571:40 *571:61 49.579 
11 *571:61 *958:A3 20 
12 *571:36 *922:A1 20.6695 
13 *571:28 *938:A1 20 
*END

*D_NET *572 0.0279277
*CONN
*I *925:A1 I *D sg13g2_mux2_1
*I *949:A1 I *D sg13g2_mux2_1
*I *909:A1 I *D sg13g2_mux2_1
*I *957:A1 I *D sg13g2_mux4_1
*I *1202:X O *D sg13g2_buf_1
*CAP
1 *925:A1 0.000436195
2 *949:A1 9.60622e-05
3 *909:A1 0.000389048
4 *957:A1 0
5 *1202:X 0.000635953
6 *572:96 0.000637461
7 *572:81 0.000614449
8 *572:66 0.000280134
9 *572:60 0.000908787
10 *572:56 0.000987864
11 *572:50 0.000917531
12 *572:40 0.00105577
13 *572:30 0.00303122
14 *572:16 0.00304952
15 *925:A1 *583:14 0
16 *949:A1 *949:A0 1.54008e-05
17 *572:16 *577:20 0
18 *572:40 *575:83 0
19 *572:60 *591:32 0.00173381
20 *572:81 *591:32 0.000214039
21 N2BEGb[2] *572:50 0
22 N4BEG[2] *572:56 0
23 NN4BEG[9] *925:A1 4.77425e-05
24 *909:A0 *909:A1 7.98582e-05
25 *1009:GATE *572:30 0.000819442
26 *1185:A *572:16 0
27 *1193:A *572:16 0
28 *21:21 *572:16 4.7885e-05
29 *28:9 *572:16 0.000288584
30 *29:11 *572:16 0.000230651
31 *130:34 *572:30 0
32 *132:50 *572:50 0.000177109
33 *145:22 *572:60 0
34 *158:42 *572:66 0.000363538
35 *158:42 *572:81 0
36 *160:22 *572:50 0.000438817
37 *160:22 *572:56 0.000126354
38 *160:36 *572:56 0
39 *283:20 *925:A1 0.000208593
40 *290:8 *572:30 0.000594072
41 *321:18 *909:A1 0.000273049
42 *340:10 *572:30 0
43 *372:12 *572:40 0.000392929
44 *378:16 *572:30 0
45 *409:16 *572:30 0
46 *415:22 *572:30 0
47 *428:24 *572:30 7.98567e-05
48 *453:10 *572:16 0
49 *453:10 *572:30 0.000333344
50 *475:22 *572:16 0
51 *482:30 *572:30 0
52 *483:48 *572:56 0
53 *483:48 *572:96 0.00044022
54 *487:12 *572:30 0
55 *488:46 *572:66 0
56 *488:46 *572:81 0.000110804
57 *496:44 *572:40 0.00101551
58 *498:20 *572:16 0
59 *500:34 *572:40 0.000702033
60 *507:14 *572:30 0.000809738
61 *519:60 *572:40 0.000331008
62 *521:26 *572:50 0.000176252
63 *522:34 *572:40 7.55811e-05
64 *534:14 *572:60 0.00221497
65 *534:14 *572:81 0.000236188
66 *544:73 *572:50 0.000441757
67 *546:102 *572:96 0.000440068
68 *550:43 *572:30 0.000437669
69 *552:10 *572:56 7.33256e-05
70 *552:20 *572:56 0.000283647
71 *556:63 *572:30 0
72 *564:16 *572:16 0.000144027
73 *566:10 *572:30 0.000489834
*RES
1 *1202:X *572:16 46.4169 
2 *572:16 *572:30 43.8548 
3 *572:30 *572:40 48.4357 
4 *572:40 *572:50 44.944 
5 *572:50 *572:56 44.0582 
6 *572:56 *572:60 30.2382 
7 *572:60 *572:66 42.4823 
8 *572:66 *957:A1 40 
9 *572:60 *572:81 41.8437 
10 *572:81 *909:A1 43.4814 
11 *572:81 *572:96 22.0806 
12 *572:96 *949:A1 20.7519 
13 *572:96 *925:A1 24.0788 
*END

*D_NET *573 0.0326294
*CONN
*I *958:A1 I *D sg13g2_mux4_1
*I *910:A1 I *D sg13g2_mux2_1
*I *926:A1 I *D sg13g2_mux2_1
*I *950:A1 I *D sg13g2_mux2_1
*I *1203:X O *D sg13g2_buf_2
*CAP
1 *958:A1 0
2 *910:A1 0
3 *926:A1 0
4 *950:A1 0
5 *1203:X 0
6 *573:67 0.000218841
7 *573:59 0.000347129
8 *573:46 0.000467383
9 *573:38 0.00106604
10 *573:30 0.00104653
11 *573:22 0.00152797
12 *573:14 0.00525499
13 *573:12 0.00450101
14 *573:6 0.000197817
15 *573:14 *576:20 0.00189226
16 *573:22 *891:A0 0.00023185
17 *573:22 *578:28 0
18 *573:22 *584:18 0.000499529
19 *573:30 *891:A1 0
20 *573:30 *958:A2 0.000143865
21 *573:30 *584:26 0
22 *573:30 *589:20 0
23 *573:38 *589:20 0.000401737
24 *573:38 *602:14 0.000287256
25 *573:59 *903:A0 7.98567e-05
26 *573:67 *617:22 0.000208963
27 *1011:GATE *573:38 0
28 *24:15 *573:14 0
29 *180:13 *573:14 0
30 *270:10 *573:22 0
31 *282:52 *573:59 0.000126047
32 *282:52 *573:67 0
33 *379:22 *573:12 0
34 *379:22 *573:14 0.00537252
35 *389:55 *573:38 0.000112198
36 *396:12 *573:67 0.00039188
37 *396:27 *573:38 0
38 *396:27 *573:59 7.98567e-05
39 *402:30 *573:22 0.00012748
40 *433:16 *573:46 0
41 *434:20 *573:14 0
42 *439:38 *573:14 0
43 *461:16 *573:14 0
44 *465:12 *573:30 0
45 *466:18 *573:14 0.00607586
46 *473:18 *573:14 0
47 *498:26 *573:12 0
48 *505:18 *573:38 0.000605085
49 *505:18 *573:59 0.000207646
50 *505:18 *573:67 0.000391465
51 *513:14 *573:46 2.14736e-05
52 *513:18 *573:46 0.000493306
53 *516:20 *573:14 0
54 *531:16 *573:14 0
55 *542:16 *573:14 0
56 *547:45 *573:14 0
57 *547:62 *573:14 0
58 *547:93 *573:14 0
59 *549:107 *573:30 0.000176728
60 *549:113 *573:22 7.48209e-05
61 *571:16 *573:14 0
*RES
1 *1203:X *573:6 40 
2 *573:6 *573:12 41.4008 
3 *573:12 *573:14 57.7006 
4 *573:14 *573:22 48.7035 
5 *573:22 *573:30 25.218 
6 *573:30 *573:38 25.871 
7 *573:38 *573:46 43.914 
8 *573:46 *950:A1 40 
9 *573:38 *573:59 21.6274 
10 *573:59 *573:67 43.2342 
11 *573:67 *926:A1 20 
12 *573:59 *910:A1 20 
13 *573:30 *958:A1 20 
*END

*D_NET *574 0.0160484
*CONN
*I *951:A1 I *D sg13g2_mux2_1
*I *911:A1 I *D sg13g2_mux2_1
*I *927:A1 I *D sg13g2_mux2_1
*I *955:A2 I *D sg13g2_mux4_1
*I *1204:X O *D sg13g2_buf_1
*CAP
1 *951:A1 0.000104424
2 *911:A1 0
3 *927:A1 0
4 *955:A2 0
5 *1204:X 0.000727135
6 *574:54 0.00043477
7 *574:44 0.000605071
8 *574:37 0.000193444
9 *574:26 0.000409086
10 *574:14 0.00208265
11 *574:12 0.00227313
12 *951:A1 *598:29 0.000143351
13 *574:12 *599:26 0
14 *574:14 *606:28 0
15 *574:14 *610:38 0.000499001
16 *574:26 *581:24 0.00014454
17 *574:26 *581:34 0.000208035
18 *574:26 *598:29 0.00012526
19 *574:26 *606:28 0.00023176
20 *574:37 *927:A0 1.54008e-05
21 *574:44 *927:A0 4.77425e-05
22 *911:S *951:A1 1.54008e-05
23 *911:S *574:54 0.000369743
24 *994:GATE *574:54 0.000176883
25 *66:67 *574:37 0.000176252
26 *263:26 *574:26 0
27 *327:18 *574:26 0.000401857
28 *341:8 *574:54 0.000176883
29 *345:14 *574:14 0
30 *408:34 *574:54 0
31 *411:8 *574:12 0
32 *419:26 *574:26 0.000392726
33 *432:30 *574:14 0.000700705
34 *472:28 *574:14 0.00075075
35 *472:28 *574:26 0
36 *491:10 *574:12 0.00118053
37 *499:40 *574:26 0.000393073
38 *541:36 *574:54 0.000179494
39 *547:112 *574:14 0.000229691
40 *550:65 *574:14 0
41 *550:84 *574:14 0.00102118
42 *558:12 *574:44 0
43 *558:12 *574:54 0
44 *562:14 *574:12 0
45 *562:22 *574:12 0.000336744
46 *562:22 *574:14 0
47 *563:34 *574:14 0.000124547
48 *570:12 *574:12 0.00117714
*RES
1 *1204:X *574:12 49.888 
2 *574:12 *574:14 16.171 
3 *574:14 *574:26 45.9431 
4 *574:26 *955:A2 40 
5 *574:14 *574:37 21.1845 
6 *574:37 *927:A1 20 
7 *574:37 *574:44 0.7519 
8 *574:44 *574:54 44.7586 
9 *574:54 *911:A1 20 
10 *574:44 *951:A1 21.3184 
*END

*D_NET *575 0.0182252
*CONN
*I *912:A1 I *D sg13g2_mux2_1
*I *952:A1 I *D sg13g2_mux2_1
*I *956:A2 I *D sg13g2_mux4_1
*I *928:A1 I *D sg13g2_mux2_1
*I *1205:X O *D sg13g2_buf_1
*CAP
1 *912:A1 0
2 *952:A1 0
3 *956:A2 0
4 *928:A1 0.000205084
5 *1205:X 0.000192261
6 *575:83 0.000554264
7 *575:61 0.000770349
8 *575:47 0.00156705
9 *575:30 0.0021295
10 *575:24 0.0021804
11 *575:16 0.0013855
12 *575:10 0.00107934
13 *928:A1 *615:45 4.77425e-05
14 *575:10 *610:22 0.000550116
15 *575:61 *893:A1 0.000208035
16 *575:61 *952:A0 4.77425e-05
17 *575:61 *582:43 0.000101706
18 *575:83 *952:A0 0.000143351
19 *912:A0 *575:61 0.000466632
20 *912:A0 *575:83 0.000240377
21 *1009:D *575:30 0
22 *1105:A *575:30 0
23 *1172:A *575:24 4.27468e-05
24 *1174:A *575:24 0
25 *1174:A *575:30 0.000124547
26 *1177:A *575:24 0.000653861
27 *1188:A *575:10 7.33256e-05
28 *1194:A *575:10 4.74703e-05
29 *1233:A *575:24 0
30 *1244:A *575:16 8.00842e-05
31 *16:9 *575:24 0
32 *21:21 *575:24 8.00842e-05
33 *27:11 *575:16 0.000662695
34 *29:11 *575:10 0
35 *127:8 *575:30 0
36 *129:18 *575:30 0.000240377
37 *135:28 *575:47 0.000282467
38 *135:36 *575:47 0
39 *165:10 *575:83 0
40 *166:14 *575:61 0
41 *171:8 *928:A1 1.54008e-05
42 *174:13 *575:16 0
43 *336:8 *575:30 0.000441518
44 *356:10 *928:A1 0
45 *372:12 *575:83 0.000128663
46 *387:12 *575:30 0
47 *387:22 *575:30 0.00043624
48 *387:30 *928:A1 0.000208035
49 *387:40 *575:47 0.000492173
50 *399:34 *575:61 0.000103073
51 *406:12 *575:30 0.00039294
52 *428:24 *575:83 0
53 *475:24 *575:24 7.30101e-05
54 *497:16 *575:16 0
55 *497:24 *575:30 0
56 *511:14 *575:30 0
57 *514:54 *575:61 0.00023034
58 *520:16 *575:16 0.000501218
59 *530:68 *575:47 0.000754039
60 *532:26 *575:83 7.47964e-05
61 *535:54 *575:30 1.54008e-05
62 *535:54 *575:47 8.00842e-05
63 *543:8 *575:10 7.34081e-05
64 *544:43 *575:30 0
65 *556:10 *575:30 0
66 *556:28 *575:30 4.77425e-05
67 *565:14 *575:16 0
68 *566:10 *575:24 0
69 *572:40 *575:83 0
*RES
1 *1205:X *575:10 42.8943 
2 *575:10 *575:16 48.9713 
3 *575:16 *575:24 45.3354 
4 *575:24 *575:30 34.7599 
5 *575:30 *928:A1 22.1836 
6 *575:30 *575:47 44.3466 
7 *575:47 *575:61 47.3439 
8 *575:61 *956:A2 20 
9 *575:47 *952:A1 20 
10 *575:47 *575:83 45.3251 
11 *575:83 *912:A1 20 
*END

*D_NET *576 0.0283574
*CONN
*I *913:A1 I *D sg13g2_mux2_1
*I *953:A1 I *D sg13g2_mux2_1
*I *957:A2 I *D sg13g2_mux4_1
*I *929:A1 I *D sg13g2_mux2_1
*I *1206:X O *D sg13g2_buf_1
*CAP
1 *913:A1 0
2 *953:A1 0
3 *957:A2 7.98343e-05
4 *929:A1 5.71784e-05
5 *1206:X 0.000121332
6 *576:75 0.000607014
7 *576:60 0.000977156
8 *576:45 0.000614693
9 *576:34 0.00277579
10 *576:20 0.00300948
11 *576:14 0.00185966
12 *576:8 0.00152541
13 *957:A2 *900:A0 0.0001122
14 *576:34 *586:24 1.4965e-05
15 *576:34 *599:46 0
16 *576:75 *601:24 7.48178e-05
17 *904:S1 *576:75 4.23522e-05
18 *1128:A *929:A1 7.98582e-05
19 *1206:A *576:8 0
20 *1208:A *576:8 0
21 *13:13 *576:14 0.000486187
22 *115:34 *576:34 0
23 *116:18 *576:14 0
24 *157:18 *576:34 7.78179e-05
25 *160:36 *576:75 0.000178893
26 *174:13 *576:8 0
27 *180:13 *576:20 0
28 *181:9 *576:14 0.00390272
29 *185:11 *576:14 0
30 *186:11 *576:14 0
31 *189:11 *576:14 0.0015679
32 *300:8 *576:75 0.000492066
33 *310:12 *576:34 0.00117712
34 *321:18 *576:60 4.77425e-05
35 *321:18 *576:75 4.77425e-05
36 *343:22 *576:34 0
37 *375:12 *576:60 0.000241339
38 *375:18 *576:34 7.35518e-05
39 *375:18 *576:45 0.000739003
40 *375:18 *576:60 0.000106064
41 *400:32 *576:75 1.54008e-05
42 *413:26 *576:34 0
43 *420:34 *576:34 2.14736e-05
44 *420:34 *576:45 0.000758273
45 *420:34 *576:60 0.000181192
46 *467:14 *576:34 0.000809385
47 *467:22 *576:75 0
48 *470:10 *576:75 0.000240377
49 *498:32 *576:14 0
50 *498:51 *576:14 0
51 *525:18 *576:34 0.000268397
52 *531:36 *576:14 0.00087236
53 *542:22 *576:34 0
54 *547:45 *576:20 0.00135857
55 *547:51 *576:34 4.63914e-05
56 *554:35 *576:60 0
57 *555:35 *576:34 0.000803406
58 *573:14 *576:20 0.00189226
*RES
1 *1206:X *576:8 40.9682 
2 *576:8 *576:14 41.9287 
3 *576:14 *576:20 48.755 
4 *576:20 *576:34 41.2296 
5 *576:34 *929:A1 40.5356 
6 *576:34 *576:45 3.5638 
7 *576:45 *957:A2 40.7519 
8 *576:45 *576:60 23.7595 
9 *576:60 *953:A1 20 
10 *576:60 *576:75 46.4272 
11 *576:75 *913:A1 20 
*END

*D_NET *577 0.0143825
*CONN
*I *1061:A I *D sg13g2_buf_1
*I *1029:D I *D sg13g2_dlhq_1
*I *965:D I *D sg13g2_dlhq_1
*I *997:D I *D sg13g2_dlhq_1
*I *1222:X O *D sg13g2_buf_1
*CAP
1 *1061:A 7.50321e-05
2 *1029:D 0.000208357
3 *965:D 0.000274132
4 *997:D 0
5 *1222:X 0.000207568
6 *577:81 0.000508624
7 *577:75 0.00069409
8 *577:67 0.000804695
9 *577:52 0.000511179
10 *577:38 0.00109032
11 *577:32 0.00101072
12 *577:22 0.000369872
13 *577:20 0.000876966
14 *577:8 0.00108453
15 *577:8 *599:10 0
16 *577:20 *610:22 0.000319625
17 *577:32 *610:22 0.000335758
18 *577:38 *579:18 0
19 *577:38 *588:58 0.000182897
20 *998:GATE *965:D 1.54008e-05
21 *998:GATE *1029:D 3.23417e-05
22 *1018:GATE *577:52 0
23 *1189:A *577:20 0
24 *1192:A *577:20 0
25 *1194:A *577:20 0.000370269
26 *1233:A *577:8 0
27 *19:23 *577:8 0
28 *23:23 *577:20 0
29 *24:15 *577:32 0
30 *28:9 *577:20 0
31 *174:13 *577:20 0
32 *176:21 *577:20 0.000176711
33 *178:13 *965:D 0
34 *182:11 *1061:A 0.000129367
35 *182:11 *577:20 0
36 *182:11 *577:32 7.86681e-05
37 *184:23 *1061:A 0.000144569
38 *184:23 *577:32 7.86681e-05
39 *301:10 *577:52 3.08016e-05
40 *407:12 *577:75 0
41 *413:16 *1029:D 8.00842e-05
42 *464:16 *577:38 0.00190647
43 *464:16 *577:75 0
44 *470:40 *577:75 0.000140671
45 *472:34 *577:67 0.000112198
46 *498:26 *577:32 0
47 *499:56 *1029:D 0.00011101
48 *499:56 *577:52 0
49 *499:56 *577:67 7.45103e-05
50 *527:22 *577:75 0.00141103
51 *539:30 *577:75 0
52 *544:10 *577:8 0.000178206
53 *545:10 *577:20 0.000242312
54 *551:56 *577:52 0.00044038
55 *562:8 *577:20 0
56 *566:10 *577:8 0
57 *567:14 *577:32 0
58 *568:26 *577:67 7.45103e-05
59 *572:16 *577:20 0
*RES
1 *1222:X *577:8 41.8334 
2 *577:8 *577:20 48.9404 
3 *577:20 *577:22 20 
4 *577:22 *577:32 42.8737 
5 *577:32 *577:38 48.755 
6 *577:38 *577:52 44.0994 
7 *577:52 *997:D 20 
8 *577:52 *577:67 41.6995 
9 *577:67 *577:75 47.4984 
10 *577:75 *577:81 40.3502 
11 *577:81 *965:D 22.3999 
12 *577:81 *1029:D 22.0497 
13 *577:22 *1061:A 20.9682 
*END

*D_NET *578 0.0273126
*CONN
*I *914:A1 I *D sg13g2_mux2_1
*I *954:A1 I *D sg13g2_mux2_1
*I *930:A1 I *D sg13g2_mux2_1
*I *958:A2 I *D sg13g2_mux4_1
*I *1207:X O *D sg13g2_buf_1
*CAP
1 *914:A1 0.000224618
2 *954:A1 3.34444e-05
3 *930:A1 9.14506e-05
4 *958:A2 0.00010703
5 *1207:X 2.63207e-05
6 *578:60 0.000357059
7 *578:47 0.0005749
8 *578:32 0.00101126
9 *578:28 0.00269332
10 *578:22 0.00561153
11 *578:14 0.00455562
12 *578:8 0.00114396
13 *914:A1 *609:18 0.000143351
14 *930:A1 *617:30 0.000111567
15 *954:A1 *946:A0 4.77425e-05
16 *578:22 *579:18 0.000401157
17 *578:32 *584:30 0
18 *578:32 *618:16 0.000228175
19 *578:47 *903:A0 0.000176625
20 *578:47 *584:30 0
21 *578:47 *609:26 0
22 *578:47 *618:16 0.000421598
23 *954:S *930:A1 0.000143351
24 *1011:GATE *958:A2 0
25 *1111:A *914:A1 4.77425e-05
26 *24:77 *578:28 0.000335821
27 *106:8 *578:14 0.000608173
28 *106:14 *578:22 0.00141691
29 *115:20 *578:22 0
30 *118:20 *578:22 0
31 *184:17 *578:14 0
32 *187:13 *578:14 0
33 *189:19 *578:14 0
34 *253:36 *578:28 4.63914e-05
35 *253:48 *578:32 0.000970652
36 *334:10 *578:47 0.000177894
37 *337:28 *578:14 0.000448167
38 *368:10 *914:A1 0.000261858
39 *368:10 *578:60 7.51285e-05
40 *407:16 *578:22 0
41 *419:36 *578:28 0
42 *422:34 *578:47 2.19989e-05
43 *425:28 *578:22 0.00281706
44 *428:92 *578:28 0.000333929
45 *483:20 *578:28 0.000431482
46 *484:24 *578:22 0
47 *502:14 *578:22 0
48 *502:14 *578:28 0
49 *517:14 *914:A1 0.000283955
50 *517:14 *578:28 0
51 *517:14 *578:32 0
52 *517:14 *578:60 0.000234224
53 *519:24 *578:28 0
54 *556:131 *578:32 0.000553297
55 *571:61 *914:A1 0
56 *573:22 *578:28 0
57 *573:30 *958:A2 0.000143865
*RES
1 *1207:X *578:8 40.3193 
2 *578:8 *578:14 49.7438 
3 *578:14 *578:22 37.1521 
4 *578:22 *578:28 39.3949 
5 *578:28 *578:32 26.5302 
6 *578:32 *958:A2 40.9682 
7 *578:32 *578:47 4.2333 
8 *578:47 *930:A1 40.9682 
9 *578:47 *578:60 1.4111 
10 *578:60 *954:A1 40.3193 
11 *578:60 *914:A1 42.9767 
*END

*D_NET *579 0.0225563
*CONN
*I *931:A1 I *D sg13g2_mux2_1
*I *915:A1 I *D sg13g2_mux2_1
*I *939:A1 I *D sg13g2_mux2_1
*I *1208:X O *D sg13g2_buf_1
*CAP
1 *931:A1 0.000500812
2 *915:A1 5.57036e-05
3 *939:A1 6.34193e-05
4 *1208:X 0
5 *579:45 0.000919261
6 *579:34 0.000885168
7 *579:28 0.00126555
8 *579:18 0.00388522
9 *579:16 0.00332198
10 *579:6 0.000243305
11 *931:A1 *618:44 4.77425e-05
12 *579:18 *588:58 0.00146595
13 *579:28 *581:73 0.000286403
14 *579:28 *594:56 0
15 *579:28 *620:50 0.00113936
16 *579:34 *603:40 0.00034031
17 *915:A0 *915:A1 1.54008e-05
18 *931:S *931:A1 0
19 *106:14 *579:18 0.00205742
20 *107:16 *579:16 0
21 *114:16 *579:18 0
22 *117:8 *579:28 0.000608354
23 *193:17 *579:34 0.000498552
24 *193:17 *579:45 5.16919e-05
25 *246:14 *931:A1 0
26 *246:14 *579:34 0.000394751
27 *246:14 *579:45 0
28 *383:8 *931:A1 0.000128765
29 *390:44 *579:28 0
30 *402:38 *931:A1 0.00030506
31 *407:16 *579:18 0.00333545
32 *410:20 *579:18 0
33 *425:38 *579:28 4.63914e-05
34 *464:16 *579:16 0
35 *464:16 *579:18 0
36 *464:72 *931:A1 0.000111378
37 *477:18 *931:A1 0.000181798
38 *477:18 *579:34 0
39 *477:18 *579:45 0
40 *484:14 *579:28 0
41 *539:20 *579:16 0
42 *539:20 *579:18 0
43 *539:30 *579:18 0
44 *577:38 *579:18 0
45 *578:22 *579:18 0.000401157
*RES
1 *1208:X *579:6 40 
2 *579:6 *579:16 42.6574 
3 *579:16 *579:18 36.1324 
4 *579:18 *579:28 49.6099 
5 *579:28 *579:34 5.7165 
6 *579:34 *939:A1 40.5356 
7 *579:34 *579:45 2.575 
8 *579:45 *915:A1 40.166 
9 *579:45 *931:A1 45.3457 
*END

*D_NET *580 0.029858
*CONN
*I *940:A1 I *D sg13g2_mux2_1
*I *932:A1 I *D sg13g2_mux2_1
*I *916:A1 I *D sg13g2_mux2_1
*I *1209:X O *D sg13g2_buf_1
*CAP
1 *940:A1 0.000232052
2 *932:A1 0
3 *916:A1 0
4 *1209:X 3.90183e-05
5 *580:73 0.000306512
6 *580:63 0.000566505
7 *580:56 2.79406e-05
8 *580:54 0.000882294
9 *580:46 0.00160156
10 *580:38 0.003494
11 *580:26 0.00359875
12 *580:20 0.00234767
13 *580:14 0.00238808
14 *580:8 0.000903442
15 *580:38 *927:A0 0.0016513
16 *580:38 *581:24 0.000649856
17 *580:38 *599:40 0
18 *580:38 *611:50 0.000386529
19 *580:54 *602:8 7.92265e-05
20 *580:63 *940:A0 0
21 *995:GATE *580:46 0.000143494
22 *1037:D *580:46 0
23 *66:67 *580:38 0
24 *107:16 *580:14 0
25 *184:17 *580:14 0
26 *253:30 *580:54 0
27 *282:8 *580:46 0.000652057
28 *341:14 *580:38 0
29 *341:22 *580:26 0
30 *394:52 *580:38 0
31 *398:12 *580:14 0.000209967
32 *398:24 *580:14 0.000403118
33 *403:14 *580:73 0
34 *410:12 *580:14 0
35 *410:50 *580:54 7.31655e-05
36 *414:12 *580:14 0.000145556
37 *414:14 *580:20 0
38 *418:60 *580:38 0
39 *419:12 *580:14 0
40 *437:10 *580:38 0
41 *442:14 *580:14 0
42 *442:22 *580:14 0
43 *442:55 *580:46 0
44 *471:18 *580:73 4.77425e-05
45 *472:28 *580:38 0
46 *483:32 *580:73 7.35141e-05
47 *493:24 *580:20 0.00249686
48 *499:60 *580:20 0
49 *501:18 *580:38 0
50 *509:20 *580:26 0
51 *509:59 *580:54 0.000491675
52 *509:59 *580:73 0.000494317
53 *516:46 *580:20 0.000520305
54 *516:52 *580:20 0
55 *517:42 *580:26 0.00114442
56 *522:20 *580:20 0
57 *538:30 *580:26 0
58 *542:12 *580:14 0.000439
59 *543:52 *580:38 0.000758295
60 *543:60 *580:46 2.14736e-05
61 *545:71 *580:38 0.000177439
62 *549:51 *580:54 0
63 *553:38 *940:A1 0.000337402
64 *553:38 *580:63 0
65 *553:38 *580:73 8.00842e-05
66 *556:96 *580:38 0.00102024
67 *556:153 *580:54 0.000334398
68 *559:57 *580:38 0
69 *559:61 *580:38 0.000282412
70 *560:18 *580:38 0.000282961
71 *567:14 *580:8 7.33256e-05
*RES
1 *1209:X *580:8 40.3502 
2 *580:8 *580:14 48.755 
3 *580:14 *580:20 36.8302 
4 *580:20 *580:26 48.0134 
5 *580:26 *580:38 48.8812 
6 *580:38 *580:46 46.4478 
7 *580:46 *580:54 48.4872 
8 *580:54 *580:56 20 
9 *580:56 *916:A1 20 
10 *580:56 *580:63 0.3502 
11 *580:63 *580:73 43.1827 
12 *580:73 *932:A1 20 
13 *580:63 *940:A1 22.266 
*END

*D_NET *581 0.0188555
*CONN
*I *894:A0 I *D sg13g2_mux4_1
*I *955:A0 I *D sg13g2_mux4_1
*I *898:A0 I *D sg13g2_mux4_1
*I *906:A0 I *D sg13g2_mux4_1
*I *902:A0 I *D sg13g2_mux4_1
*I *1210:X O *D sg13g2_buf_1
*CAP
1 *894:A0 0
2 *955:A0 0
3 *898:A0 0.000141726
4 *906:A0 0
5 *902:A0 0.000345908
6 *1210:X 0.00176259
7 *581:73 0.000380553
8 *581:63 0.000926861
9 *581:46 0.0010358
10 *581:40 0.000320809
11 *581:34 0.000331662
12 *581:24 0.000745688
13 *581:16 0.00221212
14 *902:A0 *923:A0 0
15 *581:24 *598:29 0.000273049
16 N2BEGb[2] *581:16 0.000305735
17 *894:A3 *581:34 8.00842e-05
18 *898:A3 *581:73 0
19 *907:S *902:A0 7.92265e-05
20 *927:S *581:24 0.000112198
21 *955:S0 *581:46 0.000176252
22 *955:A1 *581:34 8.00842e-05
23 *66:55 *902:A0 0.000262316
24 *150:32 *581:16 0
25 *162:28 *581:16 0
26 *253:10 *581:34 0.000550326
27 *257:10 *581:16 0.000401036
28 *263:16 *902:A0 7.92265e-05
29 *263:16 *581:63 0
30 *263:26 *581:34 4.77425e-05
31 *390:44 *581:73 0.000453395
32 *394:46 *581:46 7.34081e-05
33 *397:46 *581:63 0.00108594
34 *411:52 *898:A0 0
35 *419:26 *581:34 0.000550479
36 *419:26 *581:40 0.000181192
37 *425:32 *581:46 0
38 *437:20 *581:16 8.0039e-05
39 *464:36 *581:46 0.00049916
40 *464:36 *581:63 0.00158706
41 *499:40 *581:40 0.000181279
42 *535:34 *581:16 0.000176252
43 *544:85 *581:16 0
44 *545:36 *581:46 0.00065923
45 *545:36 *581:63 0.000181387
46 *546:29 *581:16 0.000111963
47 *546:31 *581:16 0.00011219
48 *547:134 *581:16 0.000337402
49 *560:18 *581:24 0.000598401
50 *560:26 *581:16 4.68833e-05
51 *574:26 *581:24 0.00014454
52 *574:26 *581:34 0.000208035
53 *579:28 *581:73 0.000286403
54 *580:38 *581:24 0.000649856
*RES
1 *1210:X *581:16 36.1298 
2 *581:16 *581:24 45.9843 
3 *581:24 *581:34 44.5114 
4 *581:34 *581:40 40.8446 
5 *581:40 *581:46 24.2539 
6 *581:46 *902:A0 43.3681 
7 *581:46 *581:63 27.519 
8 *581:63 *581:73 44.2333 
9 *581:73 *906:A0 20 
10 *581:63 *898:A0 21.1845 
11 *581:40 *955:A0 20 
12 *581:24 *894:A0 20 
*END

*D_NET *582 0.0202575
*CONN
*I *897:A0 I *D sg13g2_mux4_1
*I *956:A0 I *D sg13g2_mux4_1
*I *905:A0 I *D sg13g2_mux4_1
*I *901:A0 I *D sg13g2_mux4_1
*I *893:A0 I *D sg13g2_mux4_1
*I *1212:X O *D sg13g2_buf_2
*CAP
1 *897:A0 0.000362198
2 *956:A0 0.000397696
3 *905:A0 0.000343727
4 *901:A0 0
5 *893:A0 0
6 *1212:X 0.000174153
7 *582:43 0.000618365
8 *582:26 0.000773
9 *582:20 0.000579208
10 *582:18 0.000534795
11 *582:16 0.00201896
12 *582:10 0.00177466
13 *582:16 *1032:D 0
14 *582:43 *901:A1 0
15 *893:S0 *582:26 1.54008e-05
16 *893:S0 *582:43 3.23417e-05
17 *893:S1 *897:A0 4.96676e-05
18 *897:S0 *897:A0 1.54008e-05
19 *920:A0 *956:A0 0
20 *936:S *905:A0 4.77425e-05
21 *956:S1 *582:43 0.000357575
22 *1008:GATE *582:16 0.000127594
23 *1120:A *582:10 0.00011101
24 *1212:A *582:10 1.54008e-05
25 *130:40 *956:A0 1.54008e-05
26 *130:40 *582:43 0
27 *150:32 *582:43 0
28 *166:8 *582:43 0
29 *279:12 *582:16 0.000337141
30 *288:14 *897:A0 7.29217e-05
31 *325:8 *582:16 0
32 *326:10 *582:16 0.000622893
33 *326:10 *582:18 0.000264598
34 *326:10 *582:20 0.000313077
35 *326:10 *582:26 0.000176236
36 *405:56 *582:16 0.00138298
37 *415:22 *582:26 0.00014391
38 *415:22 *582:43 4.77425e-05
39 *467:8 *897:A0 0.000369743
40 *502:40 *582:43 0.000178292
41 *530:58 *582:43 7.98582e-05
42 *541:36 *582:16 0.00359871
43 *545:56 *582:16 0
44 *547:170 *905:A0 0.000465909
45 *550:155 *582:16 0.00192726
46 *551:10 *582:16 0.000315935
47 *558:114 *956:A0 0
48 *570:24 *582:16 0.000697214
49 *570:24 *582:18 0.000287215
50 *570:24 *582:20 0.000333804
51 *570:24 *582:26 0.000176083
52 *575:61 *582:43 0.000101706
*RES
1 *1212:X *582:10 41.5347 
2 *582:10 *582:16 26.2341 
3 *582:16 *582:18 1.339 
4 *582:18 *582:20 1.5862 
5 *582:20 *582:26 21.8128 
6 *582:26 *893:A0 20 
7 *582:26 *582:43 46.0358 
8 *582:43 *901:A0 20 
9 *582:20 *905:A0 43.4814 
10 *582:18 *956:A0 43.5844 
11 *582:16 *897:A0 43.7286 
*END

*D_NET *583 0.0124355
*CONN
*I *904:A0 I *D sg13g2_mux4_1
*I *896:A0 I *D sg13g2_mux4_1
*I *892:A0 I *D sg13g2_mux4_1
*I *900:A0 I *D sg13g2_mux4_1
*I *957:A0 I *D sg13g2_mux4_1
*I *1213:X O *D sg13g2_buf_1
*CAP
1 *904:A0 0
2 *896:A0 0
3 *892:A0 0.000344949
4 *900:A0 0.000206443
5 *957:A0 0.000209061
6 *1213:X 4.83988e-05
7 *583:69 0.000132771
8 *583:24 0.000571997
9 *583:22 0.00092283
10 *583:16 0.000618167
11 *583:14 0.00169019
12 *583:8 0.00167458
13 *892:A0 *587:24 0
14 *583:14 *594:12 0.000390081
15 *583:14 *595:10 0.000335225
16 N2BEGb[2] *583:8 7.99019e-05
17 N4BEG[10] *583:14 0.000496184
18 NN4BEG[9] *583:14 7.9225e-05
19 NN4BEG[9] *583:22 0
20 *892:S0 *892:A0 1.54008e-05
21 *896:S0 *583:69 8.00842e-05
22 *900:S0 *900:A0 1.54008e-05
23 *904:A3 *583:14 0.000232418
24 *909:S *583:22 0.000143351
25 *925:A1 *583:14 0
26 *957:A2 *900:A0 0.0001122
27 *1112:A *892:A0 0
28 *121:30 *957:A0 0
29 *121:30 *583:24 0
30 *146:28 *583:14 0
31 *154:36 *583:14 0.000540849
32 *164:8 *583:14 0
33 *173:34 *583:14 0
34 *253:30 *892:A0 7.52149e-05
35 *260:8 *583:14 0
36 *272:12 *583:69 0.000285142
37 *310:12 *957:A0 1.54008e-05
38 *311:12 *892:A0 7.51285e-05
39 *311:12 *957:A0 0.000282118
40 *311:12 *583:22 4.77425e-05
41 *311:12 *583:24 0.000441184
42 *321:10 *583:14 0.000913351
43 *359:12 *583:14 0
44 *375:12 *900:A0 0.000176252
45 *395:30 *583:14 0.000313575
46 *437:20 *583:8 4.68848e-05
47 *470:10 *583:14 7.30101e-05
48 *520:69 *892:A0 0.000212543
49 *520:69 *583:24 0.000178309
50 *546:102 *583:69 0.000338413
51 *558:45 *583:69 2.14736e-05
*RES
1 *1213:X *583:8 40.5356 
2 *583:8 *583:14 36.3667 
3 *583:14 *583:16 0.5356 
4 *583:16 *583:22 23.4161 
5 *583:22 *583:24 2.0806 
6 *583:24 *957:A0 42.0085 
7 *583:24 *900:A0 42.0497 
8 *583:22 *892:A0 43.5947 
9 *583:16 *583:69 42.1218 
10 *583:69 *896:A0 20 
11 *583:14 *904:A0 20 
*END

*D_NET *584 0.0172424
*CONN
*I *891:A0 I *D sg13g2_mux4_1
*I *958:A0 I *D sg13g2_mux4_1
*I *895:A0 I *D sg13g2_mux4_1
*I *903:A0 I *D sg13g2_mux4_1
*I *899:A0 I *D sg13g2_mux4_1
*I *1214:X O *D sg13g2_buf_1
*CAP
1 *891:A0 0.000215524
2 *958:A0 0
3 *895:A0 0
4 *903:A0 0.000693975
5 *899:A0 0.000166274
6 *1214:X 0.000496108
7 *584:68 0.000407037
8 *584:60 0.000464022
9 *584:30 0.00117919
10 *584:26 0.000957361
11 *584:18 0.00189128
12 *584:16 0.001544
13 *584:10 0.000945784
14 *899:A0 *618:8 0.00011101
15 *903:A0 *950:A0 8.00842e-05
16 *903:A0 *617:30 0.000177109
17 *584:10 *620:40 0
18 *584:18 *599:74 0
19 I_top8 *584:10 0
20 I_top9 *584:10 7.92265e-05
21 *895:S0 *584:68 1.54008e-05
22 *898:A3 *584:10 0.000872306
23 *899:A3 *584:26 0
24 *1126:A *584:16 0.000176266
25 *66:25 *584:18 0.000336991
26 *252:50 *899:A0 7.7004e-06
27 *253:48 *584:26 0.000112154
28 *270:10 *584:18 0
29 *282:36 *584:26 0
30 *282:36 *584:68 0
31 *333:12 *584:68 0
32 *353:10 *584:10 0.000926549
33 *394:14 *903:A0 0.000770843
34 *397:26 *584:18 0.000179649
35 *402:30 *891:A0 0.000209724
36 *402:30 *584:18 0.000605898
37 *402:38 *584:10 0.000377724
38 *428:92 *584:18 0.000181771
39 *430:8 *584:26 4.75151e-05
40 *463:26 *584:68 7.51285e-05
41 *465:12 *899:A0 0.000100674
42 *517:14 *903:A0 0.000387952
43 *517:14 *584:30 0.000649937
44 *517:14 *584:68 0.00034131
45 *549:12 *584:16 0.000208035
46 *549:107 *891:A0 7.9657e-05
47 *552:124 *584:26 0.00011101
48 *552:130 *891:A0 0
49 *552:130 *584:26 0
50 *552:149 *899:A0 7.23838e-05
51 *560:115 *584:18 0
52 *573:22 *891:A0 0.00023185
53 *573:22 *584:18 0.000499529
54 *573:30 *584:26 0
55 *573:59 *903:A0 7.98567e-05
56 *578:32 *584:30 0
57 *578:47 *903:A0 0.000176625
58 *578:47 *584:30 0
*RES
1 *1214:X *584:10 47.313 
2 *584:10 *584:16 43.2572 
3 *584:16 *584:18 10.7326 
4 *584:18 *584:26 25.1294 
5 *584:26 *584:30 23.0694 
6 *584:30 *899:A0 41.8025 
7 *584:30 *903:A0 48.0752 
8 *584:26 *584:60 0.5356 
9 *584:60 *584:68 43.8522 
10 *584:68 *895:A0 20 
11 *584:60 *958:A0 20 
12 *584:18 *891:A0 42.4102 
*END

*D_NET *585 0.0106183
*CONN
*I *902:A1 I *D sg13g2_mux4_1
*I *939:A0 I *D sg13g2_mux2_1
*I *1215:X O *D sg13g2_buf_1
*CAP
1 *902:A1 0
2 *939:A0 0.00049125
3 *1215:X 0.000280472
4 *585:35 0.000919261
5 *585:18 0.00212961
6 *585:10 0.00099957
7 *939:A0 *603:36 0.000337402
8 *585:10 *597:14 0.000493542
9 *585:18 *603:36 0.000128508
10 *585:35 *590:30 0.00102812
11 *585:35 *598:12 0
12 *585:35 *618:44 0
13 *937:S *585:18 7.99004e-05
14 *939:S *939:A0 0.000240377
15 *981:D *585:10 7.92265e-05
16 *982:GATE *939:A0 4.77425e-05
17 *1077:A *585:18 8.00842e-05
18 *1226:A *585:18 0
19 *206:13 *585:18 0.00069137
20 *323:10 *585:35 0.000441239
21 *345:14 *585:35 0.000809085
22 *391:36 *585:10 0
23 *411:52 *585:35 0.00033941
24 *509:36 *585:35 0
25 *553:63 *585:10 7.92265e-05
26 *560:85 *585:35 0.000922954
*RES
1 *1215:X *585:10 42.8634 
2 *585:10 *585:18 27.2615 
3 *585:18 *939:A0 24.9193 
4 *585:18 *585:35 32.463 
5 *585:35 *902:A1 40 
*END

*D_NET *586 0.0228464
*CONN
*I *940:A0 I *D sg13g2_mux2_1
*I *901:A1 I *D sg13g2_mux4_1
*I *1216:X O *D sg13g2_buf_1
*CAP
1 *940:A0 0.000740144
2 *901:A1 0.000206072
3 *1216:X 2.67614e-05
4 *586:28 0.00125995
5 *586:24 0.00255335
6 *586:14 0.00161574
7 *586:8 0.000883181
8 *586:24 *607:22 0.000784436
9 *586:24 *607:26 0
10 *912:A0 *901:A1 4.77425e-05
11 *916:S *940:A0 0.000465352
12 *964:GATE *586:28 0.000124547
13 *990:GATE *586:8 4.75151e-05
14 *1216:A *586:8 4.75151e-05
15 *133:30 *586:28 0.000541488
16 *166:14 *586:28 0
17 *252:32 *940:A0 0.000540534
18 *312:10 *586:28 0.00127304
19 *375:18 *586:28 0
20 *391:52 *586:24 0.001573
21 *392:16 *940:A0 0.000540689
22 *403:14 *940:A0 0.00014391
23 *403:29 *940:A0 0.000192634
24 *408:22 *586:28 0.0013753
25 *413:46 *586:24 0.00314029
26 *428:64 *586:14 0
27 *467:14 *586:28 0
28 *474:8 *586:28 0.00065359
29 *479:18 *586:14 0
30 *488:36 *586:24 0.00212372
31 *501:24 *586:24 0.000877384
32 *502:40 *901:A1 2.18151e-05
33 *510:32 *586:28 0.000387024
34 *513:46 *586:24 0.00010984
35 *519:24 *586:14 0.000110503
36 *519:28 *586:24 0
37 *525:18 *586:24 0.000268269
38 *546:10 *586:28 0.000156076
39 *576:34 *586:24 1.4965e-05
40 *580:63 *940:A0 0
41 *582:43 *901:A1 0
*RES
1 *1216:X *586:8 40.3193 
2 *586:8 *586:14 40.9682 
3 *586:14 *586:24 46.1826 
4 *586:24 *586:28 34.1934 
5 *586:28 *901:A1 41.751 
6 *586:8 *940:A0 48.4666 
*END

*D_NET *587 0.0124068
*CONN
*I *941:A0 I *D sg13g2_mux2_1
*I *900:A1 I *D sg13g2_mux4_1
*I *1217:X O *D sg13g2_buf_1
*CAP
1 *941:A0 0
2 *900:A1 0
3 *1217:X 0.000365399
4 *587:24 0.000551737
5 *587:16 0.00151825
6 *587:10 0.00180424
7 *587:8 0.00120314
8 *587:8 *591:16 0
9 *587:16 *596:18 0.00107582
10 *587:16 *601:24 0
11 *892:A0 *587:24 0
12 *953:S *587:24 0.000369743
13 *971:D *587:8 1.54008e-05
14 *1004:GATE *587:16 0
15 *1236:A *587:8 0
16 *205:21 *587:16 0
17 *212:13 *587:8 0
18 *214:9 *587:8 0.000274209
19 *224:9 *587:10 0.00060595
20 *225:13 *587:10 0
21 *253:30 *587:24 0.000287492
22 *283:20 *587:24 0.00086216
23 *292:8 *587:10 0
24 *292:8 *587:16 0
25 *304:8 *587:10 0.000181192
26 *311:12 *587:24 0.000703116
27 *403:29 *587:24 0
28 *463:20 *587:10 0
29 *467:22 *587:16 0.00149787
30 *483:48 *587:16 0
31 *492:24 *587:10 0
32 *541:60 *587:10 0.000178997
33 *546:112 *587:16 0
34 *546:124 *587:10 0.000735882
35 *546:124 *587:16 0.000176239
36 *553:77 *587:10 0
*RES
1 *1217:X *587:8 43.3475 
2 *587:8 *587:10 9.2494 
3 *587:10 *587:16 31.6081 
4 *587:16 *587:24 47.5293 
5 *587:24 *900:A1 20 
6 *587:10 *941:A0 40 
*END

*D_NET *588 0.0176364
*CONN
*I *1062:A I *D sg13g2_buf_1
*I *1030:D I *D sg13g2_dlhq_1
*I *966:D I *D sg13g2_dlhq_1
*I *998:D I *D sg13g2_dlhq_1
*I *1233:X O *D sg13g2_buf_1
*CAP
1 *1062:A 6.83714e-05
2 *1030:D 0
3 *966:D 0
4 *998:D 0
5 *1233:X 0.000138829
6 *588:107 0.000104367
7 *588:101 0.000482868
8 *588:89 0.000568974
9 *588:85 0.000787652
10 *588:62 0.000612624
11 *588:58 0.000399466
12 *588:50 0.000517302
13 *588:44 0.000847072
14 *588:30 0.00114425
15 *588:18 0.00131691
16 *588:10 0.00109366
17 *588:18 *599:20 0
18 *588:18 *599:26 0.000904368
19 *588:50 *610:22 0
20 *588:85 *610:38 0.000240377
21 I_top0 *588:107 0.000552762
22 *2:17 *588:18 0
23 *23:23 *588:10 8.01575e-05
24 *119:10 *588:101 0.00012596
25 *176:21 *588:44 0.00039602
26 *344:28 *588:18 0.000287743
27 *357:14 *588:85 4.77425e-05
28 *363:8 *588:50 0.000496064
29 *376:14 *588:30 4.77425e-05
30 *405:14 *588:18 0
31 *410:26 *588:101 0.000140671
32 *413:16 *588:85 0.000124859
33 *419:26 *588:101 0.000124547
34 *420:12 *588:18 0
35 *423:24 *588:85 0.000439399
36 *425:8 *1062:A 0
37 *425:8 *588:30 0
38 *425:28 *588:101 7.9925e-05
39 *453:30 *588:107 0.000553313
40 *461:26 *588:85 0.000177891
41 *461:44 *588:44 0.000499218
42 *464:16 *588:58 0
43 *473:12 *588:58 4.63914e-05
44 *475:22 *588:10 0
45 *491:18 *588:18 0
46 *495:22 *588:30 0
47 *499:48 *588:85 7.48209e-05
48 *516:34 *588:62 7.4563e-05
49 *516:34 *588:85 0.000181664
50 *539:30 *588:58 0.000930932
51 *540:18 *588:18 0.00012651
52 *540:33 *588:18 0
53 *543:14 *588:18 0
54 *550:10 *588:50 0.000390282
55 *551:56 *588:62 7.4563e-05
56 *551:56 *588:85 0.000159943
57 *567:18 *588:18 0
58 *569:10 *588:44 0.000447561
59 *570:12 *588:30 7.9225e-05
60 *577:38 *588:58 0.000182897
61 *579:18 *588:58 0.00146595
*RES
1 *1233:X *588:10 41.3184 
2 *588:10 *588:18 49.9704 
3 *588:18 *588:30 23.8831 
4 *588:30 *588:44 47.3404 
5 *588:44 *588:50 42.3278 
6 *588:50 *588:58 47.0967 
7 *588:58 *588:62 20.3502 
8 *588:62 *998:D 40 
9 *588:62 *588:85 46.7671 
10 *588:85 *588:89 21.6171 
11 *588:89 *588:101 43.3166 
12 *588:101 *588:107 42.575 
13 *588:107 *966:D 20 
14 *588:89 *1030:D 20 
15 *588:30 *1062:A 20.8858 
*END

*D_NET *589 0.00766439
*CONN
*I *942:A0 I *D sg13g2_mux2_1
*I *899:A1 I *D sg13g2_mux4_1
*I *1218:X O *D sg13g2_buf_1
*CAP
1 *942:A0 0
2 *899:A1 0
3 *1218:X 0.000500545
4 *589:20 0.00119105
5 *589:14 0.00182905
6 *589:8 0.00113854
7 *589:8 *590:8 0
8 *589:14 *591:24 0
9 *589:14 *612:20 0
10 *589:14 *619:14 0
11 *589:20 *593:22 0
12 *589:20 *617:38 7.55443e-05
13 *899:A3 *589:20 0.000194104
14 *903:S1 *589:20 0.000306985
15 *958:S0 *589:20 0
16 *987:GATE *589:8 0.000143908
17 *77:23 *589:8 0.000497152
18 *212:13 *589:8 0.000241895
19 *225:13 *589:8 0
20 *233:29 *589:14 0.000179339
21 *237:9 *589:14 0.000121065
22 *320:10 *589:20 0
23 *389:55 *589:20 0
24 *394:18 *589:20 0.000283922
25 *553:90 *589:8 6.41542e-05
26 *556:153 *589:14 0.000495393
27 *573:30 *589:20 0
28 *573:38 *589:20 0.000401737
*RES
1 *1218:X *589:8 45.0779 
2 *589:8 *589:14 26.077 
3 *589:14 *589:20 30.9592 
4 *589:20 *899:A1 40 
5 *589:14 *942:A0 20 
*END

*D_NET *590 0.0239227
*CONN
*I *943:A0 I *D sg13g2_mux2_1
*I *898:A1 I *D sg13g2_mux4_1
*I *1219:X O *D sg13g2_buf_1
*CAP
1 *943:A0 0.000153978
2 *898:A1 0.000140561
3 *1219:X 0.00072651
4 *590:55 0.000153978
5 *590:51 0.00134078
6 *590:45 0.00182316
7 *590:30 0.00150832
8 *590:22 0.0018485
9 *590:16 0.00174235
10 *590:8 0.00150574
11 *898:A1 *898:A2 0.000208035
12 *590:16 *616:22 0
13 *590:22 *602:14 0.000646602
14 *590:30 *598:12 0.000766481
15 *943:A1 *943:A0 0.000208035
16 *979:D *590:8 4.77425e-05
17 *987:GATE *590:8 0.000143908
18 *1236:A *590:8 0.000402836
19 *24:67 *590:22 0
20 *212:13 *590:8 0.000241868
21 *252:40 *590:16 0
22 *263:8 *898:A1 0.000240377
23 *306:8 *590:16 0.000124859
24 *323:10 *590:45 0
25 *343:12 *590:51 0
26 *382:10 *590:16 0.000402533
27 *391:28 *590:16 0
28 *391:36 *590:22 0.000856816
29 *391:48 *590:51 0
30 *397:52 *590:51 0
31 *397:58 *590:51 0.00173169
32 *403:14 *590:16 0.000965963
33 *405:56 *943:A0 0.00014391
34 *408:42 *590:51 0.000877249
35 *409:44 *590:51 0
36 *409:59 *590:51 0
37 *411:52 *590:45 0
38 *413:52 *590:22 0.000365991
39 *414:14 *590:51 0.000823734
40 *424:38 *590:22 0
41 *424:38 *590:45 0.00102593
42 *453:61 *590:30 0
43 *453:76 *590:30 0
44 *480:12 *590:51 4.71779e-05
45 *484:14 *590:51 0.000301623
46 *510:14 *590:51 0.00018265
47 *519:24 *590:22 0.000937058
48 *533:10 *590:16 0
49 *543:46 *590:51 0
50 *548:8 *590:16 0
51 *553:90 *590:8 7.92265e-05
52 *560:85 *590:30 0.000178379
53 *585:35 *590:30 0.00102812
54 *589:8 *590:8 0
*RES
1 *1219:X *590:8 46.592 
2 *590:8 *590:16 48.549 
3 *590:16 *590:22 30.4339 
4 *590:22 *590:30 49.5069 
5 *590:30 *898:A1 21.6171 
6 *590:30 *590:45 45.1191 
7 *590:45 *590:51 35.1961 
8 *590:51 *590:55 40 
9 *590:55 *943:A0 41.6171 
*END

*D_NET *591 0.0198473
*CONN
*I *897:A1 I *D sg13g2_mux4_1
*I *944:A0 I *D sg13g2_mux2_1
*I *1220:X O *D sg13g2_buf_1
*CAP
1 *897:A1 0
2 *944:A0 0.000327613
3 *1220:X 0.000611706
4 *591:44 0.000501524
5 *591:38 0.000927122
6 *591:32 0.00338072
7 *591:24 0.00324777
8 *591:16 0.00123196
9 *591:16 *592:10 0
10 *591:16 *593:22 0
11 *591:24 *600:12 0
12 *591:24 *612:20 0.00139354
13 *591:32 *594:26 0.000395374
14 *1003:GATE *591:16 4.77425e-05
15 *137:18 *591:38 7.57947e-05
16 *145:22 *591:32 0.00098506
17 *153:22 *591:38 0.000880575
18 *154:18 *591:38 0
19 *157:18 *591:38 0
20 *162:12 *944:A0 2.14475e-05
21 *170:20 *591:32 0.000237892
22 *212:13 *591:16 4.77425e-05
23 *291:10 *591:16 0
24 *388:16 *591:24 0
25 *388:16 *591:32 0
26 *395:20 *591:32 0.000129113
27 *399:18 *591:32 0
28 *399:30 *591:38 0
29 *400:24 *591:32 0.00146562
30 *406:32 *591:32 0
31 *420:38 *591:24 0.000657367
32 *423:24 *944:A0 0.000207845
33 *496:22 *591:38 0.000289617
34 *534:14 *591:32 0
35 *535:18 *591:38 0.000663468
36 *541:52 *591:24 0.000172798
37 *556:153 *591:24 0
38 *569:70 *944:A0 0
39 *572:60 *591:32 0.00173381
40 *572:81 *591:32 0.000214039
41 *587:8 *591:16 0
42 *589:14 *591:24 0
*RES
1 *1220:X *591:16 45.5517 
2 *591:16 *591:24 47.931 
3 *591:24 *591:32 49.1078 
4 *591:32 *591:38 48.755 
5 *591:38 *591:44 41.4008 
6 *591:44 *944:A0 23.2136 
7 *591:44 *897:A1 20 
*END

*D_NET *592 0.0129139
*CONN
*I *896:A1 I *D sg13g2_mux4_1
*I *945:A0 I *D sg13g2_mux2_1
*I *1221:X O *D sg13g2_buf_1
*CAP
1 *896:A1 0
2 *945:A0 0.000167408
3 *1221:X 0.000309824
4 *592:41 0.00010854
5 *592:24 0.00105801
6 *592:14 0.00271921
7 *592:10 0.00202989
8 *945:A0 *594:48 4.77425e-05
9 *592:10 *593:22 0
10 *1003:GATE *592:10 8.00842e-05
11 *1004:GATE *592:14 0.000126354
12 *1080:A *592:14 5.30319e-05
13 *1112:A *945:A0 0
14 *77:23 *592:14 0
15 *121:40 *592:24 0.000391695
16 *162:40 *592:24 0.000111568
17 *163:14 *592:24 0.000629168
18 *163:14 *592:41 0.000111869
19 *225:13 *592:14 0
20 *234:11 *592:10 0
21 *272:12 *592:14 0
22 *272:12 *592:41 0.000182553
23 *273:12 *592:41 0.000182553
24 *291:10 *592:10 4.75166e-05
25 *305:8 *592:14 0.000598208
26 *463:8 *592:14 0.000395981
27 *471:26 *592:14 0.000552068
28 *483:48 *592:14 0
29 *496:18 *592:24 0
30 *542:47 *592:24 0
31 *542:47 *592:41 0
32 *553:10 *592:14 0.000809289
33 *553:32 *592:14 0.000230633
34 *553:77 *592:14 0.00102796
35 *553:90 *592:14 0.000550358
36 *554:35 *592:24 0.00039238
37 *591:16 *592:10 0
*RES
1 *1221:X *592:10 42.8634 
2 *592:10 *592:14 39.1374 
3 *592:14 *592:24 48.961 
4 *592:24 *945:A0 21.6583 
5 *592:14 *592:41 41.5965 
6 *592:41 *896:A1 20 
*END

*D_NET *593 0.00907559
*CONN
*I *895:A1 I *D sg13g2_mux4_1
*I *946:A0 I *D sg13g2_mux2_1
*I *1223:X O *D sg13g2_buf_1
*CAP
1 *895:A1 0
2 *946:A0 0.00059571
3 *1223:X 0.000157471
4 *593:30 0.00126094
5 *593:22 0.0019693
6 *593:10 0.00146154
7 *946:A0 *617:22 0.00011101
8 *593:10 *604:20 0.000340704
9 *914:S *946:A0 0.000240889
10 *922:S *946:A0 0
11 *942:S *593:22 0
12 *954:A1 *946:A0 4.77425e-05
13 *954:S *946:A0 0
14 *958:S0 *593:22 0.000192634
15 *958:S0 *593:30 0.000144542
16 *959:GATE *593:22 0
17 *971:GATE *593:22 0
18 *1011:D *593:22 0
19 *233:19 *593:10 1.54556e-05
20 *233:29 *593:22 0
21 *234:11 *593:10 0.000287256
22 *237:9 *593:10 0.00011123
23 *291:10 *593:22 7.92265e-05
24 *320:10 *593:22 0
25 *368:10 *946:A0 0
26 *421:14 *593:30 0.00145327
27 *429:22 *593:30 0
28 *436:10 *593:30 0.000286392
29 *546:136 *593:22 0
30 *549:90 *593:22 8.00842e-05
31 *571:61 *946:A0 0.000240187
32 *589:20 *593:22 0
33 *591:16 *593:22 0
34 *592:10 *593:22 0
*RES
1 *1223:X *593:10 42.3381 
2 *593:10 *593:22 31.147 
3 *593:22 *593:30 47.7456 
4 *593:30 *946:A0 25.6444 
5 *593:22 *895:A1 20 
*END

*D_NET *594 0.0161162
*CONN
*I *947:A0 I *D sg13g2_mux2_1
*I *906:A1 I *D sg13g2_mux4_1
*I *1224:X O *D sg13g2_buf_1
*CAP
1 *947:A0 0
2 *906:A1 0
3 *1224:X 0.000170733
4 *594:56 0.00066273
5 *594:48 0.00161313
6 *594:42 0.00125649
7 *594:34 0.000774243
8 *594:26 0.00117516
9 *594:20 0.000832969
10 *594:12 0.000296686
11 *594:34 *619:22 0.00125191
12 *594:48 *1032:D 0
13 *594:56 *620:50 0.000340789
14 I_top7 *594:56 0.000234217
15 *902:S1 *594:48 0
16 *906:S1 *594:48 0
17 *906:S1 *594:56 0.000369743
18 *921:S *594:48 0
19 *945:A0 *594:48 4.77425e-05
20 *157:18 *594:20 7.78179e-05
21 *158:42 *594:34 0
22 *163:14 *594:42 0.00102033
23 *164:8 *594:12 0.00039147
24 *166:20 *594:20 0.000396243
25 *170:20 *594:26 0
26 *335:12 *594:48 0.000595014
27 *410:42 *594:26 0.00093214
28 *442:51 *594:42 0.00102164
29 *470:22 *594:20 0.000396243
30 *520:36 *594:20 7.78179e-05
31 *523:18 *594:34 0.00125193
32 *556:110 *594:56 0.00012816
33 *563:78 *594:56 1.54008e-05
34 *579:28 *594:56 0
35 *583:14 *594:12 0.000390081
36 *591:32 *594:26 0.000395374
*RES
1 *1224:X *594:12 42.5029 
2 *594:12 *594:20 42.369 
3 *594:20 *594:26 46.3757 
4 *594:26 *594:34 47.622 
5 *594:34 *594:42 45.3354 
6 *594:42 *594:48 28.4563 
7 *594:48 *594:56 46.8495 
8 *594:56 *906:A1 20 
9 *594:48 *947:A0 20 
*END

*D_NET *595 0.00963296
*CONN
*I *905:A1 I *D sg13g2_mux4_1
*I *948:A0 I *D sg13g2_mux2_1
*I *1225:X O *D sg13g2_buf_1
*CAP
1 *905:A1 0
2 *948:A0 0.000132421
3 *1225:X 0.000447811
4 *595:59 0.000235956
5 *595:51 0.000506721
6 *595:34 0.00081779
7 *595:22 0.00146362
8 *595:10 0.00149683
9 *948:A0 *610:57 4.77425e-05
10 *944:S *595:22 8.00842e-05
11 *1360:A *595:59 0
12 *135:42 *595:22 0.000175693
13 *146:28 *595:10 0.000284492
14 *161:10 *595:10 0.000124547
15 *161:10 *595:22 4.77425e-05
16 *162:12 *595:22 0
17 *313:18 *595:22 0.00030506
18 *373:14 *595:51 0.000497627
19 *373:14 *595:59 0.000283983
20 *386:12 *595:59 0.000490679
21 *418:40 *595:34 0.00022762
22 *423:24 *595:34 7.92265e-05
23 *439:14 *595:51 0.000501046
24 *478:10 *595:22 0
25 *510:32 *595:22 0.000175693
26 *544:81 *595:10 0.000279156
27 *557:24 *595:22 0.000175833
28 *564:75 *948:A0 0.000112426
29 *566:57 *595:22 8.00842e-05
30 *570:24 *595:34 0.000227849
31 *583:14 *595:10 0.000335225
*RES
1 *1225:X *595:10 44.5629 
2 *595:10 *595:22 30.094 
3 *595:22 *595:34 44.0273 
4 *595:34 *948:A0 21.1845 
5 *595:34 *595:51 43.9552 
6 *595:51 *595:59 42.8634 
7 *595:59 *905:A1 20 
*END

*D_NET *596 0.00881294
*CONN
*I *949:A0 I *D sg13g2_mux2_1
*I *904:A1 I *D sg13g2_mux4_1
*I *1226:X O *D sg13g2_buf_1
*CAP
1 *949:A0 2.90123e-05
2 *904:A1 0.000263313
3 *1226:X 0
4 *596:18 0.000792538
5 *596:14 0.00238479
6 *596:6 0.00188458
7 *904:A1 *601:24 0.00034079
8 *596:18 *601:24 0.000106064
9 *949:A1 *949:A0 1.54008e-05
10 *159:18 *904:A1 0.000240377
11 *193:17 *596:14 0
12 *283:20 *949:A0 4.77425e-05
13 *300:8 *904:A1 0.00012816
14 *321:18 *596:18 0
15 *386:38 *596:14 0
16 *406:44 *596:14 0
17 *407:24 *596:14 0
18 *479:30 *596:14 0
19 *483:48 *596:18 0
20 *538:36 *596:14 0
21 *555:64 *596:14 0.000875859
22 *558:45 *904:A1 0.00012816
23 *558:45 *596:18 0.000500329
24 *587:16 *596:18 0.00107582
*RES
1 *1226:X *596:6 40 
2 *596:6 *596:14 33.1503 
3 *596:14 *596:18 26.283 
4 *596:18 *904:A1 43.2033 
5 *596:18 *949:A0 40.3193 
*END

*D_NET *597 0.0147356
*CONN
*I *950:A0 I *D sg13g2_mux2_1
*I *903:A1 I *D sg13g2_mux4_1
*I *1227:X O *D sg13g2_buf_1
*CAP
1 *950:A0 0.000345823
2 *903:A1 5.03155e-05
3 *1227:X 2.66101e-05
4 *597:14 0.0025041
5 *597:8 0.00213457
6 *903:A1 *618:8 8.00842e-05
7 *950:A0 *618:8 8.0039e-05
8 *597:14 *602:14 0.00280709
9 *903:A0 *950:A0 8.00842e-05
10 *910:S *950:A0 0.000144768
11 *279:12 *597:14 0
12 *325:8 *597:14 0
13 *391:36 *597:14 0
14 *394:14 *950:A0 0.000176178
15 *396:27 *950:A0 0.000156024
16 *396:27 *597:14 0.000342386
17 *408:46 *597:14 0.00266693
18 *424:52 *597:14 0
19 *426:18 *950:A0 0.000177583
20 *426:18 *597:14 0.000392315
21 *435:8 *597:14 0.000337553
22 *550:155 *597:14 0.00135137
23 *553:44 *597:14 0.00038823
24 *585:10 *597:14 0.000493542
*RES
1 *1227:X *597:8 40.3193 
2 *597:8 *597:14 28.9533 
3 *597:14 *903:A1 40.5356 
4 *597:14 *950:A0 43.9964 
*END

*D_NET *598 0.0102767
*CONN
*I *951:A0 I *D sg13g2_mux2_1
*I *894:A1 I *D sg13g2_mux4_1
*I *1228:X O *D sg13g2_buf_1
*CAP
1 *951:A0 0
2 *894:A1 4.37077e-05
3 *1228:X 9.6144e-05
4 *598:29 0.000441872
5 *598:12 0.00173224
6 *598:8 0.00134281
7 *894:A1 *894:A2 8.00842e-05
8 *598:12 *894:A2 7.30101e-05
9 *598:29 *894:A2 0.000120838
10 *598:29 *927:A0 4.77425e-05
11 I_top9 *598:8 0.00014344
12 *927:S *598:29 0.0001122
13 *943:A1 *894:A1 8.00842e-05
14 *943:A1 *598:29 6.38242e-05
15 *951:A1 *598:29 0.000143351
16 *255:10 *598:8 0
17 *345:14 *598:12 0.00206394
18 *361:8 *598:12 0
19 *453:61 *598:12 0.00224412
20 *472:28 *598:12 0
21 *472:28 *598:29 0.000282464
22 *562:22 *598:12 0
23 *563:78 *598:12 0
24 *574:26 *598:29 0.00012526
25 *581:24 *598:29 0.000273049
26 *585:35 *598:12 0
27 *590:30 *598:12 0.000766481
*RES
1 *1228:X *598:8 40.9682 
2 *598:8 *598:12 37.1598 
3 *598:12 *894:A1 20.5356 
4 *598:12 *598:29 44.7895 
5 *598:29 *951:A0 20 
*END

*D_NET *599 0.0417286
*CONN
*I *1031:D I *D sg13g2_dlhq_1
*I *999:D I *D sg13g2_dlhq_1
*I *1063:A I *D sg13g2_buf_1
*I *967:D I *D sg13g2_dlhq_1
*I *1244:X O *D sg13g2_buf_2
*CAP
1 *1031:D 0
2 *999:D 0
3 *1063:A 0
4 *967:D 5.15686e-05
5 *1244:X 0.000284855
6 *599:105 0.00055311
7 *599:95 0.000797036
8 *599:80 0.00079082
9 *599:74 0.00130031
10 *599:66 0.00101788
11 *599:58 0.00130886
12 *599:52 0.00151854
13 *599:46 0.00166577
14 *599:40 0.0018799
15 *599:30 0.00174817
16 *599:26 0.00154749
17 *599:20 0.00140774
18 *599:10 0.00125656
19 *599:20 *610:14 0.00069564
20 *599:66 *618:44 0
21 *599:105 *620:22 0.000240377
22 *922:A1 *599:105 0
23 *931:S *599:58 0.000240377
24 *999:GATE *599:105 0.000529823
25 *1178:A *599:20 0
26 *1192:A *599:20 0
27 *1211:A *599:10 0
28 *1233:A *599:10 0.000332504
29 *2:17 *599:20 0
30 *19:17 *599:10 0.000241955
31 *66:67 *599:40 0.000438417
32 *252:24 *599:46 0.00301987
33 *308:8 *599:58 0.000809108
34 *308:22 *599:80 0
35 *316:10 *599:105 0
36 *344:28 *599:26 0
37 *357:8 *599:40 0.000599152
38 *360:8 *599:26 0.000601461
39 *376:14 *599:26 0.000388908
40 *386:74 *599:80 0.000125175
41 *386:74 *599:95 0.000922257
42 *386:74 *599:105 0.00129801
43 *393:16 *599:105 0.000181192
44 *394:24 *599:74 0.000207845
45 *394:24 *599:80 8.0039e-05
46 *402:30 *599:80 0
47 *405:22 *599:30 0.000721843
48 *408:42 *599:46 0.00119753
49 *409:34 *599:30 0.0010858
50 *413:26 *599:40 0.000172396
51 *413:26 *599:46 0
52 *414:14 *599:46 0.00066345
53 *418:52 *599:30 7.58217e-05
54 *419:18 *599:30 0
55 *424:38 *599:66 7.81669e-05
56 *433:20 *599:105 0
57 *435:24 *599:80 0.000446178
58 *435:24 *599:95 0.00090097
59 *437:10 *599:40 0.000178047
60 *468:28 *967:D 8.0039e-05
61 *472:28 *599:40 2.20966e-05
62 *497:16 *599:10 0.000241955
63 *499:22 *599:52 0
64 *501:18 *599:58 0
65 *502:22 *599:40 0
66 *505:24 *599:58 0.000337406
67 *509:20 *599:30 0.00307284
68 *509:28 *599:30 0.000770454
69 *513:46 *599:46 0.000362212
70 *517:42 *599:30 0
71 *539:48 *599:80 0.00012651
72 *541:46 *599:46 0
73 *542:47 *599:52 0
74 *552:141 *599:105 0.00018128
75 *556:131 *599:74 0
76 *556:131 *599:80 0
77 *560:85 *599:66 0.000334416
78 *560:85 *599:74 0
79 *560:98 *599:74 0
80 *560:115 *599:74 0
81 *561:35 *599:46 0.00014223
82 *561:46 *599:58 7.44237e-05
83 *561:63 *599:58 0
84 *562:14 *599:20 0
85 *562:14 *599:26 0
86 *562:22 *599:40 2.18755e-05
87 *562:65 *599:58 0.000760488
88 *565:14 *599:20 0.000695077
89 *574:12 *599:26 0
90 *576:34 *599:46 0
91 *577:8 *599:10 0
92 *580:38 *599:40 0
93 *584:18 *599:74 0
94 *588:18 *599:20 0
95 *588:18 *599:26 0.000904368
*RES
1 *1244:X *599:10 43.2033 
2 *599:10 *599:20 49.3318 
3 *599:20 *599:26 46.4684 
4 *599:26 *599:30 37.6542 
5 *599:30 *599:40 46.8289 
6 *599:40 *599:46 37.7263 
7 *599:46 *599:52 43.1312 
8 *599:52 *599:58 31.5463 
9 *599:58 *599:66 42.1218 
10 *599:66 *599:74 46.2006 
11 *599:74 *599:80 25.3354 
12 *599:80 *967:D 40.5356 
13 *599:80 *599:95 24.841 
14 *599:95 *599:105 48.6829 
15 *599:105 *1063:A 20 
16 *599:95 *999:D 20 
17 *599:74 *1031:D 20 
*END

*D_NET *600 0.0275195
*CONN
*I *893:A1 I *D sg13g2_mux4_1
*I *952:A0 I *D sg13g2_mux2_1
*I *1229:X O *D sg13g2_buf_1
*CAP
1 *893:A1 0.000774521
2 *952:A0 0.000296724
3 *1229:X 0
4 *600:36 0.00144121
5 *600:30 0.0011054
6 *600:26 0.00196422
7 *600:20 0.00212612
8 *600:12 0.00200661
9 *600:6 0.00110927
10 *952:A0 *615:45 0.000177891
11 *901:A3 *893:A1 4.77425e-05
12 *912:A0 *952:A0 0.000175693
13 *912:S *893:A1 0.000400556
14 *129:24 *893:A1 0.000272605
15 *132:36 *952:A0 0.000488508
16 *145:22 *600:26 0
17 *147:20 *600:30 0.0034424
18 *387:57 *952:A0 7.30101e-05
19 *387:57 *600:36 4.63914e-05
20 *400:24 *600:20 0
21 *405:82 *600:26 0
22 *405:98 *600:26 0
23 *410:50 *600:20 0
24 *428:64 *600:20 0.000428885
25 *437:40 *600:26 0.00103853
26 *463:20 *600:20 0.000599732
27 *471:32 *600:30 0.000396472
28 *476:40 *600:26 0.00362092
29 *483:32 *600:12 0
30 *492:28 *600:30 0.00392416
31 *500:44 *600:36 0.000109244
32 *533:16 *600:20 0
33 *534:10 *600:12 0
34 *541:52 *600:12 0
35 *546:124 *600:20 0.000598647
36 *567:62 *600:30 0
37 *567:62 *600:36 0.000454935
38 *575:61 *893:A1 0.000208035
39 *575:61 *952:A0 4.77425e-05
40 *575:83 *952:A0 0.000143351
41 *591:24 *600:12 0
*RES
1 *1229:X *600:6 40 
2 *600:6 *600:12 47.8898 
3 *600:12 *600:20 49.4142 
4 *600:20 *600:26 38.7151 
5 *600:26 *600:30 38.1486 
6 *600:30 *600:36 43.1312 
7 *600:36 *952:A0 43.5123 
8 *600:36 *893:A1 47.0246 
*END

*D_NET *601 0.00257978
*CONN
*I *953:A0 I *D sg13g2_mux2_1
*I *892:A1 I *D sg13g2_mux4_1
*I *1230:X O *D sg13g2_buf_1
*CAP
1 *953:A0 0
2 *892:A1 0.00027272
3 *1230:X 0.000625444
4 *601:24 0.000352724
5 *904:A1 *601:24 0.00034079
6 *949:S *601:24 4.77425e-05
7 *283:20 *601:24 0.000208035
8 *300:8 *601:24 0
9 *321:18 *601:24 0.000551443
10 *467:22 *601:24 0
11 *576:75 *601:24 7.48178e-05
12 *587:16 *601:24 0
13 *596:18 *601:24 0.000106064
*RES
1 *1230:X *892:A1 42.4926 
2 *1230:X *601:24 44.6865 
3 *601:24 *953:A0 40 
*END

*D_NET *602 0.0113863
*CONN
*I *954:A0 I *D sg13g2_mux2_1
*I *891:A1 I *D sg13g2_mux4_1
*I *1231:X O *D sg13g2_buf_1
*CAP
1 *954:A0 0
2 *891:A1 0.000447626
3 *1231:X 6.19814e-05
4 *602:33 0.000416873
5 *602:14 0.00194982
6 *602:8 0.0011473
7 *891:A1 *609:43 0.000143864
8 *602:14 *603:24 0.000337924
9 *1011:GATE *891:A1 0.00024014
10 *1011:GATE *602:14 0.000418022
11 *262:14 *602:14 0.000202645
12 *391:36 *602:14 0
13 *396:27 *602:14 0.00012816
14 *465:12 *891:A1 0.000240933
15 *505:18 *602:14 0.00112822
16 *517:14 *602:33 0
17 *571:61 *602:33 0.0007026
18 *573:30 *891:A1 0
19 *573:38 *602:14 0.000287256
20 *580:54 *602:8 7.92265e-05
21 *590:22 *602:14 0.000646602
22 *597:14 *602:14 0.00280709
*RES
1 *1231:X *602:8 40.5356 
2 *602:8 *602:14 36.8611 
3 *602:14 *891:A1 24.4496 
4 *602:14 *602:33 44.1303 
5 *602:33 *954:A0 20 
*END

*D_NET *603 0.0231005
*CONN
*I *906:A2 I *D sg13g2_mux4_1
*I *923:A0 I *D sg13g2_mux2_1
*I *1232:X O *D sg13g2_buf_1
*CAP
1 *906:A2 5.38298e-05
2 *923:A0 0.000602681
3 *1232:X 0.000157546
4 *603:52 0.00113556
5 *603:40 0.00101087
6 *603:36 0.00220322
7 *603:24 0.00238991
8 *603:16 0.00183509
9 *603:10 0.00138179
10 *603:10 *604:20 0.000232836
11 *603:16 *611:12 0
12 *603:36 *618:32 0
13 I_top7 *906:A2 4.77425e-05
14 I_top7 *603:52 0.000231998
15 *895:S0 *603:24 4.77425e-05
16 *902:S0 *923:A0 0.000359228
17 *902:A0 *923:A0 0
18 *907:A1 *923:A0 0
19 *907:S *923:A0 0
20 *923:A1 *923:A0 0.000176139
21 *939:A0 *603:36 0.000337402
22 *939:S *603:36 0.000143351
23 *1226:A *603:36 0.000466053
24 *24:77 *603:36 0
25 *66:45 *923:A0 0.000338453
26 *77:15 *603:16 0
27 *108:10 *603:24 0.000304757
28 *221:9 *603:10 0.000232924
29 *237:9 *603:10 0.000175913
30 *238:9 *603:10 0.00011123
31 *252:50 *603:36 0.0015496
32 *275:10 *603:24 0.000208035
33 *343:16 *923:A0 0
34 *343:16 *603:52 7.33256e-05
35 *394:18 *603:36 0
36 *407:38 *603:36 0.000437575
37 *419:26 *923:A0 0.00012816
38 *453:76 *603:36 0
39 *464:36 *603:40 0.000182519
40 *464:36 *603:52 0.00134602
41 *468:28 *603:24 0.00036944
42 *476:10 *603:36 0
43 *476:18 *603:16 0
44 *477:18 *603:40 0.00028632
45 *499:40 *923:A0 0.000392586
46 *505:18 *603:24 0.00033973
47 *538:49 *603:36 0.000602385
48 *538:72 *603:36 0.000946621
49 *546:149 *603:16 0
50 *547:74 *603:52 0.000208035
51 *549:43 *603:36 0.000230615
52 *549:82 *603:24 0
53 *551:33 *923:A0 0
54 *556:110 *603:52 0.000872614
55 *563:70 *923:A0 0.000143908
56 *567:95 *603:16 0
57 *579:34 *603:40 0.00034031
58 *585:18 *603:36 0.000128508
59 *602:14 *603:24 0.000337924
*RES
1 *1232:X *603:10 42.2763 
2 *603:10 *603:16 49.4039 
3 *603:16 *603:24 46.8804 
4 *603:24 *603:36 40.3528 
5 *603:36 *603:40 24.7998 
6 *603:40 *603:52 48.3533 
7 *603:52 *923:A0 47.0246 
8 *603:40 *906:A2 40.5356 
*END

*D_NET *604 0.012981
*CONN
*I *933:A0 I *D sg13g2_mux2_1
*I *896:A2 I *D sg13g2_mux4_1
*I *1234:X O *D sg13g2_buf_1
*CAP
1 *933:A0 0.000188612
2 *896:A2 0.000529964
3 *1234:X 0.000146703
4 *604:20 0.00265737
5 *604:10 0.0020855
6 *896:A2 *612:24 0
7 *604:20 *612:24 0
8 FrameStrobe_O[2] *604:10 7.94462e-05
9 FrameStrobe_O[4] *604:10 0
10 *1019:GATE *604:20 2.20966e-05
11 *1263:A *604:10 0
12 *77:35 *604:20 0
13 *97:14 *604:20 0.000179878
14 *98:10 *604:20 0
15 *200:13 *604:20 0.00216978
16 *205:13 *896:A2 0.000287935
17 *207:13 *933:A0 0.000272692
18 *208:9 *933:A0 0
19 *214:23 *604:20 0
20 *215:13 *604:20 0
21 *219:11 *604:20 0
22 *221:9 *604:20 0
23 *227:9 *604:20 0
24 *238:9 *604:20 0.00133463
25 *260:8 *896:A2 0.000549067
26 *365:10 *604:20 0
27 *381:8 *604:20 0
28 *420:64 *604:20 7.33256e-05
29 *542:47 *896:A2 0.00028477
30 *556:169 *896:A2 0.00065444
31 *556:169 *604:20 0.000891278
32 *593:10 *604:20 0.000340704
33 *603:10 *604:20 0.000232836
*RES
1 *1234:X *604:10 41.3184 
2 *604:10 *604:20 23.9063 
3 *604:20 *896:A2 46.9937 
4 *604:20 *933:A0 41.8334 
*END

*D_NET *605 0.00539232
*CONN
*I *934:A0 I *D sg13g2_mux2_1
*I *895:A2 I *D sg13g2_mux4_1
*I *1235:X O *D sg13g2_buf_1
*CAP
1 *934:A0 0
2 *895:A2 0
3 *1235:X 0.000273166
4 *605:28 0.000941551
5 *605:18 0.000941551
6 *605:16 0.000273166
7 *605:28 *618:8 0
8 *1011:GATE *605:28 0
9 *212:25 *605:16 0.000383646
10 *224:9 *605:16 0.000383646
11 *225:13 *605:16 0.00014046
12 *275:10 *605:28 0.000126354
13 *282:44 *605:28 0.000337302
14 *364:10 *605:16 0.000177843
15 *380:10 *605:28 0.000144542
16 *389:55 *605:28 0.000980492
17 *396:27 *605:28 0.0001122
18 *417:14 *605:16 4.77425e-05
19 *436:10 *605:28 0
20 *436:16 *605:28 0.000128663
21 *530:10 *605:28 0
*RES
1 *1235:X *605:16 43.914 
2 *605:16 *605:18 20 
3 *605:18 *605:28 49.8262 
4 *605:28 *895:A2 20 
5 *605:18 *934:A0 20 
*END

*D_NET *606 0.0220202
*CONN
*I *894:A2 I *D sg13g2_mux4_1
*I *935:A0 I *D sg13g2_mux2_1
*I *1236:X O *D sg13g2_buf_1
*CAP
1 *894:A2 0.000188518
2 *935:A0 0.000493152
3 *1236:X 0.000656377
4 *606:28 0.00110448
5 *606:20 0.00079985
6 *606:18 0.0020673
7 *606:14 0.0020673
8 *606:10 0.000656377
9 *606:18 *611:26 0.00152132
10 *606:18 *611:34 0
11 *606:18 *614:14 0
12 *894:A1 *894:A2 8.00842e-05
13 *965:GATE *606:28 0.000272718
14 *1164:A *606:10 0.000239996
15 *115:24 *606:18 0.000289526
16 *119:22 *606:18 0.00274862
17 *285:8 *935:A0 0.000542491
18 *324:14 *606:10 0.000493786
19 *345:14 *894:A2 5.27212e-05
20 *345:14 *606:28 0.00101497
21 *424:32 *935:A0 0.00163974
22 *434:16 *606:18 0.0029265
23 *435:14 *606:10 0
24 *438:12 *606:18 0
25 *463:20 *606:10 0
26 *499:56 *935:A0 0.00101573
27 *517:30 *606:18 0
28 *543:32 *606:18 0
29 *552:105 *606:10 0.000493371
30 *563:34 *606:28 0.000112426
31 *568:26 *935:A0 7.98567e-05
32 *568:46 *935:A0 3.73469e-05
33 *574:14 *606:28 0
34 *574:26 *606:28 0.00023176
35 *598:12 *894:A2 7.30101e-05
36 *598:29 *894:A2 0.000120838
*RES
1 *1236:X *606:10 47.1894 
2 *606:10 *606:14 40 
3 *606:14 *606:18 49.767 
4 *606:18 *606:20 20 
5 *606:20 *606:28 46.6332 
6 *606:28 *935:A0 48.4486 
7 *606:20 *894:A2 42.0188 
*END

*D_NET *607 0.0236859
*CONN
*I *893:A2 I *D sg13g2_mux4_1
*I *936:A0 I *D sg13g2_mux2_1
*I *1237:X O *D sg13g2_buf_1
*CAP
1 *893:A2 0
2 *936:A0 0
3 *1237:X 0.000211373
4 *607:51 8.61375e-05
5 *607:40 0.000337847
6 *607:26 0.0011494
7 *607:22 0.00415447
8 *607:18 0.00416944
9 *607:12 0.000951753
10 *607:18 *614:10 0
11 *607:18 *616:14 0
12 *607:18 *617:14 0
13 FrameStrobe_O[0] *607:12 4.75166e-05
14 *1249:A *607:12 0.000175693
15 *107:38 *607:40 0.000172097
16 *107:38 *607:51 9.55383e-05
17 *230:23 *607:12 8.01545e-05
18 *252:18 *607:26 0
19 *252:24 *607:22 0
20 *252:24 *607:26 0.00129536
21 *290:24 *607:40 0.000124547
22 *378:8 *607:40 7.31628e-05
23 *391:12 *607:18 0
24 *399:12 *607:18 0
25 *408:58 *607:22 0
26 *413:42 *607:22 0.000720612
27 *413:46 *607:22 0.00319197
28 *415:52 *607:18 0
29 *419:48 *607:18 0
30 *473:12 *607:51 0
31 *479:18 *607:22 0
32 *493:24 *607:26 0.00200111
33 *501:24 *607:26 0.00344918
34 *523:12 *607:18 0.000366384
35 *541:52 *607:22 0
36 *547:170 *607:40 4.76973e-05
37 *586:24 *607:22 0.000784436
38 *586:24 *607:26 0
*RES
1 *1237:X *607:12 42.0703 
2 *607:12 *607:18 45.9181 
3 *607:18 *607:22 37.4611 
4 *607:22 *607:26 36.4594 
5 *607:26 *607:40 43.0179 
6 *607:40 *936:A0 20 
7 *607:26 *607:51 40.7519 
8 *607:51 *893:A2 20 
*END

*D_NET *608 0.0159644
*CONN
*I *937:A0 I *D sg13g2_mux2_1
*I *892:A2 I *D sg13g2_mux4_1
*I *1238:X O *D sg13g2_buf_1
*CAP
1 *937:A0 0
2 *892:A2 0.000248111
3 *1238:X 0.000556356
4 *608:30 0.00033266
5 *608:26 0.00212059
6 *608:20 0.00256473
7 *608:14 0.00108504
8 *892:A2 *616:22 0.000970438
9 *608:14 *620:14 0
10 *608:20 *609:18 0
11 *608:26 *611:18 0
12 *608:26 *616:22 0.00458555
13 *608:30 *616:22 0.000368237
14 FrameStrobe_O[4] *608:14 0.000223771
15 FrameStrobe_O[5] *608:14 1.54556e-05
16 FrameStrobe_O[6] *608:14 4.77425e-05
17 *1256:A *608:14 0.000112541
18 *1260:A *608:14 0.00020815
19 *1263:A *608:20 1.54556e-05
20 *24:53 *892:A2 0.000547365
21 *86:8 *608:14 0
22 *206:13 *608:26 0
23 *231:13 *608:14 0
24 *252:32 *608:26 0
25 *391:28 *608:26 0.000388943
26 *396:8 *608:20 0
27 *401:14 *608:14 7.93692e-05
28 *415:40 *892:A2 0.000284398
29 *415:40 *608:30 0.000389711
30 *417:16 *608:26 0
31 *419:48 *608:26 0.000176399
32 *429:30 *608:14 0
33 *429:30 *608:20 0
34 *437:64 *608:26 0
35 *520:85 *608:26 4.77425e-05
36 *549:59 *608:26 0.000595689
*RES
1 *1238:X *608:14 45.6032 
2 *608:14 *608:20 44.2127 
3 *608:20 *608:26 44.1226 
4 *608:26 *608:30 21.8334 
5 *608:30 *892:A2 44.5526 
6 *608:30 *937:A0 40 
*END

*D_NET *609 0.00939995
*CONN
*I *891:A2 I *D sg13g2_mux4_1
*I *938:A0 I *D sg13g2_mux2_1
*I *1239:X O *D sg13g2_buf_1
*CAP
1 *891:A2 0
2 *938:A0 0.000564243
3 *1239:X 0.00144824
4 *609:43 0.000180859
5 *609:26 0.00113565
6 *609:18 0.00183879
7 *609:18 *617:22 0.00101396
8 FrameStrobe_O[0] *609:18 4.77347e-05
9 *891:A1 *609:43 0.000143864
10 *899:A3 *609:26 0
11 *899:A3 *609:43 0
12 *914:A1 *609:18 0.000143351
13 *1111:A *609:18 0
14 *1263:A *609:18 0.000240634
15 *120:14 *938:A0 0
16 *241:35 *609:18 0
17 *252:50 *609:43 0.000179615
18 *308:22 *938:A0 0.000562518
19 *308:22 *609:26 0.000176139
20 *393:33 *938:A0 4.76973e-05
21 *394:18 *609:26 0.000442445
22 *422:34 *609:26 0.00065636
23 *429:30 *609:18 8.00394e-05
24 *430:10 *609:43 0.000338557
25 *439:62 *609:18 0
26 *465:12 *609:43 0.000143864
27 *552:149 *938:A0 0
28 *571:61 *609:18 1.54008e-05
29 *578:47 *609:26 0
30 *608:20 *609:18 0
*RES
1 *1239:X *609:18 34.008 
2 *609:18 *609:26 45.1809 
3 *609:26 *938:A0 25.4281 
4 *609:26 *609:43 42.5544 
5 *609:43 *891:A2 20 
*END

*D_NET *610 0.0285843
*CONN
*I *968:D I *D sg13g2_dlhq_1
*I *1032:D I *D sg13g2_dlhq_1
*I *1000:D I *D sg13g2_dlhq_1
*I *1064:A I *D sg13g2_buf_1
*I *1255:X O *D sg13g2_buf_1
*CAP
1 *968:D 0
2 *1032:D 0.000691667
3 *1000:D 0
4 *1064:A 0
5 *1255:X 0.00031173
6 *610:65 0.00115681
7 *610:61 0.000666881
8 *610:57 0.00137126
9 *610:42 0.00124245
10 *610:38 0.000635282
11 *610:30 0.0010887
12 *610:22 0.00198551
13 *610:14 0.00245607
14 *610:10 0.00130863
15 *911:S *610:57 0
16 *929:S *610:61 0.000240377
17 *948:A0 *610:57 4.77425e-05
18 *984:GATE *1032:D 0
19 *1167:A *610:10 0.000279469
20 *1169:A *610:10 0
21 *1171:A *610:10 0
22 *1188:A *610:22 0
23 *1190:A *610:22 0
24 *2:9 *610:14 0.000533702
25 *19:17 *610:10 0
26 *20:11 *610:14 0
27 *176:21 *610:22 0
28 *189:19 *610:22 0.00103123
29 *284:8 *610:22 0.000545488
30 *298:12 *610:38 0
31 *309:8 *610:57 0
32 *319:12 *610:57 0.000596572
33 *337:28 *610:30 0.00170676
34 *357:14 *610:38 0
35 *385:18 *610:61 0.000112236
36 *386:12 *610:57 0.00185116
37 *410:26 *610:30 0.00171014
38 *423:24 *610:42 0.0001122
39 *423:24 *610:57 0.000342636
40 *439:14 *610:57 0
41 *461:44 *610:22 0
42 *497:16 *610:10 7.51285e-05
43 *508:12 *610:22 0.000232722
44 *541:36 *1032:D 0
45 *541:36 *610:65 0
46 *545:56 *1032:D 0
47 *545:56 *610:65 0
48 *548:29 *610:65 0.000707875
49 *550:10 *610:22 0.000387763
50 *550:21 *610:30 4.77425e-05
51 *550:100 *610:57 0.000491567
52 *552:73 *1032:D 0
53 *557:48 *610:61 0
54 *561:46 *610:57 0.00107174
55 *562:22 *610:38 0.000496832
56 *563:26 *610:57 0.000332607
57 *565:14 *610:14 0
58 *567:14 *610:22 0
59 *569:10 *610:22 7.50939e-05
60 *574:14 *610:38 0.000499001
61 *575:10 *610:22 0.000550116
62 *577:20 *610:22 0.000319625
63 *577:32 *610:22 0.000335758
64 *582:16 *1032:D 0
65 *588:50 *610:22 0
66 *588:85 *610:38 0.000240377
67 *594:48 *1032:D 0
68 *599:20 *610:14 0.00069564
*RES
1 *1255:X *610:10 43.1415 
2 *610:10 *610:14 30.2691 
3 *610:14 *610:22 36.2843 
4 *610:22 *610:30 49.1979 
5 *610:30 *610:38 46.3242 
6 *610:38 *610:42 20.7519 
7 *610:42 *1064:A 20 
8 *610:42 *610:57 36.171 
9 *610:57 *610:61 22.0497 
10 *610:61 *610:65 24.5526 
11 *610:65 *1000:D 40 
12 *610:65 *1032:D 45.5826 
13 *610:61 *968:D 20 
*END

*D_NET *611 0.033143
*CONN
*I *905:A2 I *D sg13g2_mux4_1
*I *924:A0 I *D sg13g2_mux2_1
*I *1240:X O *D sg13g2_buf_1
*CAP
1 *905:A2 0.000146426
2 *924:A0 0.000514411
3 *1240:X 0
4 *611:50 0.00113664
5 *611:48 0.000978597
6 *611:38 0.00114141
7 *611:34 0.00127631
8 *611:26 0.00127911
9 *611:18 0.00329967
10 *611:12 0.00372148
11 *611:6 0.00106322
12 *24:67 *611:18 0
13 *77:15 *611:12 0
14 *252:32 *611:18 0.000491529
15 *266:8 *611:50 0.000287107
16 *322:10 *924:A0 0.000546093
17 *322:10 *611:50 0.0013817
18 *380:18 *611:12 0
19 *391:28 *611:18 0.000389767
20 *392:16 *611:18 0
21 *405:36 *924:A0 0.000970509
22 *405:36 *611:50 0.00052163
23 *405:118 *611:18 0.000603478
24 *410:56 *611:18 0.000462226
25 *420:64 *611:12 0
26 *424:16 *924:A0 0.000112198
27 *424:38 *611:18 0
28 *433:16 *611:12 0
29 *434:16 *611:34 0.000838103
30 *437:64 *611:18 0
31 *438:12 *611:26 0
32 *461:16 *611:48 0.000109244
33 *462:10 *924:A0 0.000912937
34 *482:14 *924:A0 4.75151e-05
35 *484:14 *611:34 0.000143113
36 *496:12 *611:12 0
37 *517:30 *611:34 0.00097817
38 *517:30 *611:38 0.000668161
39 *527:22 *611:38 0.00254
40 *534:10 *611:18 0
41 *540:33 *924:A0 0.00059207
42 *543:32 *611:38 0.00264563
43 *543:40 *611:38 0.000775013
44 *543:46 *611:34 0.00014193
45 *543:52 *611:18 0
46 *547:112 *611:48 0
47 *549:59 *611:18 7.35515e-05
48 *559:57 *611:50 0.00012559
49 *559:69 *611:50 0
50 *559:75 *924:A0 0
51 *563:26 *611:48 0.00030528
52 *564:26 *924:A0 1.54008e-05
53 *567:95 *611:12 0
54 *580:38 *611:50 0.000386529
55 *603:16 *611:12 0
56 *606:18 *611:26 0.00152132
57 *606:18 *611:34 0
58 *608:26 *611:18 0
*RES
1 *1240:X *611:6 40 
2 *611:6 *611:12 47.2701 
3 *611:12 *611:18 41.527 
4 *611:18 *611:26 47.7765 
5 *611:26 *611:34 48.24 
6 *611:34 *611:38 35.6766 
7 *611:38 *611:48 44.017 
8 *611:48 *611:50 7.519 
9 *611:50 *924:A0 48.5181 
10 *611:50 *905:A2 41.1845 
*END

*D_NET *612 0.0162504
*CONN
*I *925:A0 I *D sg13g2_mux2_1
*I *904:A2 I *D sg13g2_mux4_1
*I *1241:X O *D sg13g2_buf_1
*CAP
1 *925:A0 0
2 *904:A2 0.000359487
3 *1241:X 0.000495527
4 *612:24 0.000978319
5 *612:20 0.0025093
6 *612:14 0.002386
7 *896:A2 *612:24 0
8 *909:A0 *904:A2 0.000149048
9 *971:GATE *612:20 0.000319746
10 *1004:GATE *612:20 0.000144203
11 *1067:A *612:14 4.77425e-05
12 *1115:A *612:14 0
13 *159:18 *904:A2 0.000112426
14 *190:9 *904:A2 0.000496663
15 *190:9 *612:24 0.000659949
16 *193:11 *612:24 0
17 *202:13 *904:A2 0.000495512
18 *202:13 *612:24 0.00111847
19 *203:9 *612:24 0
20 *208:9 *612:20 0.000755837
21 *209:13 *612:20 1.54008e-05
22 *224:9 *612:20 0
23 *227:9 *612:14 0.000240596
24 *233:29 *612:20 0
25 *241:21 *612:14 0.000334923
26 *321:18 *904:A2 0.000112198
27 *403:29 *612:20 0.00101872
28 *420:38 *612:20 0
29 *433:12 *612:14 0.00011219
30 *433:12 *612:20 7.52158e-05
31 *467:30 *612:20 0.000231339
32 *546:126 *612:20 0.00156023
33 *565:58 *612:24 0.000127853
34 *567:95 *612:20 0
35 *589:14 *612:20 0
36 *591:24 *612:20 0.00139354
37 *604:20 *612:24 0
*RES
1 *1241:X *612:14 44.8884 
2 *612:14 *612:20 42.2377 
3 *612:20 *612:24 28.2606 
4 *612:24 *904:A2 44.8307 
5 *612:24 *925:A0 40 
*END

*D_NET *613 0.00416489
*CONN
*I *926:A0 I *D sg13g2_mux2_1
*I *903:A2 I *D sg13g2_mux4_1
*I *1242:X O *D sg13g2_buf_1
*CAP
1 *926:A0 0.000319989
2 *903:A2 9.81946e-05
3 *1242:X 0.000353286
4 *613:14 0.0012178
5 *613:8 0.0011529
6 *613:14 *614:10 0
7 *1080:A *613:8 8.0039e-05
8 *212:25 *613:14 0
9 *228:9 *613:8 0
10 *230:15 *613:8 0.000111828
11 *274:10 *903:A2 0.000281125
12 *274:10 *926:A0 5.29839e-05
13 *299:10 *903:A2 0.000179104
14 *392:16 *926:A0 0
15 *417:14 *613:8 1.54008e-05
16 *426:18 *926:A0 0
17 *433:16 *613:14 0
18 *513:18 *613:14 0.00030223
*RES
1 *1242:X *613:8 43.1312 
2 *613:8 *613:14 46.1594 
3 *613:14 *903:A2 41.339 
4 *613:14 *926:A0 42.3999 
*END

*D_NET *614 0.0172997
*CONN
*I *902:A2 I *D sg13g2_mux4_1
*I *927:A0 I *D sg13g2_mux2_1
*I *1243:X O *D sg13g2_buf_1
*CAP
1 *902:A2 0.000260531
2 *927:A0 0.000465898
3 *1243:X 0
4 *614:18 0.000726429
5 *614:14 0.00374894
6 *614:12 0.00374894
7 *614:10 0.0018833
8 *614:6 0.0018833
9 *614:10 *616:14 0
10 *66:67 *927:A0 0.000860596
11 *118:24 *614:14 0
12 *214:23 *614:10 7.78179e-05
13 *234:21 *614:10 0
14 *285:26 *927:A0 0.000444304
15 *389:24 *614:10 0
16 *397:18 *614:14 0
17 *399:12 *614:10 0
18 *405:122 *614:14 0
19 *414:44 *614:10 0.000361915
20 *418:60 *927:A0 7.48178e-05
21 *419:48 *614:10 0
22 *424:44 *614:14 0
23 *429:16 *614:14 0
24 *432:50 *614:14 0
25 *438:12 *614:14 0
26 *439:22 *614:14 0.000823969
27 *513:18 *614:10 0
28 *515:20 *614:14 0
29 *523:12 *614:10 0
30 *542:22 *614:14 0
31 *545:50 *902:A2 0.00017677
32 *547:74 *902:A2 0
33 *560:53 *927:A0 0
34 *574:37 *927:A0 1.54008e-05
35 *574:44 *927:A0 4.77425e-05
36 *580:38 *927:A0 0.0016513
37 *598:29 *927:A0 4.77425e-05
38 *606:18 *614:14 0
39 *607:18 *614:10 0
40 *613:14 *614:10 0
*RES
1 *1243:X *614:6 40 
2 *614:6 *614:10 34.8114 
3 *614:10 *614:12 20 
4 *614:12 *614:14 33.475 
5 *614:14 *614:18 40 
6 *614:18 *927:A0 48.0855 
7 *614:18 *902:A2 42.266 
*END

*D_NET *615 0.0193976
*CONN
*I *928:A0 I *D sg13g2_mux2_1
*I *901:A2 I *D sg13g2_mux4_1
*I *1245:X O *D sg13g2_buf_1
*CAP
1 *928:A0 0
2 *901:A2 0
3 *1245:X 5.35964e-05
4 *615:45 0.000378007
5 *615:32 0.000350851
6 *615:24 0.000728858
7 *615:22 0.00364123
8 *615:20 0.00473894
9 *615:16 0.00109771
10 *615:12 5.35964e-05
11 *928:A1 *615:45 4.77425e-05
12 *952:A0 *615:45 0.000177891
13 *1080:A *615:12 0
14 *132:36 *615:45 0
15 *144:26 *615:22 0.00103758
16 *165:16 *615:32 0.000360656
17 *168:22 *615:22 0.00290838
18 *169:24 *615:22 0
19 *171:12 *615:45 0.0010223
20 *171:20 *615:22 0.000289637
21 *214:15 *615:20 0
22 *216:19 *615:20 0
23 *239:21 *615:12 2.25194e-05
24 *387:34 *615:45 0.000336767
25 *400:24 *615:20 0
26 *400:24 *615:22 0
27 *417:14 *615:12 4.75166e-05
28 *476:28 *615:20 0
29 *488:66 *615:22 0
30 *500:28 *615:22 0.00151922
31 *502:46 *615:32 0.000143908
32 *502:46 *615:45 0
33 *514:40 *615:32 0.000360656
34 *532:22 *615:22 0
35 *534:14 *615:22 0
36 *535:54 *615:45 8.00842e-05
37 *565:42 *615:22 0
*RES
1 *1245:X *615:12 40.5304 
2 *615:12 *615:16 40 
3 *615:16 *615:20 11.2579 
4 *615:20 *615:22 41.6738 
5 *615:22 *615:24 20 
6 *615:24 *615:32 43.4505 
7 *615:32 *901:A2 20 
8 *615:24 *615:45 45.3354 
9 *615:45 *928:A0 20 
*END

*D_NET *616 0.0179294
*CONN
*I *900:A2 I *D sg13g2_mux4_1
*I *929:A0 I *D sg13g2_mux2_1
*I *1246:X O *D sg13g2_buf_1
*CAP
1 *900:A2 0
2 *929:A0 0
3 *1246:X 0
4 *616:36 0.000335278
5 *616:22 0.00299566
6 *616:20 0.00301834
7 *616:14 0.00090898
8 *616:6 0.000551031
9 *616:14 *617:14 0
10 *616:20 *617:22 0
11 *616:20 *619:12 0
12 *892:A2 *616:22 0.000970438
13 *1012:GATE *616:36 0.000175693
14 *24:53 *616:22 0
15 *121:30 *616:36 0.000285536
16 *162:40 *616:22 0.000444337
17 *205:21 *616:22 0
18 *230:23 *616:20 0
19 *234:21 *616:14 7.30101e-05
20 *241:35 *616:14 7.48178e-05
21 *250:10 *616:22 0.00031498
22 *250:10 *616:36 0.000181231
23 *252:32 *616:22 0
24 *267:12 *616:22 0
25 *310:12 *616:36 0.000287256
26 *320:10 *616:22 0.000599004
27 *400:44 *616:36 0.00012816
28 *403:8 *616:20 7.93734e-05
29 *403:14 *616:22 0
30 *415:40 *616:22 0
31 *415:40 *616:36 0
32 *417:16 *616:22 0
33 *513:14 *616:20 0
34 *513:14 *616:22 0.000177127
35 *533:10 *616:22 0.00111858
36 *547:74 *616:36 0.00025674
37 *590:16 *616:22 0
38 *607:18 *616:14 0
39 *608:26 *616:22 0.00458555
40 *608:30 *616:22 0.000368237
41 *614:10 *616:14 0
*RES
1 *1246:X *616:6 40 
2 *616:6 *616:14 42.6496 
3 *616:14 *616:20 43.1312 
4 *616:20 *616:22 33.475 
5 *616:22 *616:36 44.6865 
6 *616:36 *929:A0 40 
7 *616:22 *900:A2 40 
*END

*D_NET *617 0.00762768
*CONN
*I *930:A0 I *D sg13g2_mux2_1
*I *899:A2 I *D sg13g2_mux4_1
*I *1247:X O *D sg13g2_buf_1
*CAP
1 *930:A0 0
2 *899:A2 0
3 *1247:X 4.31488e-05
4 *617:38 0.000337668
5 *617:30 0.000629558
6 *617:22 0.00104439
7 *617:14 0.00137383
8 *617:8 0.000664478
9 FrameStrobe_O[0] *617:8 8.00444e-05
10 FrameStrobe_O[1] *617:8 8.00444e-05
11 *899:A3 *617:38 0.000706293
12 *903:A0 *617:30 0.000177109
13 *930:A1 *617:30 0.000111567
14 *946:A0 *617:22 0.00011101
15 *334:10 *617:30 7.92265e-05
16 *394:14 *617:22 0
17 *394:18 *617:38 0
18 *397:14 *617:14 0
19 *403:8 *617:22 0
20 *414:52 *617:22 0.000445795
21 *571:61 *617:22 0.000445052
22 *573:67 *617:22 0.000208963
23 *589:20 *617:38 7.55443e-05
24 *607:18 *617:14 0
25 *609:18 *617:22 0.00101396
26 *616:14 *617:14 0
27 *616:20 *617:22 0
*RES
1 *1247:X *617:8 40.5356 
2 *617:8 *617:14 42.8918 
3 *617:14 *617:22 49.1052 
4 *617:22 *617:30 22.9355 
5 *617:30 *617:38 43.6359 
6 *617:38 *899:A2 20 
7 *617:30 *930:A0 20 
*END

*D_NET *618 0.0161246
*CONN
*I *931:A0 I *D sg13g2_mux2_1
*I *898:A2 I *D sg13g2_mux4_1
*I *1248:X O *D sg13g2_buf_1
*CAP
1 *931:A0 0
2 *898:A2 0.000133898
3 *1248:X 0.00123445
4 *618:44 0.000810738
5 *618:36 0.000758212
6 *618:32 0.00071357
7 *618:16 0.00159358
8 *618:8 0.00219583
9 *898:A1 *898:A2 0.000208035
10 *899:A0 *618:8 0.00011101
11 *903:A1 *618:8 8.00842e-05
12 *910:S *618:8 0.000337402
13 *931:A1 *618:44 4.77425e-05
14 *950:A0 *618:8 8.0039e-05
15 *1011:GATE *618:8 0
16 *1038:GATE *618:32 0.00030506
17 *1139:A *618:8 4.77425e-05
18 *241:21 *618:8 0
19 *253:48 *618:16 0.00102308
20 *299:10 *618:8 0
21 *394:18 *618:16 0.00154718
22 *407:32 *618:44 0.000919537
23 *417:14 *618:8 0
24 *418:60 *618:16 0.000124547
25 *424:38 *618:44 0.00193504
26 *428:84 *618:32 0.000126851
27 *433:12 *618:8 0
28 *453:76 *618:32 0.000126325
29 *464:44 *898:A2 0.000112198
30 *464:78 *618:32 0.000306245
31 *464:86 *618:16 0
32 *530:10 *618:8 4.74714e-05
33 *545:71 *618:16 0
34 *549:33 *618:32 0
35 *549:43 *618:32 2.21356e-05
36 *552:101 *618:32 0.000272746
37 *552:105 *618:32 7.31628e-05
38 *552:149 *618:16 0.000180882
39 *560:85 *618:32 0
40 *560:85 *618:44 0
41 *578:32 *618:16 0.000228175
42 *578:47 *618:16 0.000421598
43 *585:35 *618:44 0
44 *599:66 *618:44 0
45 *603:36 *618:32 0
46 *605:28 *618:8 0
*RES
1 *1248:X *618:8 30.8356 
2 *618:8 *618:16 32.3909 
3 *618:16 *618:32 46.7053 
4 *618:32 *618:36 20.7519 
5 *618:36 *618:44 49.5378 
6 *618:44 *898:A2 21.4008 
7 *618:36 *931:A0 20 
*END

*D_NET *619 0.0201051
*CONN
*I *932:A0 I *D sg13g2_mux2_1
*I *897:A2 I *D sg13g2_mux4_1
*I *1249:X O *D sg13g2_buf_1
*CAP
1 *932:A0 0
2 *897:A2 0
3 *1249:X 0.000667957
4 *619:28 5.74454e-05
5 *619:22 0.00312744
6 *619:20 0.00328128
7 *619:14 0.0010929
8 *619:12 0.00154957
9 *1011:D *619:14 0.000654936
10 *77:15 *619:14 0
11 *157:18 *619:22 0
12 *231:13 *619:12 0.000143351
13 *237:9 *619:12 0
14 *237:9 *619:14 0.000805281
15 *403:14 *619:12 0
16 *403:14 *619:14 0
17 *405:110 *619:20 0
18 *408:28 *619:28 7.93742e-05
19 *468:16 *619:22 0.00248447
20 *488:66 *619:28 0
21 *492:16 *619:20 0
22 *496:22 *619:22 0
23 *509:59 *619:14 0.000335647
24 *509:70 *619:14 0.000335562
25 *510:24 *619:22 0.00296273
26 *513:14 *619:12 0
27 *515:36 *619:22 0.000129113
28 *523:18 *619:22 0
29 *530:10 *619:14 0
30 *530:20 *619:22 0
31 *530:48 *619:22 0
32 *556:153 *619:14 0.00107279
33 *567:74 *619:22 0
34 *567:80 *619:14 7.33256e-05
35 *589:14 *619:14 0
36 *594:34 *619:22 0.00125191
37 *616:20 *619:12 0
*RES
1 *1249:X *619:12 45.4693 
2 *619:12 *619:14 11.6905 
3 *619:14 *619:20 41.4008 
4 *619:20 *619:22 35.947 
5 *619:22 *619:28 40.5356 
6 *619:28 *897:A2 40 
7 *619:14 *932:A0 40 
*END

*D_NET *620 0.023843
*CONN
*I *906:A3 I *D sg13g2_mux4_1
*I *907:A0 I *D sg13g2_mux2_1
*I *1250:X O *D sg13g2_buf_1
*CAP
1 *906:A3 0
2 *907:A0 0
3 *1250:X 0.00190113
4 *620:50 0.000567913
5 *620:44 0.000712938
6 *620:40 0.00211814
7 *620:28 0.00265717
8 *620:22 0.00117178
9 *620:14 0.00238885
10 FrameStrobe_O[4] *620:14 0
11 FrameStrobe_O[6] *620:14 0.000175693
12 I_top14 *620:40 0
13 I_top15 *620:40 0.00066022
14 I_top7 *620:44 0
15 I_top8 *620:40 0
16 *898:A3 *620:40 0
17 *922:A1 *620:22 4.77425e-05
18 *983:D *620:40 8.00842e-05
19 *1089:A *620:14 0
20 *1099:A *620:14 0.000176205
21 *1256:A *620:14 4.77699e-05
22 *1264:A *620:14 0.000144542
23 *1312:A *620:14 8.00842e-05
24 *1325:A *620:22 0
25 *78:9 *620:40 0.000985512
26 *97:14 *620:14 0
27 *110:10 *620:40 0.000575901
28 *117:8 *620:50 0
29 *263:26 *620:50 0.000288173
30 *282:24 *620:28 0
31 *308:22 *620:28 0
32 *353:10 *620:40 0.00114084
33 *386:74 *620:40 4.77425e-05
34 *390:18 *620:28 0.000768411
35 *390:44 *620:40 0
36 *390:46 *620:50 0.000552607
37 *392:10 *620:14 0
38 *393:10 *620:14 0
39 *393:16 *620:22 0
40 *393:33 *620:22 0
41 *394:30 *620:40 0
42 *401:14 *620:14 7.92265e-05
43 *401:22 *620:14 0.000756595
44 *411:52 *620:44 0.00020852
45 *414:52 *620:14 0
46 *419:58 *620:14 0.000630033
47 *433:20 *620:22 0.000552215
48 *439:62 *620:14 0.00045893
49 *439:62 *620:28 0
50 *452:8 *620:22 0
51 *477:18 *620:28 0.00214752
52 *556:110 *620:50 0
53 *579:28 *620:50 0.00113936
54 *584:10 *620:40 0
55 *594:56 *620:50 0.000340789
56 *599:105 *620:22 0.000240377
57 *608:14 *620:14 0
*RES
1 *1250:X *620:14 38.9623 
2 *620:14 *620:22 45.0573 
3 *620:22 *620:28 49.991 
4 *620:28 *620:40 42.9793 
5 *620:40 *620:44 21.4008 
6 *620:44 *620:50 48.0134 
7 *620:50 *907:A0 20 
8 *620:44 *906:A3 20 
*END
