*SPEF "ieee 1481-1999"
*DESIGN "S_CPU_IRQ"
*DATE "20:49:58 Monday August 25, 2025"
*VENDOR "The OpenROAD Project"
*PROGRAM "OpenROAD"
*VERSION "341650e72dad0dc8571822ff8c5d9c5e365327f7"
*DESIGN_FLOW "NAME_SCOPE LOCAL" "PIN_CAP NONE"
*DIVIDER /
*DELIMITER :
*BUS_DELIMITER []
*T_UNIT 1 NS
*C_UNIT 1 PF
*R_UNIT 1 OHM
*L_UNIT 1 HENRY

*NAME_MAP
*1 CONFIGURED_top
*2 net157
*3 FrameData[0]
*4 FrameData[10]
*5 FrameData[11]
*6 FrameData[12]
*7 FrameData[13]
*8 FrameData[14]
*9 FrameData[15]
*10 FrameData[16]
*11 FrameData[17]
*12 FrameData[18]
*13 FrameData[19]
*14 FrameData[1]
*15 FrameData[20]
*16 FrameData[21]
*17 FrameData[22]
*18 FrameData[23]
*19 FrameData[24]
*20 FrameData[25]
*21 FrameData[26]
*22 FrameData[27]
*23 FrameData[28]
*24 FrameData[29]
*25 FrameData[2]
*26 FrameData[30]
*27 FrameData[31]
*28 FrameData[3]
*29 FrameData[4]
*30 FrameData[5]
*31 FrameData[6]
*32 FrameData[7]
*33 FrameData[8]
*34 FrameData[9]
*35 FrameData_O[0]
*36 FrameData_O[10]
*37 FrameData_O[11]
*38 FrameData_O[12]
*39 FrameData_O[13]
*40 FrameData_O[14]
*41 FrameData_O[15]
*42 FrameData_O[16]
*43 FrameData_O[17]
*44 FrameData_O[18]
*45 FrameData_O[19]
*46 FrameData_O[1]
*47 FrameData_O[20]
*48 FrameData_O[21]
*49 FrameData_O[22]
*50 FrameData_O[23]
*51 FrameData_O[24]
*52 FrameData_O[25]
*53 FrameData_O[26]
*54 FrameData_O[27]
*55 FrameData_O[28]
*56 FrameData_O[29]
*57 FrameData_O[2]
*58 FrameData_O[30]
*59 FrameData_O[31]
*60 FrameData_O[3]
*61 FrameData_O[4]
*62 FrameData_O[5]
*63 FrameData_O[6]
*64 FrameData_O[7]
*65 FrameData_O[8]
*66 FrameData_O[9]
*67 FrameStrobe[0]
*68 FrameStrobe[10]
*69 FrameStrobe[11]
*70 FrameStrobe[12]
*71 FrameStrobe[13]
*72 FrameStrobe[14]
*73 FrameStrobe[15]
*74 FrameStrobe[16]
*75 FrameStrobe[17]
*76 FrameStrobe[18]
*77 FrameStrobe[19]
*78 FrameStrobe[1]
*79 FrameStrobe[2]
*80 FrameStrobe[3]
*81 FrameStrobe[4]
*82 FrameStrobe[5]
*83 FrameStrobe[6]
*84 FrameStrobe[7]
*85 FrameStrobe[8]
*86 FrameStrobe[9]
*87 FrameStrobe_O[0]
*88 FrameStrobe_O[10]
*89 FrameStrobe_O[11]
*90 FrameStrobe_O[12]
*91 FrameStrobe_O[13]
*92 FrameStrobe_O[14]
*93 FrameStrobe_O[15]
*94 FrameStrobe_O[16]
*95 FrameStrobe_O[17]
*96 FrameStrobe_O[18]
*97 FrameStrobe_O[19]
*98 FrameStrobe_O[1]
*99 FrameStrobe_O[2]
*100 FrameStrobe_O[3]
*101 FrameStrobe_O[4]
*102 FrameStrobe_O[5]
*103 FrameStrobe_O[6]
*104 FrameStrobe_O[7]
*105 FrameStrobe_O[8]
*106 FrameStrobe_O[9]
*107 IRQ_top0
*108 IRQ_top1
*109 IRQ_top2
*110 IRQ_top3
*111 N1BEG[0]
*112 N1BEG[1]
*113 N1BEG[2]
*114 N1BEG[3]
*115 N2BEG[0]
*116 N2BEG[1]
*117 N2BEG[2]
*118 N2BEG[3]
*119 N2BEG[4]
*120 N2BEG[5]
*121 N2BEG[6]
*122 N2BEG[7]
*123 N2BEGb[0]
*124 N2BEGb[1]
*125 N2BEGb[2]
*126 N2BEGb[3]
*127 N2BEGb[4]
*128 N2BEGb[5]
*129 N2BEGb[6]
*130 N2BEGb[7]
*131 N4BEG[0]
*132 N4BEG[10]
*133 N4BEG[11]
*134 N4BEG[12]
*135 N4BEG[13]
*136 N4BEG[14]
*137 N4BEG[15]
*138 N4BEG[1]
*139 N4BEG[2]
*140 N4BEG[3]
*141 N4BEG[4]
*142 N4BEG[5]
*143 N4BEG[6]
*144 N4BEG[7]
*145 N4BEG[8]
*146 N4BEG[9]
*147 NN4BEG[0]
*148 NN4BEG[10]
*149 NN4BEG[11]
*150 NN4BEG[12]
*151 NN4BEG[13]
*152 NN4BEG[14]
*153 NN4BEG[15]
*154 NN4BEG[1]
*155 NN4BEG[2]
*156 NN4BEG[3]
*157 NN4BEG[4]
*158 NN4BEG[5]
*159 NN4BEG[6]
*160 NN4BEG[7]
*161 NN4BEG[8]
*162 NN4BEG[9]
*163 S1END[0]
*164 S1END[1]
*165 S1END[2]
*166 S1END[3]
*167 S2END[0]
*168 S2END[1]
*169 S2END[2]
*170 S2END[3]
*171 S2END[4]
*172 S2END[5]
*173 S2END[6]
*174 S2END[7]
*175 S2MID[0]
*176 S2MID[1]
*177 S2MID[2]
*178 S2MID[3]
*179 S2MID[4]
*180 S2MID[5]
*181 S2MID[6]
*182 S2MID[7]
*183 S4END[0]
*184 S4END[10]
*185 S4END[11]
*186 S4END[12]
*187 S4END[13]
*188 S4END[14]
*189 S4END[15]
*190 S4END[1]
*191 S4END[2]
*192 S4END[3]
*193 S4END[4]
*194 S4END[5]
*195 S4END[6]
*196 S4END[7]
*197 S4END[8]
*198 S4END[9]
*199 SS4END[0]
*200 SS4END[10]
*201 SS4END[11]
*202 SS4END[12]
*203 SS4END[13]
*204 SS4END[14]
*205 SS4END[15]
*206 SS4END[1]
*207 SS4END[2]
*208 SS4END[3]
*209 SS4END[4]
*210 SS4END[5]
*211 SS4END[6]
*212 SS4END[7]
*213 SS4END[8]
*214 SS4END[9]
*215 UserCLK
*216 UserCLKo
*219 Inst_S_CPU_IRQ_ConfigMem\.Inst_frame0_bit20\.Q
*220 Inst_S_CPU_IRQ_ConfigMem\.Inst_frame0_bit21\.Q
*221 Inst_S_CPU_IRQ_ConfigMem\.Inst_frame0_bit22\.Q
*222 Inst_S_CPU_IRQ_ConfigMem\.Inst_frame0_bit23\.Q
*223 Inst_S_CPU_IRQ_ConfigMem\.Inst_frame0_bit24\.Q
*224 Inst_S_CPU_IRQ_ConfigMem\.Inst_frame0_bit25\.Q
*225 Inst_S_CPU_IRQ_ConfigMem\.Inst_frame0_bit26\.Q
*226 Inst_S_CPU_IRQ_ConfigMem\.Inst_frame0_bit27\.Q
*227 Inst_S_CPU_IRQ_ConfigMem\.Inst_frame0_bit28\.Q
*228 Inst_S_CPU_IRQ_ConfigMem\.Inst_frame0_bit29\.Q
*229 Inst_S_CPU_IRQ_ConfigMem\.Inst_frame0_bit30\.Q
*230 Inst_S_CPU_IRQ_ConfigMem\.Inst_frame0_bit31\.Q
*231 _000_
*232 _001_
*233 _002_
*234 _003_
*235 _004_
*236 _005_
*237 _006_
*238 _007_
*239 _008_
*240 _009_
*241 _010_
*242 _011_
*243 _012_
*244 _013_
*245 _014_
*246 _015_
*247 _016_
*248 _017_
*249 _018_
*250 _019_
*251 _020_
*252 _021_
*253 _022_
*254 _023_
*255 _024_
*256 _025_
*257 _026_
*258 _027_
*259 _028_
*260 _029_
*261 _030_
*262 _031_
*263 _032_
*264 _033_
*265 _034_
*266 _035_
*267 net1
*268 net10
*269 net100
*270 net101
*271 net102
*272 net103
*273 net104
*274 net105
*275 net106
*276 net107
*277 net108
*278 net109
*279 net11
*280 net110
*281 net111
*282 net112
*283 net113
*284 net114
*285 net115
*286 net116
*287 net117
*288 net118
*289 net119
*290 net12
*291 net120
*292 net121
*293 net122
*294 net123
*295 net124
*296 net125
*297 net126
*298 net127
*299 net128
*300 net129
*301 net13
*302 net130
*303 net131
*304 net132
*305 net133
*306 net134
*307 net135
*308 net136
*309 net137
*310 net138
*311 net139
*312 net14
*313 net140
*314 net141
*315 net142
*316 net143
*317 net144
*318 net145
*319 net146
*320 net147
*321 net148
*322 net149
*323 net15
*324 net150
*325 net151
*326 net152
*327 net153
*328 net154
*329 net155
*330 net156
*331 net16
*332 net17
*333 net18
*334 net19
*335 net2
*336 net20
*337 net21
*338 net22
*339 net23
*340 net24
*341 net25
*342 net26
*343 net27
*344 net28
*345 net29
*346 net3
*347 net30
*348 net31
*349 net32
*350 net33
*351 net34
*352 net35
*353 net36
*354 net37
*355 net38
*356 net39
*357 net4
*358 net40
*359 net41
*360 net42
*361 net43
*362 net44
*363 net45
*364 net46
*365 net47
*366 net48
*367 net49
*368 net5
*369 net50
*370 net51
*371 net52
*372 net53
*373 net54
*374 net55
*375 net56
*376 net57
*377 net58
*378 net59
*379 net6
*380 net60
*381 net61
*382 net62
*383 net63
*384 net64
*385 net65
*386 net66
*387 net67
*388 net68
*389 net69
*390 net7
*391 net70
*392 net71
*393 net72
*394 net73
*395 net74
*396 net75
*397 net76
*398 net77
*399 net78
*400 net79
*401 net8
*402 net80
*403 net81
*404 net82
*405 net83
*406 net84
*407 net85
*408 net86
*409 net87
*410 net88
*411 net89
*412 net9
*413 net90
*414 net91
*415 net92
*416 net93
*417 net94
*418 net95
*419 net96
*420 net97
*421 net98
*422 net99
*423 ANTENNA_1
*424 ANTENNA_10
*425 ANTENNA_2
*426 ANTENNA_3
*427 ANTENNA_4
*428 ANTENNA_5
*429 ANTENNA_6
*430 ANTENNA_7
*431 ANTENNA_8
*432 ANTENNA_9
*433 FILLER_0_0
*434 FILLER_0_106
*435 FILLER_0_113
*436 FILLER_0_120
*437 FILLER_0_127
*438 FILLER_0_134
*439 FILLER_0_14
*440 FILLER_0_141
*441 FILLER_0_148
*442 FILLER_0_155
*443 FILLER_0_16
*444 FILLER_0_162
*445 FILLER_0_169
*446 FILLER_0_176
*447 FILLER_0_183
*448 FILLER_0_190
*449 FILLER_0_197
*450 FILLER_0_204
*451 FILLER_0_211
*452 FILLER_0_218
*453 FILLER_0_22
*454 FILLER_0_225
*455 FILLER_0_232
*456 FILLER_0_239
*457 FILLER_0_246
*458 FILLER_0_253
*459 FILLER_0_260
*460 FILLER_0_267
*461 FILLER_0_274
*462 FILLER_0_281
*463 FILLER_0_288
*464 FILLER_0_29
*465 FILLER_0_296
*466 FILLER_0_303
*467 FILLER_0_310
*468 FILLER_0_317
*469 FILLER_0_324
*470 FILLER_0_331
*471 FILLER_0_338
*472 FILLER_0_345
*473 FILLER_0_352
*474 FILLER_0_359
*475 FILLER_0_366
*476 FILLER_0_37
*477 FILLER_0_373
*478 FILLER_0_380
*479 FILLER_0_387
*480 FILLER_0_394
*481 FILLER_0_398
*482 FILLER_0_44
*483 FILLER_0_48
*484 FILLER_0_53
*485 FILLER_0_60
*486 FILLER_0_64
*487 FILLER_0_69
*488 FILLER_0_7
*489 FILLER_0_76
*490 FILLER_0_80
*491 FILLER_0_85
*492 FILLER_0_92
*493 FILLER_0_99
*494 FILLER_10_12
*495 FILLER_10_154
*496 FILLER_10_156
*497 FILLER_10_19
*498 FILLER_10_194
*499 FILLER_10_196
*500 FILLER_10_207
*501 FILLER_10_228
*502 FILLER_10_230
*503 FILLER_10_243
*504 FILLER_10_245
*505 FILLER_10_26
*506 FILLER_10_262
*507 FILLER_10_279
*508 FILLER_10_288
*509 FILLER_10_295
*510 FILLER_10_302
*511 FILLER_10_309
*512 FILLER_10_33
*513 FILLER_10_347
*514 FILLER_10_351
*515 FILLER_10_357
*516 FILLER_10_364
*517 FILLER_10_371
*518 FILLER_10_378
*519 FILLER_10_380
*520 FILLER_10_385
*521 FILLER_10_392
*522 FILLER_10_399
*523 FILLER_10_40
*524 FILLER_10_406
*525 FILLER_10_413
*526 FILLER_10_44
*527 FILLER_10_49
*528 FILLER_10_61
*529 FILLER_10_68
*530 FILLER_10_76
*531 FILLER_11_189
*532 FILLER_11_199
*533 FILLER_11_20
*534 FILLER_11_201
*535 FILLER_11_222
*536 FILLER_11_27
*537 FILLER_11_299
*538 FILLER_11_34
*539 FILLER_11_355
*540 FILLER_11_362
*541 FILLER_11_369
*542 FILLER_11_376
*543 FILLER_11_383
*544 FILLER_11_390
*545 FILLER_11_397
*546 FILLER_11_404
*547 FILLER_11_41
*548 FILLER_11_411
*549 FILLER_11_415
*550 FILLER_11_48
*551 FILLER_11_55
*552 FILLER_11_62
*553 FILLER_11_69
*554 FILLER_11_71
*555 FILLER_1_0
*556 FILLER_1_102
*557 FILLER_1_109
*558 FILLER_1_116
*559 FILLER_1_123
*560 FILLER_1_130
*561 FILLER_1_137
*562 FILLER_1_144
*563 FILLER_1_151
*564 FILLER_1_158
*565 FILLER_1_162
*566 FILLER_1_168
*567 FILLER_1_175
*568 FILLER_1_179
*569 FILLER_1_18
*570 FILLER_1_184
*571 FILLER_1_191
*572 FILLER_1_198
*573 FILLER_1_205
*574 FILLER_1_212
*575 FILLER_1_217
*576 FILLER_1_225
*577 FILLER_1_232
*578 FILLER_1_239
*579 FILLER_1_246
*580 FILLER_1_25
*581 FILLER_1_253
*582 FILLER_1_260
*583 FILLER_1_267
*584 FILLER_1_274
*585 FILLER_1_281
*586 FILLER_1_285
*587 FILLER_1_290
*588 FILLER_1_292
*589 FILLER_1_313
*590 FILLER_1_32
*591 FILLER_1_320
*592 FILLER_1_326
*593 FILLER_1_334
*594 FILLER_1_341
*595 FILLER_1_348
*596 FILLER_1_354
*597 FILLER_1_361
*598 FILLER_1_368
*599 FILLER_1_379
*600 FILLER_1_386
*601 FILLER_1_39
*602 FILLER_1_393
*603 FILLER_1_4
*604 FILLER_1_400
*605 FILLER_1_435
*606 FILLER_1_46
*607 FILLER_1_53
*608 FILLER_1_60
*609 FILLER_1_67
*610 FILLER_1_74
*611 FILLER_1_81
*612 FILLER_1_88
*613 FILLER_1_95
*614 FILLER_2_0
*615 FILLER_2_105
*616 FILLER_2_112
*617 FILLER_2_119
*618 FILLER_2_126
*619 FILLER_2_133
*620 FILLER_2_14
*621 FILLER_2_140
*622 FILLER_2_147
*623 FILLER_2_149
*624 FILLER_2_158
*625 FILLER_2_165
*626 FILLER_2_172
*627 FILLER_2_179
*628 FILLER_2_186
*629 FILLER_2_193
*630 FILLER_2_200
*631 FILLER_2_207
*632 FILLER_2_21
*633 FILLER_2_214
*634 FILLER_2_221
*635 FILLER_2_228
*636 FILLER_2_235
*637 FILLER_2_242
*638 FILLER_2_249
*639 FILLER_2_256
*640 FILLER_2_263
*641 FILLER_2_270
*642 FILLER_2_277
*643 FILLER_2_28
*644 FILLER_2_284
*645 FILLER_2_291
*646 FILLER_2_298
*647 FILLER_2_305
*648 FILLER_2_312
*649 FILLER_2_319
*650 FILLER_2_326
*651 FILLER_2_333
*652 FILLER_2_337
*653 FILLER_2_342
*654 FILLER_2_349
*655 FILLER_2_35
*656 FILLER_2_356
*657 FILLER_2_363
*658 FILLER_2_370
*659 FILLER_2_377
*660 FILLER_2_384
*661 FILLER_2_391
*662 FILLER_2_398
*663 FILLER_2_405
*664 FILLER_2_412
*665 FILLER_2_416
*666 FILLER_2_42
*667 FILLER_2_435
*668 FILLER_2_49
*669 FILLER_2_56
*670 FILLER_2_63
*671 FILLER_2_7
*672 FILLER_2_70
*673 FILLER_2_77
*674 FILLER_2_84
*675 FILLER_2_9
*676 FILLER_2_91
*677 FILLER_2_98
*678 FILLER_3_0
*679 FILLER_3_105
*680 FILLER_3_112
*681 FILLER_3_119
*682 FILLER_3_126
*683 FILLER_3_14
*684 FILLER_3_163
*685 FILLER_3_170
*686 FILLER_3_172
*687 FILLER_3_197
*688 FILLER_3_204
*689 FILLER_3_21
*690 FILLER_3_211
*691 FILLER_3_218
*692 FILLER_3_225
*693 FILLER_3_232
*694 FILLER_3_239
*695 FILLER_3_246
*696 FILLER_3_253
*697 FILLER_3_260
*698 FILLER_3_267
*699 FILLER_3_274
*700 FILLER_3_28
*701 FILLER_3_281
*702 FILLER_3_288
*703 FILLER_3_295
*704 FILLER_3_302
*705 FILLER_3_309
*706 FILLER_3_316
*707 FILLER_3_323
*708 FILLER_3_330
*709 FILLER_3_337
*710 FILLER_3_344
*711 FILLER_3_35
*712 FILLER_3_351
*713 FILLER_3_358
*714 FILLER_3_365
*715 FILLER_3_372
*716 FILLER_3_379
*717 FILLER_3_386
*718 FILLER_3_393
*719 FILLER_3_400
*720 FILLER_3_407
*721 FILLER_3_414
*722 FILLER_3_42
*723 FILLER_3_49
*724 FILLER_3_56
*725 FILLER_3_63
*726 FILLER_3_7
*727 FILLER_3_70
*728 FILLER_3_77
*729 FILLER_3_84
*730 FILLER_3_91
*731 FILLER_3_98
*732 FILLER_4_0
*733 FILLER_4_100
*734 FILLER_4_107
*735 FILLER_4_114
*736 FILLER_4_121
*737 FILLER_4_16
*738 FILLER_4_203
*739 FILLER_4_210
*740 FILLER_4_217
*741 FILLER_4_224
*742 FILLER_4_23
*743 FILLER_4_231
*744 FILLER_4_238
*745 FILLER_4_245
*746 FILLER_4_252
*747 FILLER_4_259
*748 FILLER_4_266
*749 FILLER_4_273
*750 FILLER_4_280
*751 FILLER_4_287
*752 FILLER_4_294
*753 FILLER_4_30
*754 FILLER_4_301
*755 FILLER_4_308
*756 FILLER_4_315
*757 FILLER_4_322
*758 FILLER_4_329
*759 FILLER_4_336
*760 FILLER_4_343
*761 FILLER_4_350
*762 FILLER_4_357
*763 FILLER_4_364
*764 FILLER_4_37
*765 FILLER_4_371
*766 FILLER_4_378
*767 FILLER_4_385
*768 FILLER_4_392
*769 FILLER_4_399
*770 FILLER_4_406
*771 FILLER_4_413
*772 FILLER_4_44
*773 FILLER_4_51
*774 FILLER_4_58
*775 FILLER_4_65
*776 FILLER_4_7
*777 FILLER_4_72
*778 FILLER_4_79
*779 FILLER_4_86
*780 FILLER_4_93
*781 FILLER_5_0
*782 FILLER_5_105
*783 FILLER_5_112
*784 FILLER_5_116
*785 FILLER_5_14
*786 FILLER_5_146
*787 FILLER_5_148
*788 FILLER_5_159
*789 FILLER_5_178
*790 FILLER_5_207
*791 FILLER_5_21
*792 FILLER_5_214
*793 FILLER_5_221
*794 FILLER_5_228
*795 FILLER_5_235
*796 FILLER_5_242
*797 FILLER_5_249
*798 FILLER_5_256
*799 FILLER_5_263
*800 FILLER_5_270
*801 FILLER_5_277
*802 FILLER_5_28
*803 FILLER_5_284
*804 FILLER_5_291
*805 FILLER_5_298
*806 FILLER_5_305
*807 FILLER_5_312
*808 FILLER_5_319
*809 FILLER_5_326
*810 FILLER_5_333
*811 FILLER_5_340
*812 FILLER_5_347
*813 FILLER_5_35
*814 FILLER_5_354
*815 FILLER_5_361
*816 FILLER_5_368
*817 FILLER_5_375
*818 FILLER_5_382
*819 FILLER_5_389
*820 FILLER_5_396
*821 FILLER_5_403
*822 FILLER_5_410
*823 FILLER_5_417
*824 FILLER_5_42
*825 FILLER_5_424
*826 FILLER_5_49
*827 FILLER_5_56
*828 FILLER_5_63
*829 FILLER_5_7
*830 FILLER_5_70
*831 FILLER_5_77
*832 FILLER_5_84
*833 FILLER_5_9
*834 FILLER_5_91
*835 FILLER_5_98
*836 FILLER_6_0
*837 FILLER_6_101
*838 FILLER_6_108
*839 FILLER_6_11
*840 FILLER_6_115
*841 FILLER_6_139
*842 FILLER_6_158
*843 FILLER_6_160
*844 FILLER_6_165
*845 FILLER_6_17
*846 FILLER_6_196
*847 FILLER_6_203
*848 FILLER_6_210
*849 FILLER_6_217
*850 FILLER_6_224
*851 FILLER_6_231
*852 FILLER_6_238
*853 FILLER_6_24
*854 FILLER_6_245
*855 FILLER_6_252
*856 FILLER_6_259
*857 FILLER_6_266
*858 FILLER_6_273
*859 FILLER_6_280
*860 FILLER_6_287
*861 FILLER_6_294
*862 FILLER_6_301
*863 FILLER_6_308
*864 FILLER_6_31
*865 FILLER_6_315
*866 FILLER_6_322
*867 FILLER_6_329
*868 FILLER_6_336
*869 FILLER_6_343
*870 FILLER_6_350
*871 FILLER_6_357
*872 FILLER_6_364
*873 FILLER_6_371
*874 FILLER_6_378
*875 FILLER_6_38
*876 FILLER_6_385
*877 FILLER_6_392
*878 FILLER_6_399
*879 FILLER_6_406
*880 FILLER_6_413
*881 FILLER_6_420
*882 FILLER_6_45
*883 FILLER_6_52
*884 FILLER_6_59
*885 FILLER_6_66
*886 FILLER_6_7
*887 FILLER_6_73
*888 FILLER_6_80
*889 FILLER_6_87
*890 FILLER_6_94
*891 FILLER_7_0
*892 FILLER_7_104
*893 FILLER_7_13
*894 FILLER_7_161
*895 FILLER_7_196
*896 FILLER_7_198
*897 FILLER_7_20
*898 FILLER_7_207
*899 FILLER_7_214
*900 FILLER_7_221
*901 FILLER_7_228
*902 FILLER_7_235
*903 FILLER_7_242
*904 FILLER_7_249
*905 FILLER_7_256
*906 FILLER_7_263
*907 FILLER_7_27
*908 FILLER_7_270
*909 FILLER_7_277
*910 FILLER_7_284
*911 FILLER_7_291
*912 FILLER_7_298
*913 FILLER_7_305
*914 FILLER_7_312
*915 FILLER_7_319
*916 FILLER_7_326
*917 FILLER_7_333
*918 FILLER_7_34
*919 FILLER_7_340
*920 FILLER_7_347
*921 FILLER_7_354
*922 FILLER_7_361
*923 FILLER_7_368
*924 FILLER_7_375
*925 FILLER_7_382
*926 FILLER_7_389
*927 FILLER_7_396
*928 FILLER_7_403
*929 FILLER_7_41
*930 FILLER_7_410
*931 FILLER_7_417
*932 FILLER_7_48
*933 FILLER_7_55
*934 FILLER_7_62
*935 FILLER_7_69
*936 FILLER_7_7
*937 FILLER_7_76
*938 FILLER_7_83
*939 FILLER_7_90
*940 FILLER_7_97
*941 FILLER_8_139
*942 FILLER_8_15
*943 FILLER_8_198
*944 FILLER_8_211
*945 FILLER_8_218
*946 FILLER_8_22
*947 FILLER_8_225
*948 FILLER_8_232
*949 FILLER_8_239
*950 FILLER_8_246
*951 FILLER_8_253
*952 FILLER_8_260
*953 FILLER_8_267
*954 FILLER_8_274
*955 FILLER_8_281
*956 FILLER_8_288
*957 FILLER_8_29
*958 FILLER_8_295
*959 FILLER_8_302
*960 FILLER_8_309
*961 FILLER_8_316
*962 FILLER_8_323
*963 FILLER_8_330
*964 FILLER_8_337
*965 FILLER_8_344
*966 FILLER_8_351
*967 FILLER_8_358
*968 FILLER_8_36
*969 FILLER_8_365
*970 FILLER_8_372
*971 FILLER_8_379
*972 FILLER_8_386
*973 FILLER_8_393
*974 FILLER_8_400
*975 FILLER_8_407
*976 FILLER_8_414
*977 FILLER_8_421
*978 FILLER_8_43
*979 FILLER_8_50
*980 FILLER_8_57
*981 FILLER_8_64
*982 FILLER_8_71
*983 FILLER_8_78
*984 FILLER_8_8
*985 FILLER_8_85
*986 FILLER_8_92
*987 FILLER_9_15
*988 FILLER_9_166
*989 FILLER_9_199
*990 FILLER_9_213
*991 FILLER_9_215
*992 FILLER_9_22
*993 FILLER_9_220
*994 FILLER_9_227
*995 FILLER_9_234
*996 FILLER_9_241
*997 FILLER_9_248
*998 FILLER_9_255
*999 FILLER_9_262
*1000 FILLER_9_269
*1001 FILLER_9_276
*1002 FILLER_9_283
*1003 FILLER_9_29
*1004 FILLER_9_290
*1005 FILLER_9_297
*1006 FILLER_9_304
*1007 FILLER_9_311
*1008 FILLER_9_318
*1009 FILLER_9_325
*1010 FILLER_9_332
*1011 FILLER_9_339
*1012 FILLER_9_346
*1013 FILLER_9_353
*1014 FILLER_9_36
*1015 FILLER_9_360
*1016 FILLER_9_367
*1017 FILLER_9_374
*1018 FILLER_9_381
*1019 FILLER_9_388
*1020 FILLER_9_395
*1021 FILLER_9_402
*1022 FILLER_9_409
*1023 FILLER_9_416
*1024 FILLER_9_423
*1025 FILLER_9_427
*1026 FILLER_9_43
*1027 FILLER_9_50
*1028 FILLER_9_57
*1029 FILLER_9_64
*1030 FILLER_9_71
*1031 FILLER_9_78
*1032 FILLER_9_8
*1033 S_CPU_IRQ_155
*1034 _036_
*1035 _037_
*1036 _038_
*1037 _039_
*1038 _040_
*1039 _041_
*1040 _042_
*1041 _043_
*1042 _044_
*1043 _045_
*1044 _046_
*1045 _047_
*1046 _048_
*1047 _049_
*1048 _050_
*1049 _051_
*1050 _052_
*1051 _053_
*1052 _054_
*1053 _055_
*1054 _056_
*1055 _057_
*1056 _058_
*1057 _059_
*1058 _060_
*1059 _061_
*1060 _062_
*1061 _063_
*1062 _064_
*1063 _065_
*1064 _066_
*1065 _067_
*1066 _068_
*1067 _069_
*1068 _070_
*1069 _071_
*1070 _072_
*1071 _073_
*1072 _074_
*1073 _075_
*1074 _076_
*1075 _077_
*1076 _078_
*1077 _079_
*1078 _080_
*1079 _081_
*1080 _082_
*1081 _083_
*1082 _084_
*1083 _085_
*1084 _086_
*1085 _087_
*1086 _089_
*1087 _090_
*1088 _091_
*1089 _092_
*1090 _093_
*1091 _094_
*1092 _095_
*1093 _096_
*1094 _097_
*1095 _098_
*1096 _099_
*1097 _100_
*1098 _101_
*1099 _102_
*1100 _103_
*1101 _104_
*1102 _105_
*1103 _106_
*1104 _107_
*1105 _108_
*1106 _109_
*1107 _110_
*1108 _111_
*1109 _112_
*1110 _113_
*1111 _114_
*1112 _115_
*1113 _116_
*1114 _117_
*1115 _118_
*1116 _119_
*1117 _120_
*1118 _121_
*1119 _122_
*1120 _123_
*1121 _124_
*1122 _125_
*1123 _126_
*1124 _127_
*1125 _128_
*1126 _129_
*1127 _130_
*1128 _131_
*1129 _132_
*1130 _133_
*1131 _134_
*1132 _135_
*1133 _136_
*1134 _137_
*1135 _138_
*1136 _139_
*1137 _140_
*1138 _141_
*1139 _142_
*1140 _143_
*1141 _144_
*1142 _145_
*1143 _146_
*1144 _147_
*1145 _148_
*1146 _149_
*1147 _150_
*1148 _151_
*1149 _152_
*1150 _153_
*1151 _154_
*1152 _155_
*1153 _156_
*1154 _157_
*1155 _158_
*1156 _159_
*1157 _160_
*1158 _161_
*1159 _162_
*1160 _163_
*1161 _164_
*1162 _165_
*1163 _166_
*1164 _167_
*1165 _168_
*1166 _169_
*1167 _170_
*1168 _171_
*1169 _172_
*1170 _173_
*1171 _174_
*1172 _175_
*1173 _176_
*1174 _177_
*1175 _178_
*1176 _179_
*1177 _180_
*1178 _181_
*1179 _182_
*1180 _183_
*1181 _184_
*1182 _185_
*1183 _186_
*1184 _187_
*1185 _188_
*1186 _189_
*1187 _190_
*1188 _191_
*1189 _192_
*1190 _193_
*1191 fanout1
*1192 fanout2
*1193 input1
*1194 input10
*1195 input11
*1196 input12
*1197 input13
*1198 input14
*1199 input15
*1200 input16
*1201 input17
*1202 input18
*1203 input19
*1204 input2
*1205 input20
*1206 input21
*1207 input22
*1208 input23
*1209 input24
*1210 input25
*1211 input26
*1212 input27
*1213 input28
*1214 input29
*1215 input3
*1216 input30
*1217 input31
*1218 input32
*1219 input33
*1220 input34
*1221 input35
*1222 input36
*1223 input37
*1224 input38
*1225 input39
*1226 input4
*1227 input40
*1228 input41
*1229 input42
*1230 input43
*1231 input44
*1232 input45
*1233 input5
*1234 input6
*1235 input7
*1236 input8
*1237 input9
*1238 output100
*1239 output101
*1240 output102
*1241 output103
*1242 output104
*1243 output105
*1244 output106
*1245 output107
*1246 output108
*1247 output109
*1248 output110
*1249 output111
*1250 output112
*1251 output113
*1252 output114
*1253 output115
*1254 output116
*1255 output117
*1256 output118
*1257 output119
*1258 output120
*1259 output121
*1260 output122
*1261 output123
*1262 output124
*1263 output125
*1264 output126
*1265 output127
*1266 output128
*1267 output129
*1268 output130
*1269 output131
*1270 output132
*1271 output133
*1272 output134
*1273 output135
*1274 output136
*1275 output137
*1276 output138
*1277 output139
*1278 output140
*1279 output141
*1280 output142
*1281 output143
*1282 output144
*1283 output145
*1284 output146
*1285 output147
*1286 output148
*1287 output149
*1288 output150
*1289 output151
*1290 output152
*1291 output153
*1292 output154
*1293 output46
*1294 output47
*1295 output48
*1296 output49
*1297 output50
*1298 output51
*1299 output52
*1300 output53
*1301 output54
*1302 output55
*1303 output56
*1304 output57
*1305 output58
*1306 output59
*1307 output60
*1308 output61
*1309 output62
*1310 output63
*1311 output64
*1312 output65
*1313 output66
*1314 output67
*1315 output68
*1316 output69
*1317 output70
*1318 output71
*1319 output72
*1320 output73
*1321 output74
*1322 output75
*1323 output76
*1324 output77
*1325 output78
*1326 output79
*1327 output80
*1328 output81
*1329 output82
*1330 output83
*1331 output84
*1332 output85
*1333 output86
*1334 output87
*1335 output88
*1336 output89
*1337 output90
*1338 output91
*1339 output92
*1340 output93
*1341 output94
*1342 output95
*1343 output96
*1344 output97
*1345 output98
*1346 output99

*PORTS
CONFIGURED_top I
Co O
FrameData[0] I
FrameData[10] I
FrameData[11] I
FrameData[12] I
FrameData[13] I
FrameData[14] I
FrameData[15] I
FrameData[16] I
FrameData[17] I
FrameData[18] I
FrameData[19] I
FrameData[1] I
FrameData[20] I
FrameData[21] I
FrameData[22] I
FrameData[23] I
FrameData[24] I
FrameData[25] I
FrameData[26] I
FrameData[27] I
FrameData[28] I
FrameData[29] I
FrameData[2] I
FrameData[30] I
FrameData[31] I
FrameData[3] I
FrameData[4] I
FrameData[5] I
FrameData[6] I
FrameData[7] I
FrameData[8] I
FrameData[9] I
FrameData_O[0] O
FrameData_O[10] O
FrameData_O[11] O
FrameData_O[12] O
FrameData_O[13] O
FrameData_O[14] O
FrameData_O[15] O
FrameData_O[16] O
FrameData_O[17] O
FrameData_O[18] O
FrameData_O[19] O
FrameData_O[1] O
FrameData_O[20] O
FrameData_O[21] O
FrameData_O[22] O
FrameData_O[23] O
FrameData_O[24] O
FrameData_O[25] O
FrameData_O[26] O
FrameData_O[27] O
FrameData_O[28] O
FrameData_O[29] O
FrameData_O[2] O
FrameData_O[30] O
FrameData_O[31] O
FrameData_O[3] O
FrameData_O[4] O
FrameData_O[5] O
FrameData_O[6] O
FrameData_O[7] O
FrameData_O[8] O
FrameData_O[9] O
FrameStrobe[0] I
FrameStrobe[10] I
FrameStrobe[11] I
FrameStrobe[12] I
FrameStrobe[13] I
FrameStrobe[14] I
FrameStrobe[15] I
FrameStrobe[16] I
FrameStrobe[17] I
FrameStrobe[18] I
FrameStrobe[19] I
FrameStrobe[1] I
FrameStrobe[2] I
FrameStrobe[3] I
FrameStrobe[4] I
FrameStrobe[5] I
FrameStrobe[6] I
FrameStrobe[7] I
FrameStrobe[8] I
FrameStrobe[9] I
FrameStrobe_O[0] O
FrameStrobe_O[10] O
FrameStrobe_O[11] O
FrameStrobe_O[12] O
FrameStrobe_O[13] O
FrameStrobe_O[14] O
FrameStrobe_O[15] O
FrameStrobe_O[16] O
FrameStrobe_O[17] O
FrameStrobe_O[18] O
FrameStrobe_O[19] O
FrameStrobe_O[1] O
FrameStrobe_O[2] O
FrameStrobe_O[3] O
FrameStrobe_O[4] O
FrameStrobe_O[5] O
FrameStrobe_O[6] O
FrameStrobe_O[7] O
FrameStrobe_O[8] O
FrameStrobe_O[9] O
IRQ_top0 O
IRQ_top1 O
IRQ_top2 O
IRQ_top3 O
N1BEG[0] O
N1BEG[1] O
N1BEG[2] O
N1BEG[3] O
N2BEG[0] O
N2BEG[1] O
N2BEG[2] O
N2BEG[3] O
N2BEG[4] O
N2BEG[5] O
N2BEG[6] O
N2BEG[7] O
N2BEGb[0] O
N2BEGb[1] O
N2BEGb[2] O
N2BEGb[3] O
N2BEGb[4] O
N2BEGb[5] O
N2BEGb[6] O
N2BEGb[7] O
N4BEG[0] O
N4BEG[10] O
N4BEG[11] O
N4BEG[12] O
N4BEG[13] O
N4BEG[14] O
N4BEG[15] O
N4BEG[1] O
N4BEG[2] O
N4BEG[3] O
N4BEG[4] O
N4BEG[5] O
N4BEG[6] O
N4BEG[7] O
N4BEG[8] O
N4BEG[9] O
NN4BEG[0] O
NN4BEG[10] O
NN4BEG[11] O
NN4BEG[12] O
NN4BEG[13] O
NN4BEG[14] O
NN4BEG[15] O
NN4BEG[1] O
NN4BEG[2] O
NN4BEG[3] O
NN4BEG[4] O
NN4BEG[5] O
NN4BEG[6] O
NN4BEG[7] O
NN4BEG[8] O
NN4BEG[9] O
S1END[0] I
S1END[1] I
S1END[2] I
S1END[3] I
S2END[0] I
S2END[1] I
S2END[2] I
S2END[3] I
S2END[4] I
S2END[5] I
S2END[6] I
S2END[7] I
S2MID[0] I
S2MID[1] I
S2MID[2] I
S2MID[3] I
S2MID[4] I
S2MID[5] I
S2MID[6] I
S2MID[7] I
S4END[0] I
S4END[10] I
S4END[11] I
S4END[12] I
S4END[13] I
S4END[14] I
S4END[15] I
S4END[1] I
S4END[2] I
S4END[3] I
S4END[4] I
S4END[5] I
S4END[6] I
S4END[7] I
S4END[8] I
S4END[9] I
SS4END[0] I
SS4END[10] I
SS4END[11] I
SS4END[12] I
SS4END[13] I
SS4END[14] I
SS4END[15] I
SS4END[1] I
SS4END[2] I
SS4END[3] I
SS4END[4] I
SS4END[5] I
SS4END[6] I
SS4END[7] I
SS4END[8] I
SS4END[9] I
UserCLK I
UserCLKo O

*D_NET *1 0.000574789
*CONN
*P CONFIGURED_top I
*I *1193:A I *D sg13g2_buf_2
*CAP
1 CONFIGURED_top 0.000287394
2 *1193:A 0.000287394
3 *1193:A *1087:A 0
*RES
1 CONFIGURED_top *1193:A 23.1106 
*END

*D_NET *2 0.00387001
*CONN
*P Co O
*I *1033:L_LO O *D sg13g2_tielo
*CAP
1 Co 9.96119e-05
2 *1033:L_LO 0.000701667
3 *2:10 0.000801279
4 Co NN4BEG[15] 0
5 Co *163:15 0
6 *2:10 NN4BEG[1] 0.000305088
7 *2:10 NN4BEG[4] 0.000341119
8 *2:10 NN4BEG[7] 0
9 *2:10 *156:22 0.000486754
10 *2:10 *356:22 0.00113449
*RES
1 *1033:L_LO *2:10 49.5687 
2 *2:10 Co 20.8137 
*END

*D_NET *3 0.0294167
*CONN
*P FrameData[0] I
*I *423:A I *D sg13g2_antennanp
*I *1086:A I *D sg13g2_buf_1
*CAP
1 FrameData[0] 0.00131458
2 *423:A 0.000186617
3 *1086:A 8.78398e-05
4 *3:17 0.00653923
5 *3:15 0.0066698
6 *3:9 0.00313076
7 *3:7 0.00404032
8 *423:A FrameData_O[5] 0.000317061
9 *423:A FrameData_O[6] 8.0001e-05
10 *423:A FrameData_O[8] 0
11 *423:A *1088:A 0
12 *1086:A FrameData_O[6] 0
13 *1086:A *420:8 0
14 *3:7 *1087:A 0
15 *3:9 *78:9 0
16 *3:9 *215:9 0.00574152
17 *3:15 *1126:A 0
18 *3:17 FrameData_O[5] 0.00130899
19 *3:17 *1088:A 0
20 *3:17 *25:21 0
21 *3:17 *31:5 0
22 *3:17 *73:15 0
23 *3:17 *75:11 0
24 *3:17 *81:9 0
25 *3:17 *215:19 0
*RES
1 FrameData[0] *3:7 16.4903 
2 *3:7 *3:9 35.7925 
3 *3:9 *3:15 43.7801 
4 *3:15 *3:17 55.2286 
5 *3:17 *1086:A 40.7519 
6 *3:17 *423:A 42.1218 
*END

*D_NET *4 0.0195653
*CONN
*P FrameData[10] I
*I *1096:A I *D sg13g2_buf_1
*I *425:A I *D sg13g2_antennanp
*CAP
1 FrameData[10] 0.000302183
2 *1096:A 0.000145535
3 *425:A 0
4 *4:15 0.000145535
5 *4:11 0.00931105
6 *4:9 0.00961323
7 *1096:A *1324:A 0
8 *1096:A *7:21 0
9 *1096:A *398:10 0
10 *1096:A *420:8 4.77699e-05
11 *4:9 *1097:A 0
12 *4:9 *34:11 0
13 *4:11 *7:13 0
14 *4:11 *34:13 0
15 *4:11 *372:12 0
*RES
1 FrameData[10] *4:9 43.1621 
2 *4:9 *4:11 102.691 
3 *4:11 *4:15 40 
4 *4:15 *425:A 40 
5 *4:15 *1096:A 41.1639 
*END

*D_NET *5 0.00106334
*CONN
*P FrameData[11] I
*I *1097:A I *D sg13g2_buf_1
*CAP
1 FrameData[11] 0.000531668
2 *1097:A 0.000531668
3 *1097:A *1100:A 0
4 *1097:A *6:11 0
5 *1097:A *7:11 0
6 *1097:A *346:12 0
7 *4:9 *1097:A 0
*RES
1 FrameData[11] *1097:A 45.8298 
*END

*D_NET *6 0.0353681
*CONN
*P FrameData[12] I
*I *1098:A I *D sg13g2_buf_1
*I *426:A I *D sg13g2_antennanp
*CAP
1 FrameData[12] 0.000569214
2 *1098:A 0.000156924
3 *426:A 0
4 *6:21 0.00430898
5 *6:19 0.00467639
6 *6:13 0.00591758
7 *6:11 0.00596246
8 *1098:A *369:28 0
9 *1098:A *386:20 0
10 *1098:A *420:8 0
11 *6:11 *7:11 0
12 *6:11 *13:9 0
13 *6:13 *13:13 0.0137765
14 *6:13 *28:13 0
15 *6:13 *396:14 0
16 *6:21 *369:24 0
17 *6:21 *369:28 0
18 *6:21 *386:20 0
19 *1097:A *6:11 0
*RES
1 FrameData[12] *6:11 46.6641 
2 *6:11 *6:13 65.611 
3 *6:13 *6:19 45.2942 
4 *6:19 *6:21 38.419 
5 *6:21 *426:A 40 
6 *6:21 *1098:A 41.5965 
*END

*D_NET *7 0.0324644
*CONN
*P FrameData[13] I
*I *1099:A I *D sg13g2_buf_1
*CAP
1 FrameData[13] 0.000336821
2 *1099:A 0.000150863
3 *7:21 0.00379303
4 *7:19 0.00382495
5 *7:13 0.00396951
6 *7:11 0.00412354
7 *1099:A *386:26 0
8 *1099:A *420:8 0.000240786
9 *7:11 *1100:A 0
10 *7:11 *13:9 8.04683e-05
11 *7:13 *10:13 0
12 *7:13 *372:12 0
13 *7:13 *373:12 0
14 *7:13 *386:16 0
15 *7:19 *270:12 0.000277492
16 *7:19 *344:14 0
17 *7:19 *362:22 0
18 *7:21 *76:13 0
19 *7:21 *77:13 0
20 *7:21 *342:10 0.00279386
21 *7:21 *355:14 0
22 *7:21 *360:10 0
23 *7:21 *386:20 0.0128731
24 *7:21 *416:10 0
25 *1096:A *7:21 0
26 *1097:A *7:11 0
27 *4:11 *7:13 0
28 *6:11 *7:11 0
*RES
1 FrameData[13] *7:11 43.6977 
2 *7:11 *7:13 43.8574 
3 *7:13 *7:19 41.8334 
4 *7:19 *7:21 59.6782 
5 *7:21 *1099:A 41.6171 
*END

*D_NET *8 0.00106975
*CONN
*P FrameData[14] I
*I *1100:A I *D sg13g2_buf_1
*CAP
1 FrameData[14] 0.000470611
2 *1100:A 0.000470611
3 *1100:A *1101:A 0
4 *1100:A *368:10 0.000128528
5 *1097:A *1100:A 0
6 *7:11 *1100:A 0
*RES
1 FrameData[14] *1100:A 45.2736 
*END

*D_NET *9 0.00114467
*CONN
*P FrameData[15] I
*I *1101:A I *D sg13g2_buf_1
*CAP
1 FrameData[15] 0.000429865
2 *1101:A 0.000429865
3 *1101:A *10:11 0
4 *1101:A *279:6 0
5 *1101:A *290:12 0.000284941
6 *1101:A *368:8 0
7 *1101:A *368:10 0
8 *1100:A *1101:A 0
*RES
1 FrameData[15] *1101:A 44.9028 
*END

*D_NET *10 0.0308272
*CONN
*P FrameData[16] I
*I *1102:A I *D sg13g2_buf_1
*I *427:A I *D sg13g2_antennanp
*CAP
1 FrameData[16] 0.000364218
2 *1102:A 0.000118035
3 *427:A 0
4 *10:21 0.00600436
5 *10:19 0.00609822
6 *10:13 0.00425467
7 *10:11 0.004407
8 *1102:A *381:12 0
9 *1102:A *420:12 0
10 *10:11 *1103:A 0
11 *10:11 *13:9 0.000147786
12 *10:11 *401:12 0.000178392
13 *10:13 *373:12 0
14 *10:13 *375:12 0
15 *10:13 *387:18 0
16 *10:19 *270:12 0
17 *10:21 *267:91 0.000391412
18 *10:21 *297:22 0.00102946
19 *10:21 *338:20 0
20 *10:21 *346:45 0
21 *10:21 *362:12 0.00519504
22 *10:21 *381:10 0
23 *10:21 *381:12 0
24 *10:21 *384:38 0
25 *10:21 *418:12 0
26 *10:21 *419:20 0.00263859
27 *10:21 *420:12 0
28 *1101:A *10:11 0
29 *7:13 *10:13 0
*RES
1 FrameData[16] *10:11 44.1303 
2 *10:11 *10:13 42.127 
3 *10:13 *10:19 41.6171 
4 *10:19 *10:21 60.667 
5 *10:21 *427:A 40 
6 *10:21 *1102:A 40.8446 
*END

*D_NET *11 0.00144766
*CONN
*P FrameData[17] I
*I *1103:A I *D sg13g2_buf_1
*CAP
1 FrameData[17] 0.000421265
2 *1103:A 0.000421265
3 *1103:A *1104:A 0
4 *1103:A *357:12 0.000605125
5 *1103:A *401:12 0
6 *10:11 *1103:A 0
*RES
1 FrameData[17] *1103:A 45.2118 
*END

*D_NET *12 0.000933612
*CONN
*P FrameData[18] I
*I *1104:A I *D sg13g2_buf_1
*CAP
1 FrameData[18] 0.000466806
2 *1104:A 0.000466806
3 *1104:A *13:9 0
4 *1104:A *279:6 0
5 *1104:A *312:12 0
6 *1104:A *357:12 0
7 *1104:A *368:8 0
8 *1103:A *1104:A 0
*RES
1 FrameData[18] *1104:A 44.6556 
*END

*D_NET *13 0.0418926
*CONN
*P FrameData[19] I
*I *1105:A I *D sg13g2_buf_1
*I *428:A I *D sg13g2_antennanp
*CAP
1 FrameData[19] 0.00124576
2 *1105:A 4.94589e-05
3 *428:A 6.16702e-05
4 *13:21 0.000111129
5 *13:17 0.00104602
6 *13:13 0.00729712
7 *13:11 0.0062511
8 *13:9 0.00124576
9 *1105:A *377:10 0
10 *13:9 *1204:A 0
11 *13:9 *1215:A 0
12 *13:9 *34:11 4.8158e-05
13 *13:9 *369:12 0
14 *13:13 *28:13 0
15 *13:13 *32:11 0
16 *13:13 *369:14 0.0100432
17 *13:17 *34:19 0.000180272
18 *13:17 *373:18 0
19 *13:17 *375:18 0
20 *13:17 *385:18 0
21 *13:17 *387:28 0.000308197
22 *13:17 *388:20 0
23 *1104:A *13:9 0
24 *6:11 *13:9 0
25 *6:13 *13:13 0.0137765
26 *7:11 *13:9 8.04683e-05
27 *10:11 *13:9 0.000147786
*RES
1 FrameData[19] *13:9 34.4818 
2 *13:9 *13:11 20 
3 *13:11 *13:13 103.433 
4 *13:13 *13:17 31.5669 
5 *13:17 *13:21 40 
6 *13:21 *428:A 20.6695 
7 *13:21 *1105:A 20.6695 
*END

*D_NET *14 0.00150037
*CONN
*P FrameData[1] I
*I *1087:A I *D sg13g2_buf_1
*CAP
1 FrameData[1] 0.000750185
2 *1087:A 0.000750185
3 *1087:A *1090:A 0
4 *1087:A *25:11 0
5 *1087:A *28:11 0
6 *1087:A *346:12 0
7 *1087:A *378:10 0
8 *1193:A *1087:A 0
9 *3:7 *1087:A 0
*RES
1 FrameData[1] *1087:A 47.931 
*END

*D_NET *15 0.000569487
*CONN
*P FrameData[20] I
*I *1204:A I *D sg13g2_buf_1
*CAP
1 FrameData[20] 0.000284743
2 *1204:A 0.000284743
3 *1204:A *1215:A 0
4 *1204:A *357:12 0
5 *1204:A *401:10 0
6 *13:9 *1204:A 0
*RES
1 FrameData[20] *1204:A 42.8634 
*END

*D_NET *16 0.000545494
*CONN
*P FrameData[21] I
*I *1215:A I *D sg13g2_buf_1
*CAP
1 FrameData[21] 0.000272747
2 *1215:A 0.000272747
3 *1215:A *1226:A 0
4 *1215:A *1233:A 0
5 *1215:A *379:12 0
6 *1204:A *1215:A 0
7 *13:9 *1215:A 0
*RES
1 FrameData[21] *1215:A 42.987 
*END

*D_NET *17 0.000584729
*CONN
*P FrameData[22] I
*I *1226:A I *D sg13g2_buf_1
*CAP
1 FrameData[22] 0.000292365
2 *1226:A 0.000292365
3 *1226:A *1233:A 0
4 *1226:A *379:8 0
5 *1226:A *401:10 0
6 *1215:A *1226:A 0
*RES
1 FrameData[22] *1226:A 42.8634 
*END

*D_NET *18 0.000535273
*CONN
*P FrameData[23] I
*I *1233:A I *D sg13g2_buf_1
*CAP
1 FrameData[23] 0.000267637
2 *1233:A 0.000267637
3 *1233:A *1234:A 0
4 *1233:A *1235:A 0
5 *1215:A *1233:A 0
6 *1226:A *1233:A 0
*RES
1 FrameData[23] *1233:A 42.987 
*END

*D_NET *19 0.000639383
*CONN
*P FrameData[24] I
*I *1234:A I *D sg13g2_buf_1
*CAP
1 FrameData[24] 0.000319692
2 *1234:A 0.000319692
3 *1234:A *1235:A 0
4 *1234:A *401:10 0
5 *1233:A *1234:A 0
*RES
1 FrameData[24] *1234:A 43.296 
*END

*D_NET *20 0.000740268
*CONN
*P FrameData[25] I
*I *1235:A I *D sg13g2_buf_1
*CAP
1 FrameData[25] 0.000306092
2 *1235:A 0.000306092
3 *1235:A *1236:A 0
4 *1235:A *1237:A 0
5 *1235:A *290:8 0.000112684
6 *1235:A *401:10 1.54008e-05
7 *1233:A *1235:A 0
8 *1234:A *1235:A 0
*RES
1 FrameData[25] *1235:A 43.4196 
*END

*D_NET *21 0.000647342
*CONN
*P FrameData[26] I
*I *1236:A I *D sg13g2_buf_1
*CAP
1 FrameData[26] 0.000323671
2 *1236:A 0.000323671
3 *1236:A *1237:A 0
4 *1236:A *412:18 0
5 *1235:A *1236:A 0
*RES
1 FrameData[26] *1236:A 43.399 
*END

*D_NET *22 0.00118436
*CONN
*P FrameData[27] I
*I *1237:A I *D sg13g2_buf_1
*CAP
1 FrameData[27] 0.000592181
2 *1237:A 0.000592181
3 *1237:A *1194:A 0
4 *1237:A *1196:A 0
5 *1237:A *1197:A 0
6 *1237:A *268:10 0
7 *1237:A *279:6 0
8 *1237:A *312:12 0
9 *1235:A *1237:A 0
10 *1236:A *1237:A 0
*RES
1 FrameData[27] *1237:A 46.386 
*END

*D_NET *23 0.000564015
*CONN
*P FrameData[28] I
*I *1194:A I *D sg13g2_buf_1
*CAP
1 FrameData[28] 0.000282008
2 *1194:A 0.000282008
3 *1194:A *1195:A 0
4 *1194:A *268:10 0
5 *1237:A *1194:A 0
*RES
1 FrameData[28] *1194:A 42.987 
*END

*D_NET *24 0.00114806
*CONN
*P FrameData[29] I
*I *1195:A I *D sg13g2_buf_1
*CAP
1 FrameData[29] 0.000485774
2 *1195:A 0.000485774
3 *1195:A *1196:A 0
4 *1195:A *1197:A 0.000176508
5 *1195:A *268:10 0
6 *1194:A *1195:A 0
*RES
1 FrameData[29] *1195:A 44.841 
*END

*D_NET *25 0.0340481
*CONN
*P FrameData[2] I
*I *1088:A I *D sg13g2_buf_1
*I *429:A I *D sg13g2_antennanp
*CAP
1 FrameData[2] 0.000368404
2 *1088:A 0.000473923
3 *429:A 0
4 *25:21 0.00484349
5 *25:19 0.00472792
6 *25:13 0.00377101
7 *25:11 0.00378106
8 *1088:A *1089:A 0.000181781
9 *1088:A *1092:A 0
10 *1088:A *398:10 0
11 *25:11 *28:11 0
12 *25:11 *395:12 0
13 *25:13 *395:14 0.0127158
14 *25:21 *1089:A 0.000181827
15 *25:21 *1092:A 0
16 *25:21 *31:9 0
17 *25:21 *69:11 0.000501547
18 *25:21 *70:11 0.000288588
19 *25:21 *215:19 0.00221281
20 *423:A *1088:A 0
21 *1087:A *25:11 0
22 *3:17 *1088:A 0
23 *3:17 *25:21 0
*RES
1 FrameData[2] *25:11 43.914 
2 *25:11 *25:13 59.1838 
3 *25:13 *25:19 43.3475 
4 *25:19 *25:21 41.6326 
5 *25:21 *429:A 40 
6 *25:21 *1088:A 44.7277 
*END

*D_NET *26 0.001684
*CONN
*P FrameData[30] I
*I *1196:A I *D sg13g2_buf_1
*CAP
1 FrameData[30] 0.000591268
2 *1196:A 0.000591268
3 *1196:A *1197:A 0
4 *1196:A *301:8 0
5 *1196:A *412:18 0.00050146
6 *1195:A *1196:A 0
7 *1237:A *1196:A 0
*RES
1 FrameData[30] *1196:A 46.695 
*END

*D_NET *27 0.00177979
*CONN
*P FrameData[31] I
*I *1197:A I *D sg13g2_buf_1
*CAP
1 FrameData[31] 0.000801644
2 *1197:A 0.000801644
3 *1197:A *290:8 0
4 *1197:A *301:8 0
5 *1197:A *312:12 0
6 *1197:A *412:18 0
7 *1195:A *1197:A 0.000176508
8 *1196:A *1197:A 0
9 *1237:A *1197:A 0
*RES
1 FrameData[31] *1197:A 48.4048 
*END

*D_NET *28 0.0213793
*CONN
*P FrameData[3] I
*I *1089:A I *D sg13g2_buf_1
*I *430:A I *D sg13g2_antennanp
*CAP
1 FrameData[3] 0.000824104
2 *1089:A 0.000138555
3 *430:A 0
4 *28:19 0.000182666
5 *28:13 0.00954519
6 *28:11 0.0103252
7 *1089:A *1092:A 0
8 *28:11 *1090:A 0
9 *28:11 *1091:A 0
10 *28:11 *378:10 0
11 *28:11 *396:12 0
12 *28:13 *378:18 0
13 *28:13 *396:14 0
14 *28:13 *396:18 0
15 *1087:A *28:11 0
16 *1088:A *1089:A 0.000181781
17 *6:13 *28:13 0
18 *13:13 *28:13 0
19 *25:11 *28:11 0
20 *25:21 *1089:A 0.000181827
*RES
1 FrameData[3] *28:11 48.2091 
2 *28:11 *28:13 96.7582 
3 *28:13 *28:19 40.3193 
4 *28:19 *430:A 40 
5 *28:19 *1089:A 41.5862 
*END

*D_NET *29 0.000825346
*CONN
*P FrameData[4] I
*I *1090:A I *D sg13g2_buf_1
*CAP
1 FrameData[4] 0.000412673
2 *1090:A 0.000412673
3 *1090:A *1091:A 0
4 *1087:A *1090:A 0
5 *28:11 *1090:A 0
*RES
1 FrameData[4] *1090:A 44.3466 
*END

*D_NET *30 0.000985549
*CONN
*P FrameData[5] I
*I *1091:A I *D sg13g2_buf_1
*CAP
1 FrameData[5] 0.000492775
2 *1091:A 0.000492775
3 *1091:A *31:5 0
4 *1091:A *378:10 0
5 *1090:A *1091:A 0
6 *28:11 *1091:A 0
*RES
1 FrameData[5] *1091:A 45.459 
*END

*D_NET *31 0.0220608
*CONN
*P FrameData[6] I
*I *1092:A I *D sg13g2_buf_1
*I *431:A I *D sg13g2_antennanp
*CAP
1 FrameData[6] 0.00468426
2 *1092:A 0.00037639
3 *431:A 0
4 *31:9 0.00420723
5 *31:5 0.0085151
6 *1092:A *1093:A 0
7 *1092:A *32:19 0
8 *1092:A *420:8 0
9 *31:5 *1057:B 0
10 *31:5 *1094:A 0
11 *31:5 *32:9 0
12 *31:5 *81:9 0
13 *31:5 *215:19 0
14 *31:5 *302:12 0
15 *31:5 *351:10 0
16 *31:5 *378:10 0
17 *31:5 *399:12 0
18 *31:5 *399:18 0
19 *31:5 *415:10 0.00199914
20 *31:5 *421:10 0.00148405
21 *31:9 *32:19 0
22 *31:9 *69:11 0
23 *31:9 *70:11 0
24 *31:9 *215:19 0
25 *31:9 *351:10 0
26 *31:9 *406:8 0.000503291
27 *31:9 *409:8 0.000291291
28 *31:9 *421:10 0
29 *1088:A *1092:A 0
30 *1089:A *1092:A 0
31 *1091:A *31:5 0
32 *3:17 *31:5 0
33 *25:21 *1092:A 0
34 *25:21 *31:9 0
*RES
1 FrameData[6] *31:5 61.594 
2 *31:5 *31:9 41.1176 
3 *31:9 *431:A 40 
4 *31:9 *1092:A 43.8522 
*END

*D_NET *32 0.0197178
*CONN
*P FrameData[7] I
*I *1093:A I *D sg13g2_buf_1
*I *432:A I *D sg13g2_antennanp
*CAP
1 FrameData[7] 0.000296885
2 *1093:A 6.28968e-05
3 *432:A 0
4 *32:19 0.00402162
5 *32:17 0.0040327
6 *32:11 0.00432816
7 *32:9 0.00455107
8 *32:9 *1094:A 0
9 *32:11 *34:13 0
10 *32:11 *369:14 0
11 *32:17 *369:20 0
12 *32:19 *77:13 0
13 *32:19 *351:10 0.00242443
14 *32:19 *406:8 0
15 *32:19 *416:10 0
16 *1092:A *1093:A 0
17 *1092:A *32:19 0
18 *13:13 *32:11 0
19 *31:5 *32:9 0
20 *31:9 *32:19 0
*RES
1 FrameData[7] *32:9 43.1621 
2 *32:9 *32:11 49.543 
3 *32:11 *32:17 40.7519 
4 *32:17 *32:19 52.2622 
5 *32:19 *432:A 40 
6 *32:19 *1093:A 40.8446 
*END

*D_NET *33 0.000792021
*CONN
*P FrameData[8] I
*I *1094:A I *D sg13g2_buf_1
*CAP
1 FrameData[8] 0.000396011
2 *1094:A 0.000396011
3 *1094:A *34:11 0
4 *31:5 *1094:A 0
5 *32:9 *1094:A 0
*RES
1 FrameData[8] *1094:A 44.4702 
*END

*D_NET *34 0.0202951
*CONN
*P FrameData[9] I
*I *424:A I *D sg13g2_antennanp
*I *1095:A I *D sg13g2_buf_1
*CAP
1 FrameData[9] 0.000335783
2 *424:A 7.40433e-05
3 *1095:A 3.02047e-05
4 *34:19 0.00019985
5 *34:13 0.0094518
6 *34:11 0.00969198
7 *424:A *367:12 0
8 *424:A *398:10 0.000235249
9 *1095:A *420:8 4.77702e-05
10 *34:11 *369:12 0
11 *34:13 *372:12 0
12 *34:19 *385:18 0
13 *1094:A *34:11 0
14 *4:9 *34:11 0
15 *4:11 *34:13 0
16 *13:9 *34:11 4.8158e-05
17 *13:17 *34:19 0.000180272
18 *32:11 *34:13 0
*RES
1 FrameData[9] *34:11 43.4814 
2 *34:11 *34:13 103.433 
3 *34:13 *34:19 41.1845 
4 *34:19 *1095:A 40.3193 
5 *34:19 *424:A 41.0918 
*END

*D_NET *35 0.00147568
*CONN
*P FrameData_O[0] O
*I *1293:X O *D sg13g2_buf_1
*CAP
1 FrameData_O[0] 0.00073784
2 *1293:X 0.00073784
3 FrameData_O[0] FrameData_O[1] 0
4 FrameData_O[0] *1125:A 0
5 FrameData_O[0] *77:13 0
*RES
1 *1293:X FrameData_O[0] 47.9001 
*END

*D_NET *36 0.000410207
*CONN
*P FrameData_O[10] O
*I *1294:X O *D sg13g2_buf_1
*CAP
1 FrameData_O[10] 0.000205103
2 *1294:X 0.000205103
3 FrameData_O[10] FrameData_O[11] 0
4 FrameData_O[10] FrameData_O[9] 0
5 FrameData_O[10] *1324:A 0
*RES
1 *1294:X FrameData_O[10] 42.2145 
*END

*D_NET *37 0.000688058
*CONN
*P FrameData_O[11] O
*I *1295:X O *D sg13g2_buf_1
*CAP
1 FrameData_O[11] 0.000304196
2 *1295:X 0.000304196
3 FrameData_O[11] FrameData_O[12] 0
4 FrameData_O[11] *367:12 0
5 FrameData_O[11] *370:10 0
6 FrameData_O[11] *386:26 7.96655e-05
7 FrameData_O[10] FrameData_O[11] 0
*RES
1 *1295:X FrameData_O[11] 43.2033 
*END

*D_NET *38 0.000398815
*CONN
*P FrameData_O[12] O
*I *1296:X O *D sg13g2_buf_1
*CAP
1 FrameData_O[12] 0.000199407
2 *1296:X 0.000199407
3 FrameData_O[12] FrameData_O[13] 0
4 FrameData_O[12] *386:26 0
5 FrameData_O[11] FrameData_O[12] 0
*RES
1 *1296:X FrameData_O[12] 42.2145 
*END

*D_NET *39 0.000784712
*CONN
*P FrameData_O[13] O
*I *1297:X O *D sg13g2_buf_1
*CAP
1 FrameData_O[13] 0.000336092
2 *1297:X 0.000336092
3 FrameData_O[13] FrameData_O[14] 0
4 FrameData_O[13] FrameData_O[15] 0
5 FrameData_O[13] *370:10 0
6 FrameData_O[13] *386:26 0.000112528
7 FrameData_O[12] FrameData_O[13] 0
*RES
1 *1297:X FrameData_O[13] 43.4196 
*END

*D_NET *40 0.000297607
*CONN
*P FrameData_O[14] O
*I *1298:X O *D sg13g2_buf_1
*CAP
1 FrameData_O[14] 0.000148804
2 *1298:X 0.000148804
3 FrameData_O[14] FrameData_O[15] 0
4 FrameData_O[13] FrameData_O[14] 0
*RES
1 *1298:X FrameData_O[14] 41.6789 
*END

*D_NET *41 0.00083226
*CONN
*P FrameData_O[15] O
*I *1299:X O *D sg13g2_buf_1
*CAP
1 FrameData_O[15] 0.000343651
2 *1299:X 0.000343651
3 FrameData_O[15] FrameData_O[16] 0
4 FrameData_O[15] FrameData_O[17] 0
5 FrameData_O[15] *374:12 0
6 FrameData_O[15] *381:12 0
7 FrameData_O[15] *386:26 0.000144958
8 FrameData_O[13] FrameData_O[15] 0
9 FrameData_O[14] FrameData_O[15] 0
*RES
1 *1299:X FrameData_O[15] 43.6359 
*END

*D_NET *42 0.000297607
*CONN
*P FrameData_O[16] O
*I *1300:X O *D sg13g2_buf_1
*CAP
1 FrameData_O[16] 0.000148804
2 *1300:X 0.000148804
3 FrameData_O[16] FrameData_O[17] 0
4 FrameData_O[15] FrameData_O[16] 0
*RES
1 *1300:X FrameData_O[16] 41.6789 
*END

*D_NET *43 0.00114132
*CONN
*P FrameData_O[17] O
*I *1301:X O *D sg13g2_buf_1
*CAP
1 FrameData_O[17] 0.000331053
2 *1301:X 0.000331053
3 FrameData_O[17] FrameData_O[18] 0
4 FrameData_O[17] *1306:A 0.000176921
5 FrameData_O[17] *374:12 0.000125261
6 FrameData_O[17] *386:26 0.000177036
7 FrameData_O[15] FrameData_O[17] 0
8 FrameData_O[16] FrameData_O[17] 0
*RES
1 *1301:X FrameData_O[17] 43.8522 
*END

*D_NET *44 0.000348098
*CONN
*P FrameData_O[18] O
*I *1302:X O *D sg13g2_buf_1
*CAP
1 FrameData_O[18] 0.000174049
2 *1302:X 0.000174049
3 FrameData_O[18] FrameData_O[19] 0
4 FrameData_O[17] FrameData_O[18] 0
*RES
1 *1302:X FrameData_O[18] 41.9982 
*END

*D_NET *45 0.000610907
*CONN
*P FrameData_O[19] O
*I *1303:X O *D sg13g2_buf_1
*CAP
1 FrameData_O[19] 0.000305453
2 *1303:X 0.000305453
3 FrameData_O[19] FrameData_O[20] 0
4 FrameData_O[19] *1306:A 0
5 FrameData_O[18] FrameData_O[19] 0
*RES
1 *1303:X FrameData_O[19] 43.0797 
*END

*D_NET *46 0.00207404
*CONN
*P FrameData_O[1] O
*I *1304:X O *D sg13g2_buf_1
*CAP
1 FrameData_O[1] 0.000698631
2 *1304:X 0.000698631
3 FrameData_O[1] FrameData_O[2] 0
4 FrameData_O[1] *77:13 1.53099e-05
5 FrameData_O[1] *84:13 0.000661471
6 FrameData_O[1] *399:30 0
7 FrameData_O[0] FrameData_O[1] 0
*RES
1 *1304:X FrameData_O[1] 48.0237 
*END

*D_NET *47 0.000786621
*CONN
*P FrameData_O[20] O
*I *1305:X O *D sg13g2_buf_1
*CAP
1 FrameData_O[20] 0.000313874
2 *1305:X 0.000313874
3 FrameData_O[20] FrameData_O[21] 0
4 FrameData_O[20] FrameData_O[22] 0
5 FrameData_O[20] *1306:A 7.90673e-05
6 FrameData_O[20] *377:10 0
7 FrameData_O[20] *386:26 7.9806e-05
8 FrameData_O[19] FrameData_O[20] 0
*RES
1 *1305:X FrameData_O[20] 43.2033 
*END

*D_NET *48 0.000652014
*CONN
*P FrameData_O[21] O
*I *1306:X O *D sg13g2_buf_1
*CAP
1 FrameData_O[21] 0.000326007
2 *1306:X 0.000326007
3 FrameData_O[21] FrameData_O[22] 0
4 FrameData_O[21] *1306:A 0
5 FrameData_O[20] FrameData_O[21] 0
*RES
1 *1306:X FrameData_O[21] 43.296 
*END

*D_NET *49 0.00089743
*CONN
*P FrameData_O[22] O
*I *1307:X O *D sg13g2_buf_1
*CAP
1 FrameData_O[22] 0.000336537
2 *1307:X 0.000336537
3 FrameData_O[22] FrameData_O[23] 0
4 FrameData_O[22] FrameData_O[24] 0
5 FrameData_O[22] *1306:A 0.000111828
6 FrameData_O[22] *377:10 0
7 FrameData_O[22] *386:26 0.000112528
8 FrameData_O[20] FrameData_O[22] 0
9 FrameData_O[21] FrameData_O[22] 0
*RES
1 *1307:X FrameData_O[22] 43.4196 
*END

*D_NET *50 0.000676072
*CONN
*P FrameData_O[23] O
*I *1308:X O *D sg13g2_buf_1
*CAP
1 FrameData_O[23] 0.000330308
2 *1308:X 0.000330308
3 FrameData_O[23] FrameData_O[24] 0
4 FrameData_O[23] FrameData_O[25] 1.54556e-05
5 FrameData_O[23] *1306:A 0
6 FrameData_O[23] *386:26 0
7 FrameData_O[22] FrameData_O[23] 0
*RES
1 *1308:X FrameData_O[23] 43.6153 
*END

*D_NET *51 0.000859518
*CONN
*P FrameData_O[24] O
*I *1309:X O *D sg13g2_buf_1
*CAP
1 FrameData_O[24] 0.000357267
2 *1309:X 0.000357267
3 FrameData_O[24] FrameData_O[25] 0
4 FrameData_O[24] FrameData_O[26] 0
5 FrameData_O[24] *386:26 0.000144985
6 FrameData_O[22] FrameData_O[24] 0
7 FrameData_O[23] FrameData_O[24] 0
*RES
1 *1309:X FrameData_O[24] 43.6359 
*END

*D_NET *52 0.000740175
*CONN
*P FrameData_O[25] O
*I *1310:X O *D sg13g2_buf_1
*CAP
1 FrameData_O[25] 0.00036236
2 *1310:X 0.00036236
3 FrameData_O[25] FrameData_O[26] 0
4 FrameData_O[25] *386:26 0
5 FrameData_O[23] FrameData_O[25] 1.54556e-05
6 FrameData_O[24] FrameData_O[25] 0
*RES
1 *1310:X FrameData_O[25] 43.8316 
*END

*D_NET *53 0.000934695
*CONN
*P FrameData_O[26] O
*I *1311:X O *D sg13g2_buf_1
*CAP
1 FrameData_O[26] 0.000379021
2 *1311:X 0.000379021
3 FrameData_O[26] FrameData_O[27] 0
4 FrameData_O[26] *386:26 0.000176654
5 FrameData_O[24] FrameData_O[26] 0
6 FrameData_O[25] FrameData_O[26] 0
*RES
1 *1311:X FrameData_O[26] 43.8522 
*END

*D_NET *54 0.000776397
*CONN
*P FrameData_O[27] O
*I *1312:X O *D sg13g2_buf_1
*CAP
1 FrameData_O[27] 0.000388199
2 *1312:X 0.000388199
3 FrameData_O[27] FrameData_O[28] 0
4 FrameData_O[27] *384:72 0
5 FrameData_O[27] *385:24 0
6 FrameData_O[26] FrameData_O[27] 0
*RES
1 *1312:X FrameData_O[27] 44.0788 
*END

*D_NET *55 0.0010971
*CONN
*P FrameData_O[28] O
*I *1313:X O *D sg13g2_buf_1
*CAP
1 FrameData_O[28] 0.00047097
2 *1313:X 0.00047097
3 FrameData_O[28] FrameData_O[29] 0
4 FrameData_O[28] FrameData_O[31] 8.02267e-05
5 FrameData_O[28] *1316:A 0
6 FrameData_O[28] *385:24 7.4933e-05
7 FrameData_O[28] *389:28 0
8 FrameData_O[27] FrameData_O[28] 0
*RES
1 *1313:X FrameData_O[28] 45.1809 
*END

*D_NET *56 0.00132211
*CONN
*P FrameData_O[29] O
*I *1314:X O *D sg13g2_buf_1
*CAP
1 FrameData_O[29] 0.000661056
2 *1314:X 0.000661056
3 FrameData_O[29] FrameData_O[30] 0
4 FrameData_O[29] FrameData_O[31] 0
5 FrameData_O[29] *386:26 0
6 FrameData_O[28] FrameData_O[29] 0
*RES
1 *1314:X FrameData_O[29] 46.7362 
*END

*D_NET *57 0.00242015
*CONN
*P FrameData_O[2] O
*I *1315:X O *D sg13g2_buf_1
*CAP
1 FrameData_O[2] 0.000612936
2 *1315:X 0.000612936
3 FrameData_O[2] FrameData_O[3] 0
4 FrameData_O[2] *76:13 0
5 FrameData_O[2] *366:10 0
6 FrameData_O[2] *391:10 0
7 FrameData_O[2] *399:30 0.00119428
8 FrameData_O[1] FrameData_O[2] 0
*RES
1 *1315:X FrameData_O[2] 48.1473 
*END

*D_NET *58 0.00127566
*CONN
*P FrameData_O[30] O
*I *1316:X O *D sg13g2_buf_1
*CAP
1 FrameData_O[30] 0.000637828
2 *1316:X 0.000637828
3 FrameData_O[30] FrameData_O[31] 0
4 FrameData_O[29] FrameData_O[30] 0
*RES
1 *1316:X FrameData_O[30] 47.0349 
*END

*D_NET *59 0.00176496
*CONN
*P FrameData_O[31] O
*I *1317:X O *D sg13g2_buf_1
*CAP
1 FrameData_O[31] 0.000842369
2 *1317:X 0.000842369
3 FrameData_O[31] *1316:A 0
4 FrameData_O[31] *386:26 0
5 FrameData_O[28] FrameData_O[31] 8.02267e-05
6 FrameData_O[29] FrameData_O[31] 0
7 FrameData_O[30] FrameData_O[31] 0
*RES
1 *1317:X FrameData_O[31] 49.1773 
*END

*D_NET *60 0.00124886
*CONN
*P FrameData_O[3] O
*I *1318:X O *D sg13g2_buf_1
*CAP
1 FrameData_O[3] 0.000459363
2 *1318:X 0.000459363
3 FrameData_O[3] FrameData_O[4] 0
4 FrameData_O[3] *77:13 0
5 FrameData_O[3] *366:10 0.000128248
6 FrameData_O[3] *397:14 0.000122034
7 FrameData_O[3] *420:8 7.98484e-05
8 FrameData_O[2] FrameData_O[3] 0
*RES
1 *1318:X FrameData_O[3] 45.1809 
*END

*D_NET *61 0.0038731
*CONN
*P FrameData_O[4] O
*I *1319:X O *D sg13g2_buf_1
*CAP
1 FrameData_O[4] 0.000504744
2 *1319:X 0.000504744
3 FrameData_O[4] FrameData_O[5] 0.00177672
4 FrameData_O[4] *1315:A 0
5 FrameData_O[4] *62:8 0
6 FrameData_O[4] *391:10 0.00108689
7 FrameData_O[4] *399:30 0
8 FrameData_O[3] FrameData_O[4] 0
*RES
1 *1319:X FrameData_O[4] 49.1361 
*END

*D_NET *62 0.00471737
*CONN
*P FrameData_O[5] O
*I *1320:X O *D sg13g2_buf_1
*CAP
1 FrameData_O[5] 0.000529967
2 *1320:X 7.10856e-05
3 *62:8 0.000601053
4 FrameData_O[5] FrameData_O[6] 0
5 FrameData_O[5] *399:30 0
6 *62:8 *76:13 0.000112499
7 FrameData_O[4] FrameData_O[5] 0.00177672
8 FrameData_O[4] *62:8 0
9 *423:A FrameData_O[5] 0.000317061
10 *3:17 FrameData_O[5] 0.00130899
*RES
1 *1320:X *62:8 40.7519 
2 *62:8 FrameData_O[5] 10.4442 
*END

*D_NET *63 0.0010759
*CONN
*P FrameData_O[6] O
*I *1321:X O *D sg13g2_buf_1
*CAP
1 FrameData_O[6] 0.000497951
2 *1321:X 0.000497951
3 FrameData_O[6] FrameData_O[7] 0
4 FrameData_O[6] FrameData_O[8] 0
5 FrameData_O[6] *391:10 0
6 FrameData_O[6] *420:8 0
7 FrameData_O[5] FrameData_O[6] 0
8 *423:A FrameData_O[6] 8.0001e-05
9 *1086:A FrameData_O[6] 0
*RES
1 *1321:X FrameData_O[6] 45.0367 
*END

*D_NET *64 0.000352958
*CONN
*P FrameData_O[7] O
*I *1322:X O *D sg13g2_buf_1
*CAP
1 FrameData_O[7] 0.000176479
2 *1322:X 0.000176479
3 FrameData_O[7] FrameData_O[8] 0
4 FrameData_O[7] FrameData_O[9] 0
5 FrameData_O[6] FrameData_O[7] 0
*RES
1 *1322:X FrameData_O[7] 41.9261 
*END

*D_NET *65 0.00114607
*CONN
*P FrameData_O[8] O
*I *1323:X O *D sg13g2_buf_1
*CAP
1 FrameData_O[8] 0.000573035
2 *1323:X 0.000573035
3 FrameData_O[8] FrameData_O[9] 0
4 FrameData_O[6] FrameData_O[8] 0
5 FrameData_O[7] FrameData_O[8] 0
6 *423:A FrameData_O[8] 0
*RES
1 *1323:X FrameData_O[8] 45.6753 
*END

*D_NET *66 0.00055354
*CONN
*P FrameData_O[9] O
*I *1324:X O *D sg13g2_buf_1
*CAP
1 FrameData_O[9] 0.00027677
2 *1324:X 0.00027677
3 FrameData_O[9] *367:12 0
4 FrameData_O[9] *398:10 0
5 FrameData_O[10] FrameData_O[9] 0
6 FrameData_O[7] FrameData_O[9] 0
7 FrameData_O[8] FrameData_O[9] 0
*RES
1 *1324:X FrameData_O[9] 42.987 
*END

*D_NET *67 0.0132049
*CONN
*P FrameStrobe[0] I
*I *1192:A I *D sg13g2_buf_1
*I *1191:A I *D sg13g2_buf_2
*CAP
1 FrameStrobe[0] 0.0017696
2 *1192:A 0
3 *1191:A 2.77263e-05
4 *67:34 0.000331766
5 *67:17 0.00115022
6 *67:9 0.00256033
7 *1191:A *1075:D 0
8 *67:9 *252:10 0.000287036
9 *67:9 *287:18 0.0013549
10 *67:9 *289:12 0.00310703
11 *67:9 *311:12 0
12 *67:9 *347:30 0
13 *67:17 *1034:S0 0
14 *67:17 *1055:A 0
15 *67:17 *1074:GATE 0
16 *67:17 *1075:D 0
17 *67:17 *1107:A 0
18 *67:17 *1141:A 0
19 *67:17 *267:8 0.000112426
20 *67:17 *267:78 0
21 *67:17 *271:8 0
22 *67:17 *285:8 0.000368429
23 *67:17 *319:28 0
24 *67:17 *331:16 0
25 *67:17 *368:14 0
26 *67:34 *1076:D 0.00023464
27 *67:34 *181:13 0
28 *67:34 *331:8 0.000975934
29 *67:34 *340:22 0.000924915
*RES
1 FrameStrobe[0] *67:9 43.9063 
2 *67:9 *67:17 27.4125 
3 *67:17 *1191:A 20.3502 
4 *67:17 *67:34 46.2109 
5 *67:34 *1192:A 20 
*END

*D_NET *68 0.00241248
*CONN
*P FrameStrobe[10] I
*I *1128:A I *D sg13g2_buf_1
*CAP
1 FrameStrobe[10] 0.000921637
2 *1128:A 0.000164417
3 *68:11 0.00108605
4 *1128:A *414:10 0.000240377
5 *68:11 *81:9 0
6 *68:11 *86:9 0
*RES
1 FrameStrobe[10] *68:11 48.4872 
2 *68:11 *1128:A 21.6171 
*END

*D_NET *69 0.00192861
*CONN
*P FrameStrobe[11] I
*I *1129:A I *D sg13g2_buf_1
*CAP
1 FrameStrobe[11] 0.000713529
2 *1129:A 0
3 *69:11 0.000713529
4 *69:11 *1119:A 0
5 *25:21 *69:11 0.000501547
6 *31:9 *69:11 0
*RES
1 FrameStrobe[11] *69:11 47.0349 
2 *69:11 *1129:A 20 
*END

*D_NET *70 0.00164607
*CONN
*P FrameStrobe[12] I
*I *1130:A I *D sg13g2_buf_1
*CAP
1 FrameStrobe[12] 0.000590892
2 *1130:A 0
3 *70:11 0.000590892
4 *70:11 *1122:A 0.000175693
5 *70:11 *1127:A 0
6 *25:21 *70:11 0.000288588
7 *31:9 *70:11 0
*RES
1 FrameStrobe[12] *70:11 46.0461 
2 *70:11 *1130:A 20 
*END

*D_NET *71 0.00104355
*CONN
*P FrameStrobe[13] I
*I *1131:A I *D sg13g2_buf_1
*CAP
1 FrameStrobe[13] 0.000521776
2 *1131:A 0.000521776
3 *1131:A *72:15 0
*RES
1 FrameStrobe[13] *1131:A 25.3045 
*END

*D_NET *72 0.00142084
*CONN
*P FrameStrobe[14] I
*I *1132:A I *D sg13g2_buf_1
*CAP
1 FrameStrobe[14] 0.000592642
2 *1132:A 0
3 *72:15 0.000592642
4 *72:15 *1133:A 0
5 *72:15 *83:9 0.000235556
6 *1131:A *72:15 0
*RES
1 FrameStrobe[14] *72:15 46.4993 
2 *72:15 *1132:A 20 
*END

*D_NET *73 0.00236535
*CONN
*P FrameStrobe[15] I
*I *1133:A I *D sg13g2_buf_1
*CAP
1 FrameStrobe[15] 0.000743763
2 *1133:A 0.000350852
3 *73:15 0.00109461
4 *1133:A *406:12 0
5 *1133:A *409:16 0
6 *73:15 *74:13 0.000176118
7 *73:15 *399:30 0
8 *3:17 *73:15 0
9 *72:15 *1133:A 0
*RES
1 FrameStrobe[15] *73:15 47.3954 
2 *73:15 *1133:A 23.3475 
*END

*D_NET *74 0.00191228
*CONN
*P FrameStrobe[16] I
*I *1134:A I *D sg13g2_buf_1
*CAP
1 FrameStrobe[16] 0.000868081
2 *1134:A 0
3 *74:13 0.000868081
4 *74:13 *1124:A 0
5 *74:13 *1135:A 0
6 *74:13 *75:11 0
7 *74:13 *399:30 0
8 *73:15 *74:13 0.000176118
*RES
1 FrameStrobe[16] *74:13 48.8683 
2 *74:13 *1134:A 20 
*END

*D_NET *75 0.0058013
*CONN
*P FrameStrobe[17] I
*I *1135:A I *D sg13g2_buf_1
*CAP
1 FrameStrobe[17] 0.000895787
2 *1135:A 0.00200486
3 *75:11 0.00290065
4 *75:11 *1124:A 0
5 *75:11 *399:30 0
6 *3:17 *75:11 0
7 *74:13 *1135:A 0
8 *74:13 *75:11 0
*RES
1 FrameStrobe[17] *75:11 49.7232 
2 *75:11 *1135:A 40.1983 
*END

*D_NET *76 0.00612837
*CONN
*P FrameStrobe[18] I
*I *1136:A I *D sg13g2_buf_1
*CAP
1 FrameStrobe[18] 0.00111012
2 *1136:A 0
3 *76:17 0.00140149
4 *76:13 0.00251161
5 *76:13 *1315:A 0
6 *76:13 *77:13 0.00099265
7 *76:17 *419:8 0
8 FrameData_O[2] *76:13 0
9 *7:21 *76:13 0
10 *62:8 *76:13 0.000112499
*RES
1 FrameStrobe[18] *76:13 33.1737 
2 *76:13 *76:17 34.3788 
3 *76:17 *1136:A 20 
*END

*D_NET *77 0.00931128
*CONN
*P FrameStrobe[19] I
*I *1137:A I *D sg13g2_buf_1
*CAP
1 FrameStrobe[19] 0.00247775
2 *1137:A 0
3 *77:17 0.00165004
4 *77:13 0.00412779
5 *77:13 *1315:A 0
6 *77:13 *1318:A 0
7 *77:13 *420:8 0
8 *77:17 FrameStrobe_O[16] 4.77425e-05
9 *77:17 *406:12 0
10 *77:17 *407:14 0
11 *77:17 *408:8 0
12 FrameData_O[0] *77:13 0
13 FrameData_O[1] *77:13 1.53099e-05
14 FrameData_O[3] *77:13 0
15 *7:21 *77:13 0
16 *32:19 *77:13 0
17 *76:13 *77:13 0.00099265
*RES
1 FrameStrobe[19] *77:13 48.2838 
2 *77:13 *77:17 34.5951 
3 *77:17 *1137:A 20 
*END

*D_NET *78 0.013643
*CONN
*P FrameStrobe[1] I
*I *1119:A I *D sg13g2_buf_1
*CAP
1 FrameStrobe[1] 8.81768e-05
2 *1119:A 0.000242748
3 *78:9 0.00397904
4 *78:7 0.00382447
5 *1119:A *1127:A 0
6 *78:9 *79:13 0
7 *78:9 *80:13 0
8 *78:9 *82:11 0
9 *78:9 *83:9 0.00450633
10 *78:9 *84:11 0.0010022
11 *78:9 *84:13 0
12 *78:9 *215:9 0
13 *78:9 *270:20 0
14 *78:9 *399:30 0
15 *3:9 *78:9 0
16 *69:11 *1119:A 0
*RES
1 FrameStrobe[1] *78:7 20.8137 
2 *78:7 *78:9 40.6438 
3 *78:9 *1119:A 42.266 
*END

*D_NET *79 0.00212409
*CONN
*P FrameStrobe[2] I
*I *1120:A I *D sg13g2_buf_1
*CAP
1 FrameStrobe[2] 0.000944519
2 *1120:A 0
3 *79:13 0.000944519
4 *79:13 *80:13 0.000235055
5 *79:13 *270:20 0
6 *79:13 *271:8 0
7 *78:9 *79:13 0
*RES
1 FrameStrobe[2] *79:13 49.8571 
2 *79:13 *1120:A 20 
*END

*D_NET *80 0.00207757
*CONN
*P FrameStrobe[3] I
*I *1121:A I *D sg13g2_buf_1
*CAP
1 FrameStrobe[3] 0.00092126
2 *1121:A 0
3 *80:13 0.00092126
4 *80:13 *81:7 0
5 *80:13 *270:20 0
6 *78:9 *80:13 0
7 *79:13 *80:13 0.000235055
*RES
1 FrameStrobe[3] *80:13 49.8571 
2 *80:13 *1121:A 20 
*END

*D_NET *81 0.00789973
*CONN
*P FrameStrobe[4] I
*I *1122:A I *D sg13g2_buf_1
*CAP
1 FrameStrobe[4] 0.000372147
2 *1122:A 0.00012524
3 *81:9 0.00348987
4 *81:7 0.00373678
5 *81:9 *85:11 0
6 *81:9 *86:9 0
7 *81:9 *270:20 0
8 *81:9 *399:30 0
9 *3:17 *81:9 0
10 *31:5 *81:9 0
11 *68:11 *81:9 0
12 *70:11 *1122:A 0.000175693
13 *80:13 *81:7 0
*RES
1 FrameStrobe[4] *81:7 23.6256 
2 *81:7 *81:9 31.9918 
3 *81:9 *1122:A 41.1845 
*END

*D_NET *82 0.00290586
*CONN
*P FrameStrobe[5] I
*I *1123:A I *D sg13g2_buf_1
*CAP
1 FrameStrobe[5] 0.00107234
2 *1123:A 0.000380591
3 *82:11 0.00145293
4 *1123:A *1126:A 0
5 *1123:A *215:15 0
6 *82:11 *399:30 0
7 *78:9 *82:11 0
*RES
1 FrameStrobe[5] *82:11 48.5181 
2 *82:11 *1123:A 23.5638 
*END

*D_NET *83 0.0121984
*CONN
*P FrameStrobe[6] I
*I *1124:A I *D sg13g2_buf_1
*CAP
1 FrameStrobe[6] 6.44044e-05
2 *1124:A 0.00044563
3 *83:9 0.00366383
4 *83:7 0.00328261
5 *83:9 *84:13 0
6 *83:9 *215:9 0
7 *72:15 *83:9 0.000235556
8 *74:13 *1124:A 0
9 *75:11 *1124:A 0
10 *78:9 *83:9 0.00450633
*RES
1 FrameStrobe[6] *83:7 20.5974 
2 *83:7 *83:9 41.8798 
3 *83:9 *1124:A 44.2127 
*END

*D_NET *84 0.0134003
*CONN
*P FrameStrobe[7] I
*I *1125:A I *D sg13g2_buf_1
*CAP
1 FrameStrobe[7] 0.000460845
2 *1125:A 0.000210249
3 *84:13 0.00540747
4 *84:11 0.00565806
5 *1125:A *1323:A 0
6 *1125:A *420:8 0
7 *84:11 *399:30 0
8 *84:13 *399:30 0
9 FrameData_O[0] *1125:A 0
10 FrameData_O[1] *84:13 0.000661471
11 *78:9 *84:11 0.0010022
12 *78:9 *84:13 0
13 *83:9 *84:13 0
*RES
1 FrameStrobe[7] *84:11 25.9946 
2 *84:11 *84:13 45.4951 
3 *84:13 *1125:A 41.8334 
*END

*D_NET *85 0.00220437
*CONN
*P FrameStrobe[8] I
*I *1126:A I *D sg13g2_buf_1
*CAP
1 FrameStrobe[8] 0.000870986
2 *1126:A 0.000231198
3 *85:11 0.00110218
4 *85:11 *215:15 0
5 *85:11 *399:30 0
6 *1123:A *1126:A 0
7 *3:15 *1126:A 0
8 *81:9 *85:11 0
*RES
1 FrameStrobe[8] *85:11 49.3215 
2 *85:11 *1126:A 22.266 
*END

*D_NET *86 0.00313949
*CONN
*P FrameStrobe[9] I
*I *1127:A I *D sg13g2_buf_1
*CAP
1 FrameStrobe[9] 0.00129814
2 *1127:A 0.000271611
3 *86:9 0.00156975
4 *1127:A *414:10 0
5 *86:9 *399:30 0
6 *1119:A *1127:A 0
7 *68:11 *86:9 0
8 *70:11 *1127:A 0
9 *81:9 *86:9 0
*RES
1 FrameStrobe[9] *86:9 33.5548 
2 *86:9 *1127:A 42.4823 
*END

*D_NET *87 0.000872922
*CONN
*P FrameStrobe_O[0] O
*I *1325:X O *D sg13g2_buf_1
*CAP
1 FrameStrobe_O[0] 0.000363968
2 *1325:X 0.000363968
3 FrameStrobe_O[0] FrameStrobe_O[1] 0
4 FrameStrobe_O[0] FrameStrobe_O[2] 0.000144985
5 FrameStrobe_O[0] UserCLKo 0
*RES
1 *1325:X FrameStrobe_O[0] 23.708 
*END

*D_NET *88 0.00109161
*CONN
*P FrameStrobe_O[10] O
*I *1326:X O *D sg13g2_buf_1
*CAP
1 FrameStrobe_O[10] 0.000328713
2 *1326:X 0.000177372
3 *88:8 0.000506084
4 FrameStrobe_O[10] FrameStrobe_O[11] 0
5 FrameStrobe_O[10] FrameStrobe_O[9] 0
6 FrameStrobe_O[10] *103:10 7.94445e-05
7 *88:8 *90:10 0
*RES
1 *1326:X *88:8 41.8334 
2 *88:8 FrameStrobe_O[10] 22.7604 
*END

*D_NET *89 0.00135946
*CONN
*P FrameStrobe_O[11] O
*I *1327:X O *D sg13g2_buf_1
*CAP
1 FrameStrobe_O[11] 0.00059115
2 *1327:X 0.00059115
3 FrameStrobe_O[11] FrameStrobe_O[12] 0
4 FrameStrobe_O[11] FrameStrobe_O[13] 0
5 FrameStrobe_O[11] FrameStrobe_O[9] 0
6 FrameStrobe_O[11] *1343:A 0
7 FrameStrobe_O[11] *105:10 0.000177157
8 FrameStrobe_O[11] *419:20 0
9 FrameStrobe_O[10] FrameStrobe_O[11] 0
*RES
1 *1327:X FrameStrobe_O[11] 25.2736 
*END

*D_NET *90 0.00141081
*CONN
*P FrameStrobe_O[12] O
*I *1328:X O *D sg13g2_buf_1
*CAP
1 FrameStrobe_O[12] 0.000219634
2 *1328:X 0.000226195
3 *90:10 0.000445828
4 FrameStrobe_O[12] FrameStrobe_O[13] 0
5 FrameStrobe_O[12] *105:10 4.77699e-05
6 *90:10 FrameStrobe_O[15] 0.000144842
7 *90:10 FrameStrobe_O[16] 0.000144842
8 *90:10 *92:10 0.000181694
9 *90:10 *405:16 0
10 FrameStrobe_O[11] FrameStrobe_O[12] 0
11 *88:8 *90:10 0
*RES
1 *1328:X *90:10 42.8016 
2 *90:10 FrameStrobe_O[12] 21.8952 
*END

*D_NET *91 0.00119904
*CONN
*P FrameStrobe_O[13] O
*I *1329:X O *D sg13g2_buf_1
*CAP
1 FrameStrobe_O[13] 0.000599518
2 *1329:X 0.000599518
3 FrameStrobe_O[13] FrameStrobe_O[14] 0
4 FrameStrobe_O[13] FrameStrobe_O[15] 0
5 FrameStrobe_O[13] *1326:A 0
6 FrameStrobe_O[13] *1343:A 0
7 FrameStrobe_O[13] *105:10 0
8 FrameStrobe_O[11] FrameStrobe_O[13] 0
9 FrameStrobe_O[12] FrameStrobe_O[13] 0
*RES
1 *1329:X FrameStrobe_O[13] 24.8072 
*END

*D_NET *92 0.00140515
*CONN
*P FrameStrobe_O[14] O
*I *1330:X O *D sg13g2_buf_1
*CAP
1 FrameStrobe_O[14] 0.000199484
2 *1330:X 0.000251916
3 *92:10 0.0004514
4 FrameStrobe_O[14] FrameStrobe_O[15] 0
5 *92:10 FrameStrobe_O[16] 0
6 *92:10 FrameStrobe_O[17] 0.000144142
7 *92:10 FrameStrobe_O[18] 0.000176511
8 FrameStrobe_O[13] FrameStrobe_O[14] 0
9 *90:10 *92:10 0.000181694
*RES
1 *1330:X *92:10 43.0179 
2 *92:10 FrameStrobe_O[14] 21.6789 
*END

*D_NET *93 0.0014387
*CONN
*P FrameStrobe_O[15] O
*I *1331:X O *D sg13g2_buf_1
*CAP
1 FrameStrobe_O[15] 0.000400669
2 *1331:X 0.000246261
3 *93:8 0.00064693
4 FrameStrobe_O[15] FrameStrobe_O[16] 0
5 FrameStrobe_O[15] *1326:A 0
6 *93:8 *95:10 0
7 *93:8 *405:16 0
8 *93:8 *407:28 0
9 FrameStrobe_O[13] FrameStrobe_O[15] 0
10 FrameStrobe_O[14] FrameStrobe_O[15] 0
11 *90:10 FrameStrobe_O[15] 0.000144842
*RES
1 *1331:X *93:8 42.3278 
2 *93:8 FrameStrobe_O[15] 23.6256 
*END

*D_NET *94 0.00209766
*CONN
*P FrameStrobe_O[16] O
*I *1332:X O *D sg13g2_buf_1
*CAP
1 FrameStrobe_O[16] 0.000583847
2 *1332:X 9.11327e-05
3 *94:10 0.00067498
4 FrameStrobe_O[16] FrameStrobe_O[17] 0
5 FrameStrobe_O[16] FrameStrobe_O[18] 0
6 FrameStrobe_O[16] *1326:A 0
7 FrameStrobe_O[16] *405:16 0.000112228
8 FrameStrobe_O[16] *407:14 0
9 *94:10 *389:28 0.000181192
10 *94:10 *393:22 0.000181608
11 *94:10 *407:14 8.00842e-05
12 FrameStrobe_O[15] FrameStrobe_O[16] 0
13 *77:17 FrameStrobe_O[16] 4.77425e-05
14 *90:10 FrameStrobe_O[16] 0.000144842
15 *92:10 FrameStrobe_O[16] 0
*RES
1 *1332:X *94:10 41.3802 
2 *94:10 FrameStrobe_O[16] 25.356 
*END

*D_NET *95 0.00144983
*CONN
*P FrameStrobe_O[17] O
*I *1333:X O *D sg13g2_buf_1
*CAP
1 FrameStrobe_O[17] 0.00028913
2 *1333:X 0.000219289
3 *95:10 0.00050842
4 FrameStrobe_O[17] FrameStrobe_O[18] 0
5 *95:10 *97:8 0.000288852
6 FrameStrobe_O[16] FrameStrobe_O[17] 0
7 *92:10 FrameStrobe_O[17] 0.000144142
8 *93:8 *95:10 0
*RES
1 *1333:X *95:10 42.6471 
2 *95:10 FrameStrobe_O[17] 22.5441 
*END

*D_NET *96 0.00168959
*CONN
*P FrameStrobe_O[18] O
*I *1334:X O *D sg13g2_buf_1
*CAP
1 FrameStrobe_O[18] 0.000700427
2 *1334:X 0.000700427
3 FrameStrobe_O[18] FrameStrobe_O[19] 0
4 FrameStrobe_O[18] *1334:A 0
5 FrameStrobe_O[18] *405:16 0.000112228
6 FrameStrobe_O[18] *407:28 0
7 FrameStrobe_O[18] *408:18 0
8 FrameStrobe_O[16] FrameStrobe_O[18] 0
9 FrameStrobe_O[17] FrameStrobe_O[18] 0
10 *92:10 FrameStrobe_O[18] 0.000176511
*RES
1 *1334:X FrameStrobe_O[18] 27.2718 
*END

*D_NET *97 0.00122457
*CONN
*P FrameStrobe_O[19] O
*I *1335:X O *D sg13g2_buf_1
*CAP
1 FrameStrobe_O[19] 0.000300559
2 *1335:X 0.0001673
3 *97:8 0.000467859
4 FrameStrobe_O[18] FrameStrobe_O[19] 0
5 *95:10 *97:8 0.000288852
*RES
1 *1335:X *97:8 42.3278 
2 *97:8 FrameStrobe_O[19] 22.7604 
*END

*D_NET *98 0.0011605
*CONN
*P FrameStrobe_O[1] O
*I *1336:X O *D sg13g2_buf_1
*CAP
1 FrameStrobe_O[1] 0.000173734
2 *1336:X 0.000245384
3 *98:10 0.000419118
4 FrameStrobe_O[1] FrameStrobe_O[2] 0
5 *98:10 FrameStrobe_O[3] 0.000209614
6 *98:10 FrameStrobe_O[4] 0.000112648
7 *98:10 FrameStrobe_O[5] 0
8 *98:10 *414:16 0
9 FrameStrobe_O[0] FrameStrobe_O[1] 0
*RES
1 *1336:X *98:10 42.7398 
2 *98:10 FrameStrobe_O[1] 21.4626 
*END

*D_NET *99 0.00113549
*CONN
*P FrameStrobe_O[2] O
*I *1337:X O *D sg13g2_buf_1
*CAP
1 FrameStrobe_O[2] 0.000308959
2 *1337:X 0.000186291
3 *99:8 0.000495251
4 FrameStrobe_O[2] FrameStrobe_O[3] 0
5 *99:8 *101:10 0
6 *99:8 *414:16 0
7 FrameStrobe_O[0] FrameStrobe_O[2] 0.000144985
8 FrameStrobe_O[1] FrameStrobe_O[2] 0
*RES
1 *1337:X *99:8 41.8334 
2 *99:8 FrameStrobe_O[2] 22.7604 
*END

*D_NET *100 0.00144951
*CONN
*P FrameStrobe_O[3] O
*I *1338:X O *D sg13g2_buf_1
*CAP
1 FrameStrobe_O[3] 0.000547841
2 *1338:X 0.000547841
3 FrameStrobe_O[3] FrameStrobe_O[4] 0
4 FrameStrobe_O[3] FrameStrobe_O[5] 0
5 FrameStrobe_O[3] *1325:A 0.000144217
6 FrameStrobe_O[3] *205:11 0
7 FrameStrobe_O[3] *330:14 0
8 FrameStrobe_O[3] *405:8 0
9 FrameStrobe_O[2] FrameStrobe_O[3] 0
10 *98:10 FrameStrobe_O[3] 0.000209614
*RES
1 *1338:X FrameStrobe_O[3] 25.2736 
*END

*D_NET *101 0.00135246
*CONN
*P FrameStrobe_O[4] O
*I *1339:X O *D sg13g2_buf_1
*CAP
1 FrameStrobe_O[4] 0.000237102
2 *1339:X 0.000236592
3 *101:10 0.000473695
4 FrameStrobe_O[4] FrameStrobe_O[5] 0
5 *101:10 FrameStrobe_O[7] 0.000111229
6 *101:10 FrameStrobe_O[9] 0
7 *101:10 *103:10 0.000181192
8 FrameStrobe_O[3] FrameStrobe_O[4] 0
9 *98:10 FrameStrobe_O[4] 0.000112648
10 *99:8 *101:10 0
*RES
1 *1339:X *101:10 42.5853 
2 *101:10 FrameStrobe_O[4] 22.1115 
*END

*D_NET *102 0.00120868
*CONN
*P FrameStrobe_O[5] O
*I *1340:X O *D sg13g2_buf_1
*CAP
1 FrameStrobe_O[5] 0.000604338
2 *1340:X 0.000604338
3 FrameStrobe_O[5] FrameStrobe_O[6] 0
4 FrameStrobe_O[5] FrameStrobe_O[7] 0
5 FrameStrobe_O[5] *1337:A 0
6 FrameStrobe_O[5] *405:8 0
7 FrameStrobe_O[3] FrameStrobe_O[5] 0
8 FrameStrobe_O[4] FrameStrobe_O[5] 0
9 *98:10 FrameStrobe_O[5] 0
*RES
1 *1340:X FrameStrobe_O[5] 24.8072 
*END

*D_NET *103 0.0013194
*CONN
*P FrameStrobe_O[6] O
*I *1341:X O *D sg13g2_buf_1
*CAP
1 FrameStrobe_O[6] 0.000286449
2 *1341:X 0.000203209
3 *103:10 0.000489659
4 FrameStrobe_O[6] FrameStrobe_O[7] 0
5 *103:10 FrameStrobe_O[9] 7.94445e-05
6 *103:10 *105:10 0
7 FrameStrobe_O[10] *103:10 7.94445e-05
8 FrameStrobe_O[5] FrameStrobe_O[6] 0
9 *101:10 *103:10 0.000181192
*RES
1 *1341:X *103:10 42.369 
2 *103:10 FrameStrobe_O[6] 22.3278 
*END

*D_NET *104 0.00130196
*CONN
*P FrameStrobe_O[7] O
*I *1342:X O *D sg13g2_buf_1
*CAP
1 FrameStrobe_O[7] 0.000595367
2 *1342:X 0.000595367
3 FrameStrobe_O[7] FrameStrobe_O[8] 0
4 FrameStrobe_O[7] FrameStrobe_O[9] 0
5 FrameStrobe_O[7] *1337:A 0
6 FrameStrobe_O[7] *417:16 0
7 FrameStrobe_O[5] FrameStrobe_O[7] 0
8 FrameStrobe_O[6] FrameStrobe_O[7] 0
9 *101:10 FrameStrobe_O[7] 0.000111229
*RES
1 *1342:X FrameStrobe_O[7] 25.2736 
*END

*D_NET *105 0.00120125
*CONN
*P FrameStrobe_O[8] O
*I *1343:X O *D sg13g2_buf_1
*CAP
1 FrameStrobe_O[8] 0.000199229
2 *1343:X 0.000288931
3 *105:10 0.000488159
4 FrameStrobe_O[8] FrameStrobe_O[9] 0
5 FrameStrobe_O[11] *105:10 0.000177157
6 FrameStrobe_O[12] *105:10 4.77699e-05
7 FrameStrobe_O[13] *105:10 0
8 FrameStrobe_O[7] FrameStrobe_O[8] 0
9 *103:10 *105:10 0
*RES
1 *1343:X *105:10 43.0179 
2 *105:10 FrameStrobe_O[8] 21.6789 
*END

*D_NET *106 0.00128447
*CONN
*P FrameStrobe_O[9] O
*I *1344:X O *D sg13g2_buf_1
*CAP
1 FrameStrobe_O[9] 0.000602515
2 *1344:X 0.000602515
3 FrameStrobe_O[9] *417:16 0
4 FrameStrobe_O[9] *419:20 0
5 FrameStrobe_O[10] FrameStrobe_O[9] 0
6 FrameStrobe_O[11] FrameStrobe_O[9] 0
7 FrameStrobe_O[7] FrameStrobe_O[9] 0
8 FrameStrobe_O[8] FrameStrobe_O[9] 0
9 *101:10 FrameStrobe_O[9] 0
10 *103:10 FrameStrobe_O[9] 7.94445e-05
*RES
1 *1344:X FrameStrobe_O[9] 25.2736 
*END

*D_NET *107 0.000479119
*CONN
*P IRQ_top0 O
*I *1345:X O *D sg13g2_buf_1
*CAP
1 IRQ_top0 0.000239559
2 *1345:X 0.000239559
*RES
1 *1345:X IRQ_top0 22.678 
*END

*D_NET *108 0.000479119
*CONN
*P IRQ_top1 O
*I *1346:X O *D sg13g2_buf_1
*CAP
1 IRQ_top1 0.000239559
2 *1346:X 0.000239559
*RES
1 *1346:X IRQ_top1 22.678 
*END

*D_NET *109 0.000485132
*CONN
*P IRQ_top2 O
*I *1238:X O *D sg13g2_buf_1
*CAP
1 IRQ_top2 0.000242566
2 *1238:X 0.000242566
*RES
1 *1238:X IRQ_top2 22.678 
*END

*D_NET *110 0.000485132
*CONN
*P IRQ_top3 O
*I *1239:X O *D sg13g2_buf_1
*CAP
1 IRQ_top3 0.000242566
2 *1239:X 0.000242566
*RES
1 *1239:X IRQ_top3 22.678 
*END

*D_NET *111 0.00229546
*CONN
*P N1BEG[0] O
*I *1240:X O *D sg13g2_buf_1
*CAP
1 N1BEG[0] 0.00075131
2 *1240:X 0.000285733
3 *111:12 0.00103704
4 N1BEG[0] N1BEG[1] 0
5 N1BEG[0] *1268:A 0.000112569
6 N1BEG[0] *287:18 8.00842e-05
7 N1BEG[0] *307:24 0
8 *111:12 *182:25 2.87256e-05
9 *111:12 *278:10 0
*RES
1 *1240:X *111:12 42.7501 
2 *111:12 N1BEG[0] 26.9731 
*END

*D_NET *112 0.00265483
*CONN
*P N1BEG[1] O
*I *1241:X O *D sg13g2_buf_1
*CAP
1 N1BEG[1] 0.000856244
2 *1241:X 0.000135754
3 *112:10 0.000991997
4 N1BEG[1] N1BEG[2] 8.00842e-05
5 N1BEG[1] *1258:A 7.98942e-05
6 N1BEG[1] *116:10 4.75151e-05
7 N1BEG[1] *120:14 0
8 N1BEG[1] *142:8 0.000112501
9 N1BEG[1] *287:18 0
10 N1BEG[1] *307:24 1.54008e-05
11 *112:10 *1248:A 4.77699e-05
12 *112:10 *1252:A 0.000287672
13 *112:10 *181:29 0
14 *112:10 *278:10 0
15 N1BEG[0] N1BEG[1] 0
*RES
1 *1241:X *112:10 41.6583 
2 *112:10 N1BEG[1] 27.7765 
*END

*D_NET *113 0.00269936
*CONN
*P N1BEG[2] O
*I *1242:X O *D sg13g2_buf_1
*CAP
1 N1BEG[2] 0.00104612
2 *1242:X 0.00104612
3 N1BEG[2] N1BEG[3] 0
4 N1BEG[2] *120:14 1.54008e-05
5 N1BEG[2] *120:22 0.000111567
6 N1BEG[2] *125:12 0
7 N1BEG[2] *129:8 8.00842e-05
8 N1BEG[2] *140:20 0
9 N1BEG[2] *142:8 0.0001118
10 N1BEG[2] *283:14 0
11 N1BEG[2] *287:18 0
12 N1BEG[2] *288:16 0.000208178
13 N1BEG[1] N1BEG[2] 8.00842e-05
*RES
1 *1242:X N1BEG[2] 29.5069 
*END

*D_NET *114 0.0032152
*CONN
*P N1BEG[3] O
*I *1243:X O *D sg13g2_buf_1
*CAP
1 N1BEG[3] 0.000294688
2 *1243:X 0.000528737
3 *114:8 0.000823425
4 N1BEG[3] N2BEG[0] 0
5 N1BEG[3] *120:22 7.9225e-05
6 N1BEG[3] *144:14 0.000337402
7 *114:8 *115:10 0.000814416
8 *114:8 *268:16 0
9 *114:8 *301:16 0
10 *114:8 *307:24 0.000337302
11 N1BEG[2] N1BEG[3] 0
*RES
1 *1243:X *114:8 46.0358 
2 *114:8 N1BEG[3] 22.7604 
*END

*D_NET *115 0.00359316
*CONN
*P N2BEG[0] O
*I *1244:X O *D sg13g2_buf_1
*CAP
1 N2BEG[0] 0.000284873
2 *1244:X 0.000595146
3 *115:10 0.000880019
4 N2BEG[0] N2BEG[1] 0
5 N2BEG[0] *144:14 0.000305175
6 *115:10 *1252:A 0.000242301
7 *115:10 *120:22 0.000181192
8 *115:10 *123:10 4.77347e-05
9 *115:10 *292:14 0.000242301
10 *115:10 *301:16 0
11 *115:10 *307:24 0
12 N1BEG[3] N2BEG[0] 0
13 *114:8 *115:10 0.000814416
*RES
1 *1244:X *115:10 46.7877 
2 *115:10 N2BEG[0] 22.5441 
*END

*D_NET *116 0.00338006
*CONN
*P N2BEG[1] O
*I *1245:X O *D sg13g2_buf_1
*CAP
1 N2BEG[1] 0.000805315
2 *1245:X 0.000140485
3 *116:10 0.0009458
4 N2BEG[1] N2BEG[2] 8.00842e-05
5 N2BEG[1] *120:22 0
6 N2BEG[1] *140:20 0.00011101
7 N2BEG[1] *146:10 0.000144169
8 N2BEG[1] *311:26 0.000112533
9 *116:10 *1252:A 0.000496652
10 *116:10 *119:10 0.000496497
11 N1BEG[1] *116:10 4.75151e-05
12 N2BEG[0] N2BEG[1] 0
*RES
1 *1245:X *116:10 42.6471 
2 *116:10 N2BEG[1] 27.3439 
*END

*D_NET *117 0.00321587
*CONN
*P N2BEG[2] O
*I *1246:X O *D sg13g2_buf_1
*CAP
1 N2BEG[2] 0.00101848
2 *1246:X 5.27342e-05
3 *117:8 0.00107121
4 N2BEG[2] N2BEG[3] 0
5 N2BEG[2] *1259:A 0.000208037
6 N2BEG[2] *119:22 0.000160196
7 N2BEG[2] *133:8 0
8 N2BEG[2] *146:10 0.000144142
9 N2BEG[2] *297:36 0.0001447
10 N2BEG[2] *311:12 0.000208037
11 *117:8 *282:14 0
12 *117:8 *288:16 0.000128247
13 N2BEG[1] N2BEG[2] 8.00842e-05
*RES
1 *1246:X *117:8 40.5974 
2 *117:8 N2BEG[2] 29.5069 
*END

*D_NET *118 0.0024316
*CONN
*P N2BEG[3] O
*I *1247:X O *D sg13g2_buf_1
*CAP
1 N2BEG[3] 4.78087e-05
2 *1247:X 0.000960183
3 *118:10 0.00100799
4 N2BEG[3] N2BEG[4] 0
5 *118:10 *123:10 0
6 *118:10 *128:8 0
7 *118:10 *144:14 0.000393514
8 *118:10 *179:19 2.20966e-05
9 *118:10 *180:25 0
10 N2BEG[2] N2BEG[3] 0
*RES
1 *1247:X *118:10 49.5069 
2 *118:10 N2BEG[3] 20.3811 
*END

*D_NET *119 0.00451371
*CONN
*P N2BEG[4] O
*I *1248:X O *D sg13g2_buf_1
*CAP
1 N2BEG[4] 0.000292661
2 *1248:X 0.000426686
3 *119:22 0.000817991
4 *119:10 0.000952016
5 N2BEG[4] *135:10 0.000369553
6 N2BEG[4] *306:30 4.75151e-05
7 *119:10 *1240:A 0
8 *119:10 *1248:A 8.01576e-05
9 *119:10 *1252:A 0
10 *119:10 *124:12 0.000334192
11 *119:10 *286:16 0.000127878
12 *119:10 *287:18 0
13 *119:22 *1274:A 6.919e-05
14 *119:22 *120:22 0
15 *119:22 *133:8 1.54008e-05
16 *119:22 *297:36 0.0001447
17 *119:22 *306:30 0
18 *119:22 *307:24 0.000179079
19 N2BEG[2] *119:22 0.000160196
20 N2BEG[3] N2BEG[4] 0
21 *116:10 *119:10 0.000496497
*RES
1 *1248:X *119:10 44.841 
2 *119:10 *119:22 44.8616 
3 *119:22 N2BEG[4] 22.7604 
*END

*D_NET *120 0.00424802
*CONN
*P N2BEG[5] O
*I *1249:X O *D sg13g2_buf_1
*CAP
1 N2BEG[5] 0.000221678
2 *1249:X 0.00035864
3 *120:22 0.000755206
4 *120:14 0.000892168
5 N2BEG[5] N2BEG[6] 0.000208593
6 N2BEG[5] *135:10 0.000305618
7 *120:14 N4BEG[5] 0.000178206
8 *120:14 *1240:A 0
9 *120:14 *1258:A 8.00842e-05
10 *120:14 *129:8 8.00842e-05
11 *120:14 *305:22 0
12 *120:22 *130:16 7.33256e-05
13 *120:22 *301:16 0.00070703
14 *120:22 *307:24 0
15 *120:22 *311:26 0
16 N1BEG[1] *120:14 0
17 N1BEG[2] *120:14 1.54008e-05
18 N1BEG[2] *120:22 0.000111567
19 N1BEG[3] *120:22 7.9225e-05
20 N2BEG[1] *120:22 0
21 *115:10 *120:22 0.000181192
22 *119:22 *120:22 0
*RES
1 *1249:X *120:14 43.3475 
2 *120:14 *120:22 45.7989 
3 *120:22 N2BEG[5] 22.3278 
*END

*D_NET *121 0.00469478
*CONN
*P N2BEG[6] O
*I *1250:X O *D sg13g2_buf_1
*CAP
1 N2BEG[6] 0.000469119
2 *1250:X 0.000142501
3 *121:18 0.00119567
4 *121:10 0.00086905
5 N2BEG[6] N2BEG[7] 0
6 N2BEG[6] *132:18 4.77425e-05
7 *121:10 *297:22 0.000143238
8 *121:10 *297:30 7.33256e-05
9 *121:10 *311:12 0.000175582
10 *121:18 N2BEGb[5] 0.000338485
11 *121:18 N4BEG[11] 0.000286948
12 *121:18 *129:14 0
13 *121:18 *130:16 0
14 *121:18 *296:16 0
15 *121:18 *297:30 0.000502111
16 *121:18 *309:26 0.000242419
17 *121:18 *311:20 0
18 N2BEG[5] N2BEG[6] 0.000208593
*RES
1 *1250:X *121:10 41.5347 
2 *121:10 *121:18 48.1782 
3 *121:18 N2BEG[6] 25.3766 
*END

*D_NET *122 0.00358787
*CONN
*P N2BEG[7] O
*I *1251:X O *D sg13g2_buf_1
*CAP
1 N2BEG[7] 0.00132812
2 *1251:X 0.00132812
3 N2BEG[7] *1138:A 8.00842e-05
4 N2BEG[7] *1256:A 0
5 N2BEG[7] *1263:A 0.000240569
6 N2BEG[7] *132:18 6.71162e-05
7 N2BEG[7] *137:8 8.0017e-05
8 N2BEG[7] *299:34 0
9 N2BEG[7] *301:16 0.000208035
10 N2BEG[7] *301:18 0.000208062
11 N2BEG[7] *339:66 4.77425e-05
12 N2BEG[6] N2BEG[7] 0
*RES
1 *1251:X N2BEG[7] 31.9068 
*END

*D_NET *123 0.00512005
*CONN
*P N2BEGb[0] O
*I *1252:X O *D sg13g2_buf_1
*CAP
1 N2BEGb[0] 0.000242359
2 *1252:X 0.000500898
3 *123:10 0.000743257
4 *123:10 *128:8 0
5 *123:10 *146:20 0
6 *123:10 *301:16 0.00176784
7 *123:10 *412:22 0.00181795
8 *115:10 *123:10 4.77347e-05
9 *118:10 *123:10 0
*RES
1 *1252:X *123:10 49.476 
2 *123:10 N2BEGb[0] 21.8952 
*END

*D_NET *124 0.00477371
*CONN
*P N2BEGb[1] O
*I *1253:X O *D sg13g2_buf_1
*CAP
1 N2BEGb[1] 0.000799229
2 *1253:X 0.000537253
3 *124:12 0.00133648
4 N2BEGb[1] *127:16 7.86681e-05
5 N2BEGb[1] *300:34 8.00842e-05
6 N2BEGb[1] *301:16 0.00020814
7 *124:12 *1240:A 0
8 *124:12 *134:8 7.48209e-05
9 *124:12 *143:8 0.000438885
10 *124:12 *286:16 0.0005986
11 *124:12 *293:20 0.00028736
12 *119:10 *124:12 0.000334192
*RES
1 *1253:X *124:12 46.7053 
2 *124:12 N2BEGb[1] 26.9113 
*END

*D_NET *125 0.00489302
*CONN
*P N2BEGb[2] O
*I *1254:X O *D sg13g2_buf_1
*CAP
1 N2BEGb[2] 0.000886312
2 *1254:X 0.000507915
3 *125:12 0.00139423
4 N2BEGb[2] *127:16 0.000319045
5 N2BEGb[2] *136:10 4.75166e-05
6 N2BEGb[2] *155:10 4.77425e-05
7 N2BEGb[2] *343:36 7.98567e-05
8 *125:12 *1252:A 0.000126358
9 *125:12 *1259:A 7.99213e-05
10 *125:12 *130:8 0.000338218
11 *125:12 *140:20 0.000678043
12 *125:12 *286:16 0
13 *125:12 *288:16 0
14 *125:12 *298:8 0.000387865
15 N1BEG[2] *125:12 0
*RES
1 *1254:X *125:12 46.3654 
2 *125:12 N2BEGb[2] 27.7765 
*END

*D_NET *126 0.00433239
*CONN
*P N2BEGb[3] O
*I *1255:X O *D sg13g2_buf_1
*CAP
1 N2BEGb[3] 0.000261141
2 *1255:X 0.000201599
3 *126:18 0.00108521
4 *126:10 0.00102567
5 N2BEGb[3] *136:20 0.000273277
6 *126:10 *131:12 0.000337302
7 *126:10 *282:14 0.000547624
8 *126:10 *288:16 0
9 *126:10 *297:22 0
10 *126:10 *299:34 1.54008e-05
11 *126:18 N2BEGb[4] 0.000177894
12 *126:18 *130:16 0.000229846
13 *126:18 *146:20 0
14 *126:18 *268:16 0
15 *126:18 *300:28 0.000177424
16 *126:18 *302:18 0
17 *126:18 *321:24 0
18 *126:18 *356:42 0
*RES
1 *1255:X *126:10 42.8943 
2 *126:10 *126:18 47.2512 
3 *126:18 N2BEGb[3] 22.3278 
*END

*D_NET *127 0.004136
*CONN
*P N2BEGb[4] O
*I *1256:X O *D sg13g2_buf_1
*CAP
1 N2BEGb[4] 0.000313985
2 *1256:X 0.00104406
3 *127:16 0.00135804
4 N2BEGb[4] N4BEG[9] 0.00028427
5 N2BEGb[4] *130:16 0
6 N2BEGb[4] *136:20 0.000241567
7 *127:16 *1256:A 0
8 *127:16 *136:10 4.77348e-05
9 *127:16 *274:10 0
10 *127:16 *282:14 7.9225e-05
11 *127:16 *286:16 7.9225e-05
12 *127:16 *343:36 0.00011229
13 N2BEGb[1] *127:16 7.86681e-05
14 N2BEGb[2] *127:16 0.000319045
15 *126:18 N2BEGb[4] 0.000177894
*RES
1 *1256:X *127:16 49.4451 
2 *127:16 N2BEGb[4] 23.4505 
*END

*D_NET *128 0.00453254
*CONN
*P N2BEGb[5] O
*I *1257:X O *D sg13g2_buf_1
*CAP
1 N2BEGb[5] 0.00105738
2 *1257:X 0.000184923
3 *128:8 0.0012423
4 N2BEGb[5] N2BEGb[6] 0.00166171
5 N2BEGb[5] *144:14 0
6 N2BEGb[5] *157:10 4.77425e-05
7 N2BEGb[5] *180:25 0
8 N2BEGb[5] *412:22 0
9 *118:10 *128:8 0
10 *121:18 N2BEGb[5] 0.000338485
11 *123:10 *128:8 0
*RES
1 *1257:X *128:8 41.2475 
2 *128:8 N2BEGb[5] 31.2373 
*END

*D_NET *129 0.00559481
*CONN
*P N2BEGb[6] O
*I *1258:X O *D sg13g2_buf_1
*CAP
1 N2BEGb[6] 0.000560897
2 *1258:X 4.37077e-05
3 *129:14 0.000920276
4 *129:8 0.000403088
5 N2BEGb[6] *157:10 8.00842e-05
6 N2BEGb[6] *412:22 0.00176488
7 *129:14 *182:25 0
8 *129:14 *305:22 0
9 *129:14 *311:20 0
10 N1BEG[2] *129:8 8.00842e-05
11 N2BEGb[5] N2BEGb[6] 0.00166171
12 *120:14 *129:8 8.00842e-05
13 *121:18 *129:14 0
*RES
1 *1258:X *129:8 40.5356 
2 *129:8 *129:14 43.9964 
3 *129:14 N2BEGb[6] 29.7232 
*END

*D_NET *130 0.00450232
*CONN
*P N2BEGb[7] O
*I *1259:X O *D sg13g2_buf_1
*CAP
1 N2BEGb[7] 0.000322618
2 *1259:X 0.000123237
3 *130:16 0.00114409
4 *130:8 0.000944709
5 N2BEGb[7] N4BEG[0] 0
6 N2BEGb[7] *157:10 0
7 *130:8 *286:16 0.000127271
8 *130:16 N4BEG[10] 0.00107296
9 *130:16 N4BEG[9] 0
10 *130:16 *143:26 0
11 *130:16 *146:20 0.000126047
12 *130:16 *301:16 0
13 *130:16 *302:18 0
14 N2BEGb[4] *130:16 0
15 *120:22 *130:16 7.33256e-05
16 *121:18 *130:16 0
17 *125:12 *130:8 0.000338218
18 *126:18 *130:16 0.000229846
*RES
1 *1259:X *130:8 41.5862 
2 *130:8 *130:16 49.5069 
3 *130:16 N2BEGb[7] 22.5441 
*END

*D_NET *131 0.00452558
*CONN
*P N4BEG[0] O
*I *1260:X O *D sg13g2_buf_1
*CAP
1 N4BEG[0] 0.00108675
2 *1260:X 0.000337175
3 *131:12 0.00142393
4 N4BEG[0] N4BEG[1] 0
5 N4BEG[0] *1170:A 4.77425e-05
6 N4BEG[0] *158:8 0.000112426
7 N4BEG[0] *328:12 0
8 *131:12 *1182:A 0.000235345
9 *131:12 *141:8 0
10 *131:12 *288:16 0.00039075
11 *131:12 *348:44 0.000554164
12 N2BEGb[7] N4BEG[0] 0
13 *126:10 *131:12 0.000337302
*RES
1 *1260:X *131:12 45.1912 
2 *131:12 N4BEG[0] 29.0743 
*END

*D_NET *132 0.00617833
*CONN
*P N4BEG[10] O
*I *1261:X O *D sg13g2_buf_1
*CAP
1 N4BEG[10] 0.0010414
2 *1261:X 0.000297799
3 *132:18 0.0013392
4 N4BEG[10] N4BEG[11] 0
5 N4BEG[10] N4BEG[9] 0
6 N4BEG[10] NN4BEG[2] 0
7 N4BEG[10] NN4BEG[5] 0.00118274
8 N4BEG[10] NN4BEG[8] 0
9 N4BEG[10] *141:16 0.000233572
10 N4BEG[10] *307:24 0.000753623
11 *132:18 *135:10 0.000112426
12 *132:18 *299:34 2.97526e-05
13 N2BEG[6] *132:18 4.77425e-05
14 N2BEG[7] *132:18 6.71162e-05
15 *130:16 N4BEG[10] 0.00107296
*RES
1 *1261:X *132:18 43.0849 
2 *132:18 N4BEG[10] 32.9642 
*END

*D_NET *133 0.00598805
*CONN
*P N4BEG[11] O
*I *1262:X O *D sg13g2_buf_1
*CAP
1 N4BEG[11] 0.000957342
2 *1262:X 0.000262874
3 *133:8 0.00122022
4 N4BEG[11] N4BEG[12] 0
5 N4BEG[11] N4BEG[14] 0.00166692
6 N4BEG[11] NN4BEG[4] 0.00145571
7 N4BEG[11] *144:14 7.51285e-05
8 *133:8 *306:30 4.75151e-05
9 N2BEG[2] *133:8 0
10 N4BEG[10] N4BEG[11] 0
11 *119:22 *133:8 1.54008e-05
12 *121:18 N4BEG[11] 0.000286948
*RES
1 *1262:X *133:8 42.0497 
2 *133:8 N4BEG[11] 32.7823 
*END

*D_NET *134 0.00647932
*CONN
*P N4BEG[12] O
*I *1263:X O *D sg13g2_buf_1
*CAP
1 N4BEG[12] 0.000576868
2 *1263:X 0.000122089
3 *134:16 0.00123594
4 *134:8 0.000781163
5 N4BEG[12] N4BEG[13] 0
6 N4BEG[12] *318:16 0.000208035
7 *134:8 *136:10 0.000179597
8 *134:8 *286:16 0
9 *134:8 *293:20 0.000387041
10 *134:16 N4BEG[15] 0
11 *134:16 N4BEG[5] 0.00102852
12 *134:16 *1079:D 0.000371288
13 *134:16 *1166:A 0.000112426
14 *134:16 *136:20 1.54008e-05
15 *134:16 *308:26 0
16 *134:16 *328:12 0.000655857
17 *134:16 *339:40 0
18 *134:16 *343:22 0.000550783
19 *134:16 *412:30 0.000179494
20 N4BEG[11] N4BEG[12] 0
21 *124:12 *134:8 7.48209e-05
*RES
1 *1263:X *134:8 41.8334 
2 *134:8 *134:16 49.4451 
3 *134:16 N4BEG[12] 24.3243 
*END

*D_NET *135 0.00705162
*CONN
*P N4BEG[13] O
*I *1264:X O *D sg13g2_buf_1
*CAP
1 N4BEG[13] 0.000797663
2 *1264:X 0.00036213
3 *135:10 0.00115979
4 N4BEG[13] N4BEG[14] 0.00187955
5 N4BEG[13] N4BEG[7] 0.00198478
6 *135:10 *299:34 8.01116e-05
7 N2BEG[4] *135:10 0.000369553
8 N2BEG[5] *135:10 0.000305618
9 N4BEG[12] N4BEG[13] 0
10 *132:18 *135:10 0.000112426
*RES
1 *1264:X *135:10 43.914 
2 *135:10 N4BEG[13] 32.5969 
*END

*D_NET *136 0.00730163
*CONN
*P N4BEG[14] O
*I *1265:X O *D sg13g2_buf_1
*CAP
1 N4BEG[14] 0.000535371
2 *1265:X 0.000125438
3 *136:20 0.00115903
4 *136:10 0.000749101
5 N4BEG[14] N4BEG[15] 0
6 N4BEG[14] NN4BEG[4] 0
7 *136:10 *268:32 7.33256e-05
8 *136:10 *343:36 7.62515e-05
9 *136:10 *356:42 7.13863e-05
10 *136:20 *1166:A 0.000112426
11 *136:20 *155:10 4.77425e-05
12 N2BEGb[2] *136:10 4.75166e-05
13 N2BEGb[3] *136:20 0.000273277
14 N2BEGb[4] *136:20 0.000241567
15 N4BEG[11] N4BEG[14] 0.00166692
16 N4BEG[13] N4BEG[14] 0.00187955
17 *127:16 *136:10 4.77348e-05
18 *134:8 *136:10 0.000179597
19 *134:16 *136:20 1.54008e-05
*RES
1 *1265:X *136:10 41.6583 
2 *136:10 *136:20 45.9637 
3 *136:20 N4BEG[14] 29.8468 
*END

*D_NET *137 0.00691197
*CONN
*P N4BEG[15] O
*I *1266:X O *D sg13g2_buf_1
*CAP
1 N4BEG[15] 0.00133893
2 *1266:X 4.49722e-05
3 *137:8 0.0013839
4 N4BEG[15] N4BEG[5] 0.00144557
5 N4BEG[15] NN4BEG[0] 0
6 N4BEG[15] NN4BEG[6] 0.00145678
7 N4BEG[15] *1079:D 0.000711871
8 N4BEG[15] *153:10 4.75151e-05
9 N4BEG[15] *319:42 0.00014391
10 N4BEG[15] *412:30 0.000179079
11 *137:8 *301:16 7.94189e-05
12 N2BEG[7] *137:8 8.0017e-05
13 N4BEG[14] N4BEG[15] 0
14 *134:16 N4BEG[15] 0
*RES
1 *1266:X *137:8 40.5356 
2 *137:8 N4BEG[15] 36.4491 
*END

*D_NET *138 0.0043305
*CONN
*P N4BEG[1] O
*I *1267:X O *D sg13g2_buf_1
*CAP
1 N4BEG[1] 0.00124143
2 *1267:X 0.000395678
3 *138:10 0.00163711
4 N4BEG[1] N4BEG[2] 0.00024119
5 N4BEG[1] *1064:S0 0.00014391
6 N4BEG[1] *1073:B 8.0039e-05
7 N4BEG[1] *1170:A 4.77425e-05
8 N4BEG[1] *159:8 4.75166e-05
9 N4BEG[1] *272:8 0.000400669
10 *138:10 *268:32 4.75151e-05
11 *138:10 *274:10 4.77074e-05
12 *138:10 *275:14 0
13 *138:10 *334:44 0
14 N4BEG[0] N4BEG[1] 0
*RES
1 *1267:X *138:10 43.1415 
2 *138:10 N4BEG[1] 31.2373 
*END

*D_NET *139 0.00499432
*CONN
*P N4BEG[2] O
*I *1268:X O *D sg13g2_buf_1
*CAP
1 N4BEG[2] 0.00163165
2 *1268:X 0
3 *139:6 0.00163165
4 N4BEG[2] N4BEG[5] 0
5 N4BEG[2] NN4BEG[0] 0.000917744
6 N4BEG[2] NN4BEG[2] 0
7 N4BEG[2] *1240:A 0
8 N4BEG[2] *160:8 0
9 N4BEG[2] *268:16 0
10 N4BEG[2] *302:18 0.000126354
11 N4BEG[2] *309:26 0.000445733
12 N4BEG[1] N4BEG[2] 0.00024119
*RES
1 *1268:X *139:6 40 
2 *139:6 N4BEG[2] 35.3058 
*END

*D_NET *140 0.00729416
*CONN
*P N4BEG[3] O
*I *1269:X O *D sg13g2_buf_1
*CAP
1 N4BEG[3] 0.00109542
2 *1269:X 0.000717363
3 *140:20 0.00181279
4 N4BEG[3] N4BEG[4] 0.000273394
5 N4BEG[3] *1067:B 0.000446207
6 N4BEG[3] *1290:A 0
7 N4BEG[3] *160:8 0.000241052
8 N4BEG[3] *228:18 0
9 N4BEG[3] *266:8 0.00028427
10 N4BEG[3] *298:8 0.00039391
11 N4BEG[3] *343:36 0
12 N4BEG[3] *348:28 0.000257272
13 N4BEG[3] *348:36 0.000240377
14 *140:20 *1067:A 7.51285e-05
15 *140:20 *145:10 0
16 *140:20 *145:16 0.00048885
17 *140:20 *282:14 0
18 *140:20 *311:20 0.000179079
19 N1BEG[2] *140:20 0
20 N2BEG[1] *140:20 0.00011101
21 *125:12 *140:20 0.000678043
*RES
1 *1269:X *140:20 48.3533 
2 *140:20 N4BEG[3] 31.8347 
*END

*D_NET *141 0.0060398
*CONN
*P N4BEG[4] O
*I *1270:X O *D sg13g2_buf_1
*CAP
1 N4BEG[4] 0.000263585
2 *1270:X 0.000542971
3 *141:16 0.00107569
4 *141:8 0.00135508
5 N4BEG[4] N4BEG[5] 0.000144027
6 *141:8 *1182:A 0.000553344
7 *141:8 *145:16 0.00155174
8 *141:8 *282:14 0
9 *141:16 N4BEG[9] 0
10 *141:16 *228:16 0
11 *141:16 *327:24 4.63914e-05
12 *141:16 *348:36 0
13 *141:16 *352:20 0
14 *141:16 *365:24 0
15 N4BEG[10] *141:16 0.000233572
16 N4BEG[3] N4BEG[4] 0.000273394
17 *131:12 *141:8 0
*RES
1 *1270:X *141:8 47.2718 
2 *141:8 *141:16 46.2012 
3 *141:16 N4BEG[4] 22.5441 
*END

*D_NET *142 0.00692051
*CONN
*P N4BEG[5] O
*I *1271:X O *D sg13g2_buf_1
*CAP
1 N4BEG[5] 0.00139409
2 *1271:X 6.17202e-05
3 *142:8 0.00145581
4 N4BEG[5] *1290:A 0.000175693
5 N4BEG[5] *146:10 0.000700743
6 N4BEG[5] *161:8 0.000111823
7 N4BEG[5] *305:22 0
8 N4BEG[5] *308:26 0
9 N4BEG[5] *310:8 0
10 N1BEG[1] *142:8 0.000112501
11 N1BEG[2] *142:8 0.0001118
12 N4BEG[15] N4BEG[5] 0.00144557
13 N4BEG[2] N4BEG[5] 0
14 N4BEG[4] N4BEG[5] 0.000144027
15 *120:14 N4BEG[5] 0.000178206
16 *134:16 N4BEG[5] 0.00102852
*RES
1 *1271:X *142:8 40.7519 
2 *142:8 N4BEG[5] 36.6654 
*END

*D_NET *143 0.00664365
*CONN
*P N4BEG[6] O
*I *1272:X O *D sg13g2_buf_1
*CAP
1 N4BEG[6] 0.000621743
2 *1272:X 0.000109295
3 *143:26 0.00131093
4 *143:18 0.000738248
5 *143:8 0.000158353
6 N4BEG[6] *161:8 1.54008e-05
7 N4BEG[6] *329:20 0.00030506
8 N4BEG[6] *339:46 4.77425e-05
9 N4BEG[6] *412:30 0.000208174
10 *143:8 *293:20 0.000438729
11 *143:18 *304:14 6.90175e-05
12 *143:26 *156:10 0.000654531
13 *143:26 *293:20 0.000645908
14 *143:26 *308:26 0.00080681
15 *143:26 *328:12 0
16 *143:26 *339:40 7.48178e-05
17 *143:26 *356:42 0
18 *124:12 *143:8 0.000438885
19 *130:16 *143:26 0
*RES
1 *1272:X *143:8 42.0806 
2 *143:8 *143:18 40.7725 
3 *143:18 *143:26 48.0855 
4 *143:26 N4BEG[6] 25.8092 
*END

*D_NET *144 0.00559363
*CONN
*P N4BEG[7] O
*I *1273:X O *D sg13g2_buf_1
*CAP
1 N4BEG[7] 0.000699164
2 *1273:X 0.000525781
3 *144:14 0.00122495
4 *144:14 *311:26 4.77425e-05
5 N1BEG[3] *144:14 0.000337402
6 N2BEG[0] *144:14 0.000305175
7 N2BEGb[5] *144:14 0
8 N4BEG[11] *144:14 7.51285e-05
9 N4BEG[13] N4BEG[7] 0.00198478
10 *118:10 *144:14 0.000393514
*RES
1 *1273:X *144:14 46.0976 
2 *144:14 N4BEG[7] 29.9086 
*END

*D_NET *145 0.00793801
*CONN
*P N4BEG[8] O
*I *1274:X O *D sg13g2_buf_1
*CAP
1 N4BEG[8] 0.000732549
2 *1274:X 0.000167962
3 *145:16 0.00161287
4 *145:10 0.00104828
5 N4BEG[8] N4BEG[9] 0
6 N4BEG[8] *1064:S1 1.54008e-05
7 N4BEG[8] *1277:A 0.00030506
8 N4BEG[8] *148:10 0
9 N4BEG[8] *154:10 7.44077e-05
10 N4BEG[8] *156:10 7.30101e-05
11 N4BEG[8] *162:8 0
12 *145:10 *273:14 0.000240377
13 *145:10 *306:30 0.000240332
14 *145:16 *1067:A 0.000712429
15 *145:16 *1182:A 0
16 *145:16 *228:18 0.000208747
17 *145:16 *228:40 0.000159092
18 *145:16 *228:51 0.000260518
19 *145:16 *316:18 0
20 *145:16 *361:47 4.63914e-05
21 *145:16 *365:24 0
22 *145:16 *412:36 0
23 *140:20 *145:10 0
24 *140:20 *145:16 0.00048885
25 *141:8 *145:16 0.00155174
*RES
1 *1274:X *145:10 41.9364 
2 *145:10 *145:16 31.5772 
3 *145:16 N4BEG[8] 46.592 
*END

*D_NET *146 0.0071724
*CONN
*P N4BEG[9] O
*I *1275:X O *D sg13g2_buf_1
*CAP
1 N4BEG[9] 0.000775731
2 *1275:X 0.000297319
3 *146:20 0.00113462
4 *146:10 0.000656209
5 N4BEG[9] NN4BEG[8] 0.000444489
6 N4BEG[9] NN4BEG[9] 0.000234224
7 N4BEG[9] *412:22 0.00150226
8 *146:10 *308:26 0
9 *146:10 *310:8 0.000495406
10 *146:20 *300:28 0
11 *146:20 *301:16 2.14736e-05
12 *146:20 *302:18 0.000211293
13 N2BEG[1] *146:10 0.000144169
14 N2BEG[2] *146:10 0.000144142
15 N2BEGb[4] N4BEG[9] 0.00028427
16 N4BEG[10] N4BEG[9] 0
17 N4BEG[5] *146:10 0.000700743
18 N4BEG[8] N4BEG[9] 0
19 *123:10 *146:20 0
20 *126:18 *146:20 0
21 *130:16 N4BEG[9] 0
22 *130:16 *146:20 0.000126047
23 *141:16 N4BEG[9] 0
*RES
1 *1275:X *146:10 44.2848 
2 *146:10 *146:20 43.6153 
3 *146:20 N4BEG[9] 30.1558 
*END

*D_NET *147 0.00666547
*CONN
*P NN4BEG[0] O
*I *1276:X O *D sg13g2_buf_1
*CAP
1 NN4BEG[0] 0.00112609
2 *1276:X 0
3 *147:6 0.00112609
4 NN4BEG[0] NN4BEG[1] 0.000531331
5 NN4BEG[0] NN4BEG[6] 0.00161681
6 NN4BEG[0] *327:30 0
7 NN4BEG[0] *348:28 0.0013474
8 N4BEG[15] NN4BEG[0] 0
9 N4BEG[2] NN4BEG[0] 0.000917744
*RES
1 *1276:X *147:6 40 
2 *147:6 NN4BEG[0] 35.3161 
*END

*D_NET *148 0.00460416
*CONN
*P NN4BEG[10] O
*I *1277:X O *D sg13g2_buf_1
*CAP
1 NN4BEG[10] 0.000295791
2 *1277:X 0.000599068
3 *148:10 0.000894859
4 NN4BEG[10] NN4BEG[11] 0
5 NN4BEG[10] NN4BEG[9] 0
6 *148:10 NN4BEG[5] 0
7 *148:10 NN4BEG[8] 0.00162211
8 *148:10 *149:8 0
9 *148:10 *153:10 0.00119234
10 N4BEG[8] *148:10 0
*RES
1 *1277:X *148:10 49.0434 
2 *148:10 NN4BEG[10] 22.3278 
*END

*D_NET *149 0.00438096
*CONN
*P NN4BEG[11] O
*I *1278:X O *D sg13g2_buf_1
*CAP
1 NN4BEG[11] 0.000355555
2 *1278:X 0.000497898
3 *149:8 0.000853454
4 NN4BEG[11] NN4BEG[12] 0
5 *149:8 NN4BEG[5] 0.00108531
6 *149:8 *153:10 0.00129867
7 *149:8 *348:28 0
8 *149:8 *358:20 0.000290072
9 NN4BEG[10] NN4BEG[11] 0
10 *148:10 *149:8 0
*RES
1 *1278:X *149:8 48.0134 
2 *149:8 NN4BEG[11] 22.7604 
*END

*D_NET *150 0.00420069
*CONN
*P NN4BEG[12] O
*I *1279:X O *D sg13g2_buf_1
*CAP
1 NN4BEG[12] 0.000766203
2 *1279:X 0.000277377
3 *150:10 0.00104358
4 NN4BEG[12] NN4BEG[13] 0
5 NN4BEG[12] *1044:S0 0.000240377
6 NN4BEG[12] *1079:GATE 0
7 NN4BEG[12] *339:28 0.000112426
8 *150:10 *1044:S1 0.000660963
9 *150:10 *223:21 7.44378e-05
10 *150:10 *241:12 4.75151e-05
11 *150:10 *288:10 0
12 *150:10 *318:16 0.000977812
13 *150:10 *322:12 0
14 NN4BEG[11] NN4BEG[12] 0
*RES
1 *1279:X *150:10 44.8719 
2 *150:10 NN4BEG[12] 26.4375 
*END

*D_NET *151 0.00455135
*CONN
*P NN4BEG[13] O
*I *1280:X O *D sg13g2_buf_1
*CAP
1 NN4BEG[13] 0.000642173
2 *1280:X 0.000489632
3 *151:8 0.0011318
4 NN4BEG[13] NN4BEG[14] 0
5 NN4BEG[13] NN4BEG[15] 0
6 NN4BEG[13] *1044:S0 3.75762e-05
7 NN4BEG[13] *344:10 0.00011101
8 *151:8 *1156:A 0.000753846
9 *151:8 *339:20 0.000282827
10 *151:8 *343:22 0.000766792
11 *151:8 *345:12 0.000335686
12 NN4BEG[12] NN4BEG[13] 0
*RES
1 *1280:X *151:8 47.2718 
2 *151:8 NN4BEG[13] 25.7268 
*END

*D_NET *152 0.00438647
*CONN
*P NN4BEG[14] O
*I *1281:X O *D sg13g2_buf_1
*CAP
1 NN4BEG[14] 0.000237915
2 *1281:X 0.000709698
3 *152:10 0.000947613
4 NN4BEG[14] NN4BEG[15] 0
5 *152:10 NN4BEG[8] 0.00119331
6 *152:10 NN4BEG[9] 0.00129793
7 *152:10 *153:10 0
8 *152:10 *164:11 0
9 NN4BEG[13] NN4BEG[14] 0
*RES
1 *1281:X *152:10 49.476 
2 *152:10 NN4BEG[14] 21.8952 
*END

*D_NET *153 0.00443539
*CONN
*P NN4BEG[15] O
*I *1282:X O *D sg13g2_buf_1
*CAP
1 NN4BEG[15] 0.000300717
2 *1282:X 0.000450194
3 *153:10 0.000750911
4 NN4BEG[15] *163:15 0
5 *153:10 *164:11 0
6 *153:10 *358:20 0.000395052
7 Co NN4BEG[15] 0
8 N4BEG[15] *153:10 4.75151e-05
9 NN4BEG[13] NN4BEG[15] 0
10 NN4BEG[14] NN4BEG[15] 0
11 *148:10 *153:10 0.00119234
12 *149:8 *153:10 0.00129867
13 *152:10 *153:10 0
*RES
1 *1282:X *153:10 48.3327 
2 *153:10 NN4BEG[15] 22.5441 
*END

*D_NET *154 0.00615172
*CONN
*P NN4BEG[1] O
*I *1283:X O *D sg13g2_buf_1
*CAP
1 NN4BEG[1] 0.000669595
2 *1283:X 0.000964164
3 *154:10 0.00163376
4 NN4BEG[1] *156:22 0.000112426
5 NN4BEG[1] *288:10 4.75166e-05
6 *154:10 *1283:A 4.75166e-05
7 *154:10 *156:10 0
8 *154:10 *317:18 0
9 *154:10 *318:16 0.000447079
10 *154:10 *328:12 4.75166e-05
11 *154:10 *339:28 0.00028539
12 *154:10 *343:36 0.000964456
13 *154:10 *356:42 2.14736e-05
14 N4BEG[8] *154:10 7.44077e-05
15 NN4BEG[0] NN4BEG[1] 0.000531331
16 *2:10 NN4BEG[1] 0.000305088
*RES
1 *1283:X *154:10 49.5687 
2 *154:10 NN4BEG[1] 26.9113 
*END

*D_NET *155 0.0056589
*CONN
*P NN4BEG[2] O
*I *1284:X O *D sg13g2_buf_1
*CAP
1 NN4BEG[2] 0.00141069
2 *1284:X 5.21655e-05
3 *155:10 0.00146286
4 NN4BEG[2] NN4BEG[3] 0
5 NN4BEG[2] NN4BEG[5] 0.00203362
6 NN4BEG[2] *156:22 0.000402085
7 NN4BEG[2] *307:24 0.00012794
8 NN4BEG[2] *327:30 7.40536e-05
9 NN4BEG[2] *348:28 0
10 N2BEGb[2] *155:10 4.77425e-05
11 N4BEG[10] NN4BEG[2] 0
12 N4BEG[2] NN4BEG[2] 0
13 *136:20 *155:10 4.77425e-05
*RES
1 *1284:X *155:10 40.6386 
2 *155:10 NN4BEG[2] 34.6672 
*END

*D_NET *156 0.00603202
*CONN
*P NN4BEG[3] O
*I *1285:X O *D sg13g2_buf_1
*CAP
1 NN4BEG[3] 7.37103e-05
2 *1285:X 0.000899629
3 *156:22 0.000658979
4 *156:10 0.0014849
5 NN4BEG[3] NN4BEG[4] 0
6 *156:10 *1140:A 0.000338901
7 *156:10 *1156:A 0
8 *156:10 *314:22 0.000232917
9 *156:10 *339:28 0.00039075
10 *156:10 *339:40 0
11 *156:22 *1152:A 8.00842e-05
12 *156:22 *332:8 0.000143351
13 N4BEG[8] *156:10 7.30101e-05
14 NN4BEG[1] *156:22 0.000112426
15 NN4BEG[2] NN4BEG[3] 0
16 NN4BEG[2] *156:22 0.000402085
17 *2:10 *156:22 0.000486754
18 *143:26 *156:10 0.000654531
19 *154:10 *156:10 0
*RES
1 *1285:X *156:10 49.0743 
2 *156:10 *156:22 46.3757 
3 *156:22 NN4BEG[3] 20.5974 
*END

*D_NET *157 0.00577259
*CONN
*P NN4BEG[4] O
*I *1286:X O *D sg13g2_buf_1
*CAP
1 NN4BEG[4] 0.000781497
2 *1286:X 0.000227555
3 *157:10 0.00100905
4 NN4BEG[4] NN4BEG[5] 0
5 NN4BEG[4] NN4BEG[7] 0.00182984
6 NN4BEG[4] *412:22 0
7 *157:10 *1283:A 0
8 N2BEGb[5] *157:10 4.77425e-05
9 N2BEGb[6] *157:10 8.00842e-05
10 N2BEGb[7] *157:10 0
11 N4BEG[11] NN4BEG[4] 0.00145571
12 N4BEG[14] NN4BEG[4] 0
13 NN4BEG[3] NN4BEG[4] 0
14 *2:10 NN4BEG[4] 0.000341119
*RES
1 *1286:X *157:10 42.1836 
2 *157:10 NN4BEG[4] 32.257 
*END

*D_NET *158 0.00675852
*CONN
*P NN4BEG[5] O
*I *1287:X O *D sg13g2_buf_1
*CAP
1 NN4BEG[5] 0.000804426
2 *1287:X 7.14194e-05
3 *158:8 0.000875845
4 NN4BEG[5] NN4BEG[6] 0
5 NN4BEG[5] *348:28 0.000287672
6 NN4BEG[5] *356:22 0.00030506
7 N4BEG[0] *158:8 0.000112426
8 N4BEG[10] NN4BEG[5] 0.00118274
9 NN4BEG[2] NN4BEG[5] 0.00203362
10 NN4BEG[4] NN4BEG[5] 0
11 *148:10 NN4BEG[5] 0
12 *149:8 NN4BEG[5] 0.00108531
*RES
1 *1287:X *158:8 40.7519 
2 *158:8 NN4BEG[5] 33.9565 
*END

*D_NET *159 0.00619337
*CONN
*P NN4BEG[6] O
*I *1288:X O *D sg13g2_buf_1
*CAP
1 NN4BEG[6] 0.00107437
2 *1288:X 3.09979e-05
3 *159:8 0.00110537
4 NN4BEG[6] NN4BEG[7] 0
5 NN4BEG[6] *1045:A 0.000395177
6 NN4BEG[6] *1079:D 0
7 NN4BEG[6] *343:22 0
8 NN4BEG[6] *356:22 0.000466352
9 NN4BEG[6] *358:26 0
10 N4BEG[15] NN4BEG[6] 0.00145678
11 N4BEG[1] *159:8 4.75166e-05
12 NN4BEG[0] NN4BEG[6] 0.00161681
13 NN4BEG[5] NN4BEG[6] 0
*RES
1 *1288:X *159:8 40.3193 
2 *159:8 NN4BEG[6] 34.5436 
*END

*D_NET *160 0.00495797
*CONN
*P NN4BEG[7] O
*I *1289:X O *D sg13g2_buf_1
*CAP
1 NN4BEG[7] 0.000965554
2 *1289:X 0.000163551
3 *160:8 0.00112911
4 NN4BEG[7] NN4BEG[8] 0
5 NN4BEG[7] NN4BEG[9] 0
6 NN4BEG[7] *164:11 0.000447685
7 NN4BEG[7] *356:22 0.000181192
8 NN4BEG[7] *412:22 0
9 N4BEG[2] *160:8 0
10 N4BEG[3] *160:8 0.000241052
11 NN4BEG[4] NN4BEG[7] 0.00182984
12 NN4BEG[6] NN4BEG[7] 0
13 *2:10 NN4BEG[7] 0
*RES
1 *1289:X *160:8 41.6171 
2 *160:8 NN4BEG[7] 31.2373 
*END

*D_NET *161 0.00517007
*CONN
*P NN4BEG[8] O
*I *1290:X O *D sg13g2_buf_1
*CAP
1 NN4BEG[8] 0.000811242
2 *1290:X 8.02241e-05
3 *161:8 0.000891466
4 NN4BEG[8] NN4BEG[9] 0
5 N4BEG[10] NN4BEG[8] 0
6 N4BEG[5] *161:8 0.000111823
7 N4BEG[6] *161:8 1.54008e-05
8 N4BEG[9] NN4BEG[8] 0.000444489
9 NN4BEG[7] NN4BEG[8] 0
10 *148:10 NN4BEG[8] 0.00162211
11 *152:10 NN4BEG[8] 0.00119331
*RES
1 *1290:X *161:8 40.7519 
2 *161:8 NN4BEG[8] 31.6081 
*END

*D_NET *162 0.00450926
*CONN
*P NN4BEG[9] O
*I *1291:X O *D sg13g2_buf_1
*CAP
1 NN4BEG[9] 0.000941301
2 *1291:X 0.000129472
3 *162:8 0.00107077
4 NN4BEG[9] *164:11 0.000659723
5 *162:8 *412:30 0.000175833
6 N4BEG[8] *162:8 0
7 N4BEG[9] NN4BEG[9] 0.000234224
8 NN4BEG[10] NN4BEG[9] 0
9 NN4BEG[7] NN4BEG[9] 0
10 NN4BEG[8] NN4BEG[9] 0
11 *152:10 NN4BEG[9] 0.00129793
*RES
1 *1291:X *162:8 41.1845 
2 *162:8 NN4BEG[9] 30.6811 
*END

*D_NET *163 0.00407722
*CONN
*P S1END[0] I
*I *1198:A I *D sg13g2_buf_1
*CAP
1 S1END[0] 0.00082014
2 *1198:A 0
3 *163:25 0.000833498
4 *163:15 0.00165364
5 *163:15 *1048:C 1.51776e-05
6 *163:15 *1052:A1 3.03714e-05
7 *163:15 *1201:A 0
8 *163:15 *164:11 0
9 *163:15 *165:13 0.000143761
10 *163:15 *223:38 0
11 *163:15 *244:8 7.3287e-05
12 *163:15 *246:10 2.14736e-05
13 *163:15 *339:20 0.000125875
14 *163:15 *341:16 0
15 *163:15 *345:12 0.00011101
16 *163:25 *1048:C 1.54008e-05
17 *163:25 *165:23 0
18 *163:25 *247:22 0
19 *163:25 *295:24 0
20 *163:25 *314:12 0.000233591
21 *163:25 *344:14 0
22 *163:25 *346:72 0
23 *163:25 *346:78 0
24 *163:25 *347:22 0
25 Co *163:15 0
26 NN4BEG[15] *163:15 0
*RES
1 S1END[0] *163:15 47.4762 
2 *163:15 *163:25 47.6323 
3 *163:25 *1198:A 20 
*END

*D_NET *164 0.00343759
*CONN
*P S1END[1] I
*I *1199:A I *D sg13g2_buf_1
*CAP
1 S1END[1] 0.00091054
2 *1199:A 0.000254552
3 *164:11 0.00116509
4 *1199:A *1079:D 0
5 *164:11 *165:13 0
6 *164:11 *356:22 0
7 *164:11 *358:20 0
8 NN4BEG[7] *164:11 0.000447685
9 NN4BEG[9] *164:11 0.000659723
10 *152:10 *164:11 0
11 *153:10 *164:11 0
12 *163:15 *164:11 0
*RES
1 S1END[1] *164:11 48.9816 
2 *164:11 *1199:A 22.0497 
*END

*D_NET *165 0.00411418
*CONN
*P S1END[2] I
*I *1200:A I *D sg13g2_buf_1
*CAP
1 S1END[2] 0.00042377
2 *1200:A 0
3 *165:23 0.00101772
4 *165:13 0.00144149
5 *165:13 *1052:A1 0
6 *165:13 *1201:A 0
7 *165:13 *176:13 0
8 *165:13 *326:26 0.000177736
9 *165:23 *181:13 7.51285e-05
10 *165:23 *244:22 7.83607e-05
11 *165:23 *295:24 0
12 *165:23 *300:16 0
13 *165:23 *346:78 0
14 *165:23 *347:16 0.00075621
15 *165:23 *347:22 0
16 *165:23 *348:18 0
17 *165:23 *363:10 0
18 *163:15 *165:13 0.000143761
19 *163:25 *165:23 0
20 *164:11 *165:13 0
*RES
1 S1END[2] *165:13 43.9552 
2 *165:13 *165:23 48.9919 
3 *165:23 *1200:A 20 
*END

*D_NET *166 0.0031593
*CONN
*P S1END[3] I
*I *1201:A I *D sg13g2_buf_1
*CAP
1 S1END[3] 0.00113768
2 *1201:A 0.00113768
3 *1201:A *1047:B 0
4 *1201:A *175:11 0.00033856
5 *1201:A *176:13 0.000273877
6 *1201:A *248:12 0
7 *1201:A *300:8 0
8 *1201:A *334:20 4.75425e-05
9 *1201:A *347:10 0.000111522
10 *1201:A *354:20 0.000112426
11 *163:15 *1201:A 0
12 *165:13 *1201:A 0
*RES
1 S1END[3] *1201:A 30.7841 
*END

*D_NET *167 0.000933285
*CONN
*P S2END[0] I
*I *1202:A I *D sg13g2_buf_1
*CAP
1 S2END[0] 0.000466642
2 *1202:A 0.000466642
3 *1202:A *1163:A 0
4 *1202:A *168:13 0
5 *1202:A *169:11 0
6 *1202:A *181:13 0
7 *1202:A *182:11 0
*RES
1 S2END[0] *1202:A 23.7875 
*END

*D_NET *168 0.00128396
*CONN
*P S2END[1] I
*I *1203:A I *D sg13g2_buf_1
*CAP
1 S2END[1] 0.000554174
2 *1203:A 0
3 *168:13 0.000554174
4 *168:13 *1207:A 0.000175608
5 *168:13 *169:11 0
6 *168:13 *184:9 0
7 *168:13 *356:22 0
8 *1202:A *168:13 0
*RES
1 S2END[1] *168:13 44.8513 
2 *168:13 *1203:A 20 
*END

*D_NET *169 0.00148403
*CONN
*P S2END[2] I
*I *1205:A I *D sg13g2_buf_1
*CAP
1 S2END[2] 0.000544942
2 *1205:A 0
3 *169:11 0.000544942
4 *169:11 *1207:A 0
5 *169:11 *170:13 0
6 *169:11 *339:8 0
7 *169:11 *358:20 0.000394151
8 *1202:A *169:11 0
9 *168:13 *169:11 0
*RES
1 S2END[2] *169:11 45.2427 
2 *169:11 *1205:A 20 
*END

*D_NET *170 0.00202404
*CONN
*P S2END[3] I
*I *1206:A I *D sg13g2_buf_1
*CAP
1 S2END[3] 0.000577782
2 *1206:A 0
3 *170:13 0.000577782
4 *170:13 *1207:A 0
5 *170:13 *1216:A 0.000434238
6 *170:13 *174:11 0.000434238
7 *170:13 *356:22 0
8 *169:11 *170:13 0
*RES
1 S2END[3] *170:13 45.8401 
2 *170:13 *1206:A 20 
*END

*D_NET *171 0.00168667
*CONN
*P S2END[4] I
*I *1207:A I *D sg13g2_buf_1
*CAP
1 S2END[4] 0.000651515
2 *1207:A 0.000651515
3 *1207:A *1209:A 0
4 *1207:A *172:13 0
5 *1207:A *338:12 0.000208035
6 *168:13 *1207:A 0.000175608
7 *169:11 *1207:A 0
8 *170:13 *1207:A 0
*RES
1 S2END[4] *1207:A 25.9087 
*END

*D_NET *172 0.00184881
*CONN
*P S2END[5] I
*I *1208:A I *D sg13g2_buf_1
*CAP
1 S2END[5] 0.000578206
2 *1208:A 0
3 *172:13 0.000578206
4 *172:13 *1209:A 0
5 *172:13 *1216:A 0
6 *172:13 *190:13 0.000112426
7 *172:13 *191:13 8.00842e-05
8 *172:13 *193:13 0
9 *172:13 *356:22 0.000499885
10 *1207:A *172:13 0
*RES
1 S2END[5] *172:13 45.8401 
2 *172:13 *1208:A 20 
*END

*D_NET *173 0.00140745
*CONN
*P S2END[6] I
*I *1209:A I *D sg13g2_buf_1
*CAP
1 S2END[6] 0.000703723
2 *1209:A 0.000703723
3 *1209:A *1216:A 0
4 *1209:A *174:11 0
5 *1207:A *1209:A 0
6 *172:13 *1209:A 0
*RES
1 S2END[6] *1209:A 25.9843 
*END

*D_NET *174 0.00215379
*CONN
*P S2END[7] I
*I *1210:A I *D sg13g2_buf_1
*CAP
1 S2END[7] 0.000519464
2 *1210:A 0
3 *174:11 0.000519464
4 *174:11 *1216:A 0
5 *174:11 *327:10 0.00018174
6 *174:11 *343:22 0
7 *174:11 *358:20 0.000498881
8 *1209:A *174:11 0
9 *170:13 *174:11 0.000434238
*RES
1 S2END[7] *174:11 45.7371 
2 *174:11 *1210:A 20 
*END

*D_NET *175 0.00284761
*CONN
*P S2MID[0] I
*I *1211:A I *D sg13g2_buf_1
*CAP
1 S2MID[0] 0.000535299
2 *1211:A 0
3 *175:11 0.000535299
4 *175:11 *1213:A 0
5 *175:11 *176:13 0
6 *175:11 *306:8 0.000760835
7 *175:11 *326:32 0
8 *175:11 *348:28 0.000444816
9 *175:11 *358:20 0.000232798
10 *1201:A *175:11 0.00033856
*RES
1 S2MID[0] *175:11 46.9731 
2 *175:11 *1211:A 20 
*END

*D_NET *176 0.00133474
*CONN
*P S2MID[1] I
*I *1212:A I *D sg13g2_buf_1
*CAP
1 S2MID[1] 0.000530434
2 *1212:A 0
3 *176:13 0.000530434
4 *176:13 *1213:A 0
5 *176:13 *326:26 0
6 *1201:A *176:13 0.000273877
7 *165:13 *176:13 0
8 *175:11 *176:13 0
*RES
1 S2MID[1] *176:13 44.6041 
2 *176:13 *1212:A 20 
*END

*D_NET *177 0.000914677
*CONN
*P S2MID[2] I
*I *1213:A I *D sg13g2_buf_1
*CAP
1 S2MID[2] 0.000457339
2 *1213:A 0.000457339
3 *1213:A *1214:A 0
4 *175:11 *1213:A 0
5 *176:13 *1213:A 0
*RES
1 S2MID[2] *1213:A 24.0067 
*END

*D_NET *178 0.000758905
*CONN
*P S2MID[3] I
*I *1214:A I *D sg13g2_buf_1
*CAP
1 S2MID[3] 0.000379452
2 *1214:A 0.000379452
3 *1214:A *1162:A 0
4 *1214:A *181:13 0
5 *1213:A *1214:A 0
*RES
1 S2MID[3] *1214:A 23.4093 
*END

*D_NET *179 0.0128722
*CONN
*P S2MID[4] I
*I *1145:A I *D sg13g2_buf_1
*CAP
1 S2MID[4] 1.97345e-05
2 *1145:A 0.00049124
3 *179:19 0.00119657
4 *179:13 0.00279196
5 *179:11 0.00208663
6 *179:9 1.97345e-05
7 *1145:A *180:25 0
8 *179:13 *180:13 0.00624427
9 *179:13 *182:15 0
10 *179:19 *180:25 0
11 *179:19 *412:22 0
12 *118:10 *179:19 2.20966e-05
*RES
1 S2MID[4] *179:9 40.1648 
2 *179:9 *179:11 20 
3 *179:11 *179:13 33.7222 
4 *179:13 *179:19 48.2606 
5 *179:19 *1145:A 45.0779 
*END

*D_NET *180 0.0136143
*CONN
*P S2MID[5] I
*I *1144:A I *D sg13g2_buf_1
*CAP
1 S2MID[5] 4.23124e-05
2 *1144:A 0
3 *180:25 0.00165701
4 *180:19 0.00172095
5 *180:13 0.00198567
6 *180:9 0.00196404
7 *180:9 *181:13 0
8 *180:13 *182:15 0
9 *180:13 *365:18 0
10 *180:25 *1143:A 0
11 *180:25 *412:22 0
12 N2BEGb[5] *180:25 0
13 *1145:A *180:25 0
14 *118:10 *180:25 0
15 *179:13 *180:13 0.00624427
16 *179:19 *180:25 0
*RES
1 S2MID[5] *180:9 40.3811 
2 *180:9 *180:13 49.2726 
3 *180:13 *180:19 40.5356 
4 *180:19 *180:25 35.656 
5 *180:25 *1144:A 20 
*END

*D_NET *181 0.0171834
*CONN
*P S2MID[6] I
*I *1143:A I *D sg13g2_buf_1
*CAP
1 S2MID[6] 0.00227535
2 *1143:A 0.000295699
3 *181:29 0.00144931
4 *181:25 0.00258496
5 *181:19 0.00170501
6 *181:13 0.00254901
7 *1143:A *278:10 0
8 *1143:A *280:8 0
9 *181:13 *1047:B 0
10 *181:13 *1076:D 0
11 *181:13 *1158:A 0.000240492
12 *181:13 *1159:A 0
13 *181:13 *1161:A 8.02267e-05
14 *181:13 *1162:A 0.000176092
15 *181:13 *1163:A 0
16 *181:13 *1165:A 0
17 *181:13 *182:11 0
18 *181:13 *248:12 0
19 *181:13 *267:12 0
20 *181:13 *270:8 0
21 *181:13 *295:12 0
22 *181:13 *309:8 0
23 *181:13 *314:12 0
24 *181:13 *335:8 0.000286806
25 *181:13 *336:10 0
26 *181:13 *340:16 0.00119436
27 *181:13 *340:22 0
28 *181:13 *347:22 0
29 *181:13 *350:14 0
30 *181:13 *363:10 0
31 *181:13 *392:20 0
32 *181:19 *379:22 0
33 *181:19 *390:22 0.000110621
34 *181:25 *296:16 0
35 *181:25 *305:14 0
36 *181:25 *390:16 0.00349973
37 *181:29 *1252:A 0
38 *181:29 *278:10 0
39 *181:29 *280:14 0
40 *181:29 *282:14 0.000660616
41 *1202:A *181:13 0
42 *1214:A *181:13 0
43 *67:34 *181:13 0
44 *112:10 *181:29 0
45 *165:23 *181:13 7.51285e-05
46 *180:9 *181:13 0
47 *180:25 *1143:A 0
*RES
1 S2MID[6] *181:13 43.9887 
2 *181:13 *181:19 42.266 
3 *181:19 *181:25 36.9538 
4 *181:25 *181:29 30.2382 
5 *181:29 *1143:A 42.6986 
*END

*D_NET *182 0.0117128
*CONN
*P S2MID[7] I
*I *1142:A I *D sg13g2_buf_1
*CAP
1 S2MID[7] 0.000485291
2 *1142:A 0
3 *182:25 0.000678782
4 *182:15 0.00307551
5 *182:11 0.00288202
6 *182:11 *185:9 0
7 *182:11 *326:26 0
8 *182:11 *356:22 0.000925299
9 *182:15 *309:18 0
10 *182:15 *321:18 0
11 *182:15 *365:18 0.00319172
12 *182:25 *1240:A 0.000445463
13 *182:25 *268:16 0
14 *182:25 *278:10 0
15 *182:25 *281:8 0
16 *1202:A *182:11 0
17 *111:12 *182:25 2.87256e-05
18 *129:14 *182:25 0
19 *179:13 *182:15 0
20 *180:13 *182:15 0
21 *181:13 *182:11 0
*RES
1 S2MID[7] *182:11 45.5517 
2 *182:11 *182:15 49.2726 
3 *182:15 *182:25 47.8486 
4 *182:25 *1142:A 40 
*END

*D_NET *183 0.00166649
*CONN
*P S4END[0] I
*I *1216:A I *D sg13g2_buf_1
*CAP
1 S4END[0] 0.000616125
2 *1216:A 0.000616125
3 *1216:A *190:13 0
4 *1216:A *327:10 0
5 *1216:A *341:10 0
6 *1209:A *1216:A 0
7 *170:13 *1216:A 0.000434238
8 *172:13 *1216:A 0
9 *174:11 *1216:A 0
*RES
1 S4END[0] *1216:A 25.9843 
*END

*D_NET *184 0.00492317
*CONN
*P S4END[10] I
*I *1163:A I *D sg13g2_buf_1
*CAP
1 S4END[10] 0.000857428
2 *1163:A 0.000179543
3 *184:9 0.00103697
4 *184:9 *185:9 0.00204273
5 *184:9 *188:17 4.74714e-05
6 *184:9 *190:13 0
7 *184:9 *192:13 0.00075902
8 *184:9 *198:13 0
9 *184:9 *356:22 0
10 *1202:A *1163:A 0
11 *168:13 *184:9 0
12 *181:13 *1163:A 0
*RES
1 S4END[10] *184:9 31.6081 
2 *184:9 *1163:A 41.4008 
*END

*D_NET *185 0.00545853
*CONN
*P S4END[11] I
*I *1162:A I *D sg13g2_buf_1
*CAP
1 S4END[11] 0.00102981
2 *1162:A 0.000111089
3 *185:9 0.0011409
4 *185:9 *186:13 0
5 *185:9 *188:17 7.92265e-05
6 *185:9 *193:13 0.000340704
7 *185:9 *194:15 0.000305544
8 *185:9 *326:26 0
9 *185:9 *365:14 0.000232421
10 *1214:A *1162:A 0
11 *181:13 *1162:A 0.000176092
12 *182:11 *185:9 0
13 *184:9 *185:9 0.00204273
*RES
1 S4END[11] *185:9 33.3076 
2 *185:9 *1162:A 41.1845 
*END

*D_NET *186 0.00533883
*CONN
*P S4END[12] I
*I *1161:A I *D sg13g2_buf_1
*CAP
1 S4END[12] 0.0019847
2 *1161:A 4.96768e-05
3 *186:13 0.00203438
4 *186:13 *1179:A 0.000207874
5 *186:13 *187:9 0
6 *186:13 *194:15 0.000467369
7 *186:13 *354:8 0
8 *186:13 *354:10 0
9 *186:13 *355:10 0.000514608
10 *186:13 *359:12 0
11 *186:13 *363:10 0
12 *181:13 *1161:A 8.02267e-05
13 *185:9 *186:13 0
*RES
1 S4END[12] *186:13 38.9211 
2 *186:13 *1161:A 40.5356 
*END

*D_NET *187 0.00583958
*CONN
*P S4END[13] I
*I *1160:A I *D sg13g2_buf_1
*CAP
1 S4END[13] 0.00133143
2 *1160:A 5.06746e-05
3 *187:9 0.0013821
4 *1160:A *336:10 0
5 *1160:A *337:8 8.00842e-05
6 *187:9 *1178:A 0
7 *187:9 *188:17 0
8 *187:9 *188:31 0.00156501
9 *187:9 *198:13 0
10 *187:9 *213:21 0.00087277
11 *187:9 *214:11 0.000446438
12 *187:9 *355:10 0.00011107
13 *187:9 *356:8 0
14 *186:13 *187:9 0
*RES
1 S4END[13] *187:9 35.0689 
2 *187:9 *1160:A 40.5356 
*END

*D_NET *188 0.00623619
*CONN
*P S4END[14] I
*I *1159:A I *D sg13g2_buf_1
*CAP
1 S4END[14] 0.000733371
2 *1159:A 5.53426e-05
3 *188:31 0.00120437
4 *188:17 0.0018824
5 *1159:A *350:14 0
6 *188:17 *1179:A 0
7 *188:17 *189:9 0
8 *188:17 *192:13 0.000144655
9 *188:17 *194:15 0
10 *188:17 *198:13 0.000110965
11 *188:17 *354:8 0.000110965
12 *188:17 *356:8 0.000112236
13 *188:17 *356:22 0
14 *188:17 *365:14 0
15 *188:31 *198:13 0
16 *188:31 *214:11 4.81958e-05
17 *188:31 *326:10 1.56814e-05
18 *188:31 *350:14 0
19 *188:31 *402:14 0.000126307
20 *181:13 *1159:A 0
21 *184:9 *188:17 4.74714e-05
22 *185:9 *188:17 7.92265e-05
23 *187:9 *188:17 0
24 *187:9 *188:31 0.00156501
*RES
1 S4END[14] *188:17 46.8804 
2 *188:17 *188:31 32.5763 
3 *188:31 *1159:A 40.5356 
*END

*D_NET *189 0.00807652
*CONN
*P S4END[15] I
*I *1158:A I *D sg13g2_buf_1
*CAP
1 S4END[15] 0.00148494
2 *1158:A 0.000161083
3 *189:9 0.00164603
4 *1158:A *336:10 0
5 *189:9 *1176:A 0
6 *189:9 *1178:A 0
7 *189:9 *1224:A 0
8 *189:9 *196:21 0.000370834
9 *189:9 *198:13 0
10 *189:9 *322:8 0.000143351
11 *189:9 *322:12 0.00262915
12 *189:9 *337:16 0.000501962
13 *189:9 *341:16 0
14 *189:9 *356:8 0.000240786
15 *189:9 *359:10 0
16 *189:9 *359:12 0
17 *189:9 *392:28 0.00065789
18 *181:13 *1158:A 0.000240492
19 *188:17 *189:9 0
*RES
1 S4END[15] *189:9 38.7472 
2 *189:9 *1158:A 41.6171 
*END

*D_NET *190 0.00220381
*CONN
*P S4END[1] I
*I *1217:A I *D sg13g2_buf_1
*CAP
1 S4END[1] 0.000528364
2 *1217:A 0
3 *190:13 0.000528364
4 *190:13 *191:13 0.000394151
5 *190:13 *192:13 0.000287672
6 *190:13 *195:11 0.000272789
7 *190:13 *326:16 8.00394e-05
8 *1216:A *190:13 0
9 *172:13 *190:13 0.000112426
10 *184:9 *190:13 0
*RES
1 S4END[1] *190:13 45.8401 
2 *190:13 *1217:A 20 
*END

*D_NET *191 0.00256769
*CONN
*P S4END[2] I
*I *1218:A I *D sg13g2_buf_1
*CAP
1 S4END[2] 0.000518367
2 *1218:A 0
3 *191:13 0.000518367
4 *191:13 *192:13 0
5 *191:13 *193:13 0.000144655
6 *191:13 *197:9 0.000305367
7 *191:13 *356:22 0.000606694
8 *172:13 *191:13 8.00842e-05
9 *190:13 *191:13 0.000394151
*RES
1 S4END[2] *191:13 46.3345 
2 *191:13 *1218:A 20 
*END

*D_NET *192 0.00264363
*CONN
*P S4END[3] I
*I *1219:A I *D sg13g2_buf_1
*CAP
1 S4END[3] 0.000605897
2 *1219:A 0
3 *192:13 0.000605897
4 *192:13 *193:13 0
5 *192:13 *198:13 0.000240492
6 *192:13 *356:22 0
7 *184:9 *192:13 0.00075902
8 *188:17 *192:13 0.000144655
9 *190:13 *192:13 0.000287672
10 *191:13 *192:13 0
*RES
1 S4END[3] *192:13 46.8289 
2 *192:13 *1219:A 20 
*END

*D_NET *193 0.00210437
*CONN
*P S4END[4] I
*I *1220:A I *D sg13g2_buf_1
*CAP
1 S4END[4] 0.000705607
2 *1220:A 0
3 *193:13 0.000705607
4 *193:13 *194:15 0
5 *193:13 *195:11 0
6 *193:13 *197:9 0
7 *193:13 *198:13 0
8 *193:13 *326:26 0
9 *193:13 *351:6 0.0002078
10 *172:13 *193:13 0
11 *185:9 *193:13 0.000340704
12 *191:13 *193:13 0.000144655
13 *192:13 *193:13 0
*RES
1 S4END[4] *193:13 46.8289 
2 *193:13 *1220:A 20 
*END

*D_NET *194 0.0021264
*CONN
*P S4END[5] I
*I *1221:A I *D sg13g2_buf_1
*CAP
1 S4END[5] 0.000636701
2 *1221:A 0
3 *194:15 0.000636701
4 *194:15 *1179:A 8.00842e-05
5 *194:15 *195:11 0
6 *194:15 *356:22 0
7 *185:9 *194:15 0.000305544
8 *186:13 *194:15 0.000467369
9 *188:17 *194:15 0
10 *193:13 *194:15 0
*RES
1 S4END[5] *194:15 46.9319 
2 *194:15 *1221:A 20 
*END

*D_NET *195 0.00240924
*CONN
*P S4END[6] I
*I *1222:A I *D sg13g2_buf_1
*CAP
1 S4END[6] 0.000659439
2 *1222:A 0
3 *195:11 0.000659439
4 *195:11 *196:21 0
5 *195:11 *358:20 0.000817575
6 *195:11 *361:22 0
7 *190:13 *195:11 0.000272789
8 *193:13 *195:11 0
9 *194:15 *195:11 0
*RES
1 S4END[6] *195:11 47.2203 
2 *195:11 *1222:A 20 
*END

*D_NET *196 0.00293033
*CONN
*P S4END[7] I
*I *1223:A I *D sg13g2_buf_1
*CAP
1 S4END[7] 0.000645624
2 *1223:A 0
3 *196:21 0.000645624
4 *196:21 *1224:A 0.000370906
5 *196:21 *197:9 0.000132713
6 *196:21 *356:22 0.000764629
7 *196:21 *365:14 0
8 *189:9 *196:21 0.000370834
9 *195:11 *196:21 0
*RES
1 S4END[7] *196:21 48.2297 
2 *196:21 *1223:A 20 
*END

*D_NET *197 0.00504627
*CONN
*P S4END[8] I
*I *1165:A I *D sg13g2_buf_1
*CAP
1 S4END[8] 0.00114376
2 *1165:A 7.35106e-05
3 *197:9 0.00121727
4 *1165:A *309:8 0
5 *1165:A *336:10 0.000112198
6 *197:9 *198:13 0
7 *197:9 *326:10 0.000341071
8 *197:9 *350:14 0
9 *197:9 *402:14 0.00172039
10 *181:13 *1165:A 0
11 *191:13 *197:9 0.000305367
12 *193:13 *197:9 0
13 *196:21 *197:9 0.000132713
*RES
1 S4END[8] *197:9 32.5042 
2 *197:9 *1165:A 40.7519 
*END

*D_NET *198 0.00647522
*CONN
*P S4END[9] I
*I *1164:A I *D sg13g2_buf_1
*CAP
1 S4END[9] 0.00172472
2 *1164:A 7.72479e-05
3 *198:13 0.00180196
4 *1164:A *300:8 0.000144422
5 *1164:A *350:14 0.00014423
6 *198:13 *213:21 0.000504219
7 *198:13 *341:16 0.00172697
8 *198:13 *350:14 0
9 *198:13 *354:8 0
10 *198:13 *392:28 0
11 *184:9 *198:13 0
12 *187:9 *198:13 0
13 *188:17 *198:13 0.000110965
14 *188:31 *198:13 0
15 *189:9 *198:13 0
16 *192:13 *198:13 0.000240492
17 *193:13 *198:13 0
18 *197:9 *198:13 0
*RES
1 S4END[9] *198:13 38.1795 
2 *198:13 *1164:A 40.9682 
*END

*D_NET *199 0.00121845
*CONN
*P SS4END[0] I
*I *1224:A I *D sg13g2_buf_1
*CAP
1 SS4END[0] 0.000423773
2 *1224:A 0.000423773
3 *1224:A *206:13 0
4 *1224:A *207:11 0
5 *189:9 *1224:A 0
6 *196:21 *1224:A 0.000370906
*RES
1 SS4END[0] *1224:A 24.2539 
*END

*D_NET *200 0.00486482
*CONN
*P SS4END[10] I
*I *1179:A I *D sg13g2_buf_1
*CAP
1 SS4END[10] 0.000883951
2 *1179:A 0.000214915
3 *200:9 0.00109887
4 *1179:A *354:8 0.000207874
5 *200:9 *201:11 0.0012952
6 *200:9 *204:11 0
7 *200:9 *207:11 0
8 *200:9 *209:13 0.000273509
9 *200:9 *214:11 0
10 *200:9 *358:20 0.000602549
11 *200:9 *361:14 0
12 *186:13 *1179:A 0.000207874
13 *188:17 *1179:A 0
14 *194:15 *1179:A 8.00842e-05
*RES
1 SS4END[10] *200:9 30.4957 
2 *200:9 *1179:A 42.266 
*END

*D_NET *201 0.00479783
*CONN
*P SS4END[11] I
*I *1178:A I *D sg13g2_buf_1
*CAP
1 SS4END[11] 0.000608226
2 *1178:A 0.000346514
3 *201:11 0.00095474
4 *1178:A *356:8 1.54008e-05
5 *201:11 *202:11 0
6 *201:11 *210:13 0.000176484
7 *201:11 *365:14 0.00140126
8 *187:9 *1178:A 0
9 *189:9 *1178:A 0
10 *200:9 *201:11 0.0012952
*RES
1 SS4END[11] *201:11 49.2906 
2 *201:11 *1178:A 22.8325 
*END

*D_NET *202 0.00338749
*CONN
*P SS4END[12] I
*I *1177:A I *D sg13g2_buf_1
*CAP
1 SS4END[12] 0.00120316
2 *1177:A 0
3 *202:11 0.00120316
4 *202:11 *203:11 0
5 *202:11 *205:11 0.0006599
6 *202:11 *210:13 0.000273739
7 *202:11 *214:11 0
8 *202:11 *365:8 4.75425e-05
9 *202:11 *402:14 0
10 *202:11 *414:10 0
11 *201:11 *202:11 0
*RES
1 SS4END[12] *202:11 31.5257 
2 *202:11 *1177:A 40 
*END

*D_NET *203 0.0046351
*CONN
*P SS4END[13] I
*I *1176:A I *D sg13g2_buf_1
*CAP
1 SS4END[13] 0.000704876
2 *1176:A 0.000115234
3 *203:11 0.00082011
4 *1176:A *359:10 0.000175886
5 *203:11 *204:11 0.00103342
6 *203:11 *212:13 0.000469268
7 *203:11 *361:14 2.20966e-05
8 *203:11 *365:8 4.75425e-05
9 *203:11 *402:14 0.00124667
10 *189:9 *1176:A 0
11 *202:11 *203:11 0
*RES
1 SS4END[13] *203:11 49.8468 
2 *203:11 *1176:A 21.1845 
*END

*D_NET *204 0.00375342
*CONN
*P SS4END[14] I
*I *1175:A I *D sg13g2_buf_1
*CAP
1 SS4END[14] 0.00077661
2 *1175:A 0.000177989
3 *204:11 0.0009546
4 *1175:A *359:10 0
5 *1175:A *360:6 0
6 *204:11 *205:11 0
7 *204:11 *212:13 0.000469268
8 *204:11 *361:14 0.000341534
9 *200:9 *204:11 0
10 *203:11 *204:11 0.00103342
*RES
1 SS4END[14] *204:11 49.1361 
2 *204:11 *1175:A 21.4008 
*END

*D_NET *205 0.00322649
*CONN
*P SS4END[15] I
*I *1174:A I *D sg13g2_buf_1
*CAP
1 SS4END[15] 0.000835816
2 *1174:A 0
3 *205:11 0.000835816
4 *205:11 UserCLKo 0
5 *205:11 *214:11 0.000341205
6 *205:11 *330:14 0
7 *205:11 *389:28 0.000553758
8 *205:11 *393:22 0
9 *205:11 *402:14 0
10 FrameStrobe_O[3] *205:11 0
11 *202:11 *205:11 0.0006599
12 *204:11 *205:11 0
*RES
1 SS4END[15] *205:11 49.5075 
2 *205:11 *1174:A 20 
*END

*D_NET *206 0.0011639
*CONN
*P SS4END[1] I
*I *1225:A I *D sg13g2_buf_1
*CAP
1 SS4END[1] 0.000520517
2 *1225:A 0
3 *206:13 0.000520517
4 *206:13 *207:11 0
5 *206:13 *208:13 0.000122871
6 *206:13 *211:13 0
7 *206:13 *365:14 0
8 *1224:A *206:13 0
*RES
1 SS4END[1] *206:13 44.8513 
2 *206:13 *1225:A 20 
*END

*D_NET *207 0.00148843
*CONN
*P SS4END[2] I
*I *1227:A I *D sg13g2_buf_1
*CAP
1 SS4END[2] 0.000546019
2 *1227:A 0
3 *207:11 0.000546019
4 *207:11 *208:13 0
5 *207:11 *361:14 0.000396398
6 *1224:A *207:11 0
7 *200:9 *207:11 0
8 *206:13 *207:11 0
*RES
1 SS4END[2] *207:11 45.2427 
2 *207:11 *1227:A 20 
*END

*D_NET *208 0.00194808
*CONN
*P SS4END[3] I
*I *1228:A I *D sg13g2_buf_1
*CAP
1 SS4END[3] 0.000560268
2 *1228:A 0
3 *208:13 0.000560268
4 *208:13 *209:13 0
5 *208:13 *210:13 0.000287757
6 *208:13 *211:13 0.000176393
7 *208:13 *213:21 0.000240519
8 *208:13 *365:14 0
9 *206:13 *208:13 0.000122871
10 *207:11 *208:13 0
*RES
1 SS4END[3] *208:13 45.8401 
2 *208:13 *1228:A 20 
*END

*D_NET *209 0.00191809
*CONN
*P SS4END[4] I
*I *1229:A I *D sg13g2_buf_1
*CAP
1 SS4END[4] 0.000653124
2 *1229:A 0
3 *209:13 0.000653124
4 *209:13 *210:13 0
5 *209:13 *212:13 0
6 *209:13 *214:11 0.000338335
7 *209:13 *414:10 0
8 *200:9 *209:13 0.000273509
9 *208:13 *209:13 0
*RES
1 SS4END[4] *209:13 46.3345 
2 *209:13 *1229:A 20 
*END

*D_NET *210 0.00212782
*CONN
*P SS4END[5] I
*I *1230:A I *D sg13g2_buf_1
*CAP
1 SS4END[5] 0.000687221
2 *1230:A 0
3 *210:13 0.000687221
4 *210:13 *211:13 0
5 *210:13 *414:10 1.54008e-05
6 *201:11 *210:13 0.000176484
7 *202:11 *210:13 0.000273739
8 *208:13 *210:13 0.000287757
9 *209:13 *210:13 0
*RES
1 SS4END[5] *210:13 46.8289 
2 *210:13 *1230:A 20 
*END

*D_NET *211 0.00199592
*CONN
*P SS4END[6] I
*I *1231:A I *D sg13g2_buf_1
*CAP
1 SS4END[6] 0.000688287
2 *1231:A 0
3 *211:13 0.000688287
4 *211:13 *212:13 0
5 *211:13 *213:21 0
6 *211:13 *214:11 0
7 *211:13 *362:8 0.000208227
8 *211:13 *365:14 0.000234726
9 *206:13 *211:13 0
10 *208:13 *211:13 0.000176393
11 *210:13 *211:13 0
*RES
1 SS4END[6] *211:13 46.3345 
2 *211:13 *1231:A 20 
*END

*D_NET *212 0.00215337
*CONN
*P SS4END[7] I
*I *1232:A I *D sg13g2_buf_1
*CAP
1 SS4END[7] 0.000607415
2 *1232:A 0
3 *212:13 0.000607415
4 *212:13 *213:21 0
5 *203:11 *212:13 0.000469268
6 *204:11 *212:13 0.000469268
7 *209:13 *212:13 0
8 *211:13 *212:13 0
*RES
1 SS4END[7] *212:13 46.8289 
2 *212:13 *1232:A 20 
*END

*D_NET *213 0.00588043
*CONN
*P SS4END[8] I
*I *1181:A I *D sg13g2_buf_1
*CAP
1 SS4END[8] 0.00125064
2 *1181:A 8.23928e-05
3 *213:21 0.00133303
4 *1181:A *351:6 0
5 *213:21 *214:11 0
6 *213:21 *313:10 0.000660389
7 *213:21 *360:6 0
8 *213:21 *364:8 1.54008e-05
9 *213:21 *392:28 0
10 *213:21 *393:22 0.000921075
11 *187:9 *213:21 0.00087277
12 *198:13 *213:21 0.000504219
13 *208:13 *213:21 0.000240519
14 *211:13 *213:21 0
15 *212:13 *213:21 0
*RES
1 SS4END[8] *213:21 35.9032 
2 *213:21 *1181:A 40.7519 
*END

*D_NET *214 0.0049763
*CONN
*P SS4END[9] I
*I *1180:A I *D sg13g2_buf_1
*CAP
1 SS4END[9] 0.00118574
2 *1180:A 0
3 *214:11 0.00118574
4 *214:11 *362:8 0.000240569
5 *214:11 *363:8 0
6 *214:11 *393:22 0.00119007
7 *214:11 *402:14 0
8 *214:11 *414:10 0
9 *187:9 *214:11 0.000446438
10 *188:31 *214:11 4.81958e-05
11 *200:9 *214:11 0
12 *202:11 *214:11 0
13 *205:11 *214:11 0.000341205
14 *209:13 *214:11 0.000338335
15 *211:13 *214:11 0
16 *213:21 *214:11 0
*RES
1 SS4END[9] *214:11 33.6887 
2 *214:11 *1180:A 40 
*END

*D_NET *215 0.0159039
*CONN
*P UserCLK I
*I *1190:A I *D sg13g2_buf_1
*CAP
1 UserCLK 1.78586e-05
2 *1190:A 0
3 *215:19 0.00123246
4 *215:15 0.00173089
5 *215:9 0.00272444
6 *215:7 0.00224388
7 *1123:A *215:15 0
8 *3:9 *215:9 0.00574152
9 *3:17 *215:19 0
10 *25:21 *215:19 0.00221281
11 *31:5 *215:19 0
12 *31:9 *215:19 0
13 *78:9 *215:9 0
14 *83:9 *215:9 0
15 *85:11 *215:15 0
*RES
1 UserCLK *215:7 20.1648 
2 *215:7 *215:9 33.2278 
3 *215:9 *215:15 44.6453 
4 *215:15 *215:19 33.9462 
5 *215:19 *1190:A 20 
*END

*D_NET *216 0.000693578
*CONN
*P UserCLKo O
*I *1292:X O *D sg13g2_buf_1
*CAP
1 UserCLKo 0.000346789
2 *1292:X 0.000346789
3 FrameStrobe_O[0] UserCLKo 0
4 *205:11 UserCLKo 0
*RES
1 *1292:X UserCLKo 23.1106 
*END

*D_NET *219 0.00390211
*CONN
*I *1037:A I *D sg13g2_nor2_1
*I *1036:B_N I *D sg13g2_nor2b_1
*I *1039:B_N I *D sg13g2_nor2b_1
*I *1040:A1 I *D sg13g2_o21ai_1
*I *1034:S0 I *D sg13g2_mux4_1
*I *1074:Q O *D sg13g2_dlhq_1
*CAP
1 *1037:A 0.000231491
2 *1036:B_N 2.60565e-05
3 *1039:B_N 0.000185441
4 *1040:A1 0
5 *1034:S0 0.000228807
6 *1074:Q 0
7 *219:47 0.000474686
8 *219:34 0.000687755
9 *219:23 0.000468858
10 *219:6 0.00041249
11 *1034:S0 *1141:A 1.54282e-05
12 *1034:S0 *315:18 0
13 *1034:S0 *331:16 0.000224976
14 *1034:S0 *380:12 0
15 *1036:B_N *1035:B 4.77425e-05
16 *1036:B_N *1041:A1 4.77425e-05
17 *1037:A *221:28 0.000125103
18 *1037:A *239:12 0.000262012
19 *1037:A *333:14 5.23167e-05
20 *1037:A *349:22 0
21 *1037:A *380:12 0
22 *1037:A *380:14 1.93345e-05
23 *1039:B_N *346:39 7.9813e-05
24 *1039:B_N *362:22 0
25 *219:23 *315:18 0
26 *219:23 *340:22 0
27 *219:23 *358:40 0.00011209
28 *219:23 *380:12 0
29 *219:34 *1040:B1 0
30 *219:34 *340:22 0
31 *219:34 *358:26 3.23417e-05
32 *219:34 *358:40 1.53666e-05
33 *219:34 *380:12 0
34 *219:47 *221:28 2.17504e-05
35 *219:47 *235:10 0
36 *219:47 *239:12 0.000130506
37 *219:47 *380:12 0
38 *67:17 *1034:S0 0
*RES
1 *1074:Q *219:6 40 
2 *219:6 *1034:S0 42.2145 
3 *219:6 *219:23 21.5965 
4 *219:23 *1040:A1 20 
5 *219:23 *219:34 22.3999 
6 *219:34 *1039:B_N 41.7201 
7 *219:34 *219:47 1.8334 
8 *219:47 *1036:B_N 40.3193 
9 *219:47 *1037:A 42.6059 
*END

*D_NET *220 0.00216747
*CONN
*I *1038:A I *D sg13g2_nor3_1
*I *1034:S1 I *D sg13g2_mux4_1
*I *1040:B1 I *D sg13g2_o21ai_1
*I *1075:Q O *D sg13g2_dlhq_1
*CAP
1 *1038:A 0
2 *1034:S1 0.000344601
3 *1040:B1 0.000170221
4 *1075:Q 0.000190583
5 *220:12 0.000607573
6 *220:8 0.000283335
7 *1034:S1 *1042:A2 7.86681e-05
8 *1034:S1 *233:8 0.00023169
9 *1034:S1 *333:14 2.14736e-05
10 *1034:S1 *333:24 0
11 *1040:B1 *237:10 0.00011209
12 *1040:B1 *315:18 0
13 *1040:B1 *333:24 0
14 *1040:B1 *358:26 1.53666e-05
15 *1040:B1 *358:40 0.000111865
16 *220:8 *1038:B 0
17 *220:12 *1038:B 0
18 *220:12 *237:10 0
19 *219:34 *1040:B1 0
*RES
1 *1075:Q *220:8 21.751 
2 *220:8 *220:12 20.7519 
3 *220:12 *1040:B1 41.5965 
4 *220:12 *1034:S1 43.2702 
5 *220:8 *1038:A 20 
*END

*D_NET *221 0.00262435
*CONN
*I *1035:A I *D sg13g2_nor2_1
*I *1041:B1 I *D sg13g2_o21ai_1
*I *1076:Q O *D sg13g2_dlhq_1
*CAP
1 *1035:A 0
2 *1041:B1 0
3 *1076:Q 4.5883e-05
4 *221:28 0.000344748
5 *221:20 0.00050514
6 *221:12 0.000348354
7 *221:8 0.000233845
8 *221:8 *320:14 0.000234986
9 *221:8 *331:8 0.000234437
10 *221:20 *297:16 0.000116115
11 *221:20 *362:22 0
12 *221:28 *1041:A1 0.000144768
13 *221:28 *238:10 0.000144395
14 *221:28 *380:12 0.000124826
15 *1037:A *221:28 0.000125103
16 *219:47 *221:28 2.17504e-05
*RES
1 *1076:Q *221:8 41.0918 
2 *221:8 *221:12 21.6171 
3 *221:12 *221:20 41.5038 
4 *221:20 *221:28 43.296 
5 *221:28 *1041:B1 20 
6 *221:12 *1035:A 20 
*END

*D_NET *222 0.00486076
*CONN
*I *1047:A I *D sg13g2_nor2_1
*I *1046:B_N I *D sg13g2_nor2b_1
*I *1049:B_N I *D sg13g2_nor2b_1
*I *1044:S0 I *D sg13g2_mux4_1
*I *1050:A1 I *D sg13g2_o21ai_1
*I *1077:Q O *D sg13g2_dlhq_1
*CAP
1 *1047:A 0.000154416
2 *1046:B_N 0.000240984
3 *1049:B_N 0.00013029
4 *1044:S0 0.000319946
5 *1050:A1 0
6 *1077:Q 0.000118143
7 *222:45 0.00051187
8 *222:34 0.000343315
9 *222:12 0.000476567
10 *222:8 0.000371319
11 *1044:S0 *1044:A0 4.77425e-05
12 *1044:S0 *1050:B1 0
13 *1046:B_N *1048:C 0
14 *1046:B_N *1049:A 0
15 *1047:A *1048:C 0.000107421
16 *1047:A *248:12 0.000107421
17 *1047:A *334:20 0.000234367
18 *1047:A *363:10 0
19 *1049:B_N *318:10 0.000240701
20 *1049:B_N *346:72 0.000176018
21 *222:8 *241:12 0
22 *222:8 *334:20 2.14736e-05
23 *222:8 *345:26 0.000235957
24 *222:12 *1050:B1 0
25 *222:12 *335:38 0
26 *222:12 *345:26 0.000175457
27 *222:12 *346:72 0
28 *222:34 *241:12 0
29 *222:34 *248:12 0
30 *222:34 *314:12 0
31 *222:34 *334:20 0.000285715
32 *222:45 *248:12 0
33 *222:45 *334:20 0.000283681
34 NN4BEG[12] *1044:S0 0.000240377
35 NN4BEG[13] *1044:S0 3.75762e-05
*RES
1 *1077:Q *222:8 41.339 
2 *222:8 *222:12 21.6171 
3 *222:12 *1050:A1 20 
4 *222:12 *1044:S0 23.605 
5 *222:8 *222:34 1.339 
6 *222:34 *1049:B_N 41.6171 
7 *222:34 *222:45 1.339 
8 *222:45 *1046:B_N 41.9673 
9 *222:45 *1047:A 41.8102 
*END

*D_NET *223 0.00392141
*CONN
*I *1048:A I *D sg13g2_nor3_1
*I *1050:B1 I *D sg13g2_o21ai_1
*I *1044:S1 I *D sg13g2_mux4_1
*I *1078:Q O *D sg13g2_dlhq_1
*CAP
1 *1048:A 0
2 *1050:B1 6.73535e-05
3 *1044:S1 0.000272018
4 *1078:Q 0
5 *223:38 0.000274273
6 *223:21 0.000431651
7 *223:6 0.000362042
8 *1044:S1 *322:12 0.000660461
9 *1044:S1 *356:22 0.00020996
10 *1050:B1 *246:10 1.54008e-05
11 *223:21 *318:16 0
12 *223:21 *322:12 0.000208845
13 *223:38 *244:8 2.17504e-05
14 *223:38 *246:10 0.000322636
15 *223:38 *341:16 0.000339617
16 *1044:S0 *1050:B1 0
17 *150:10 *1044:S1 0.000660963
18 *150:10 *223:21 7.44378e-05
19 *163:15 *223:38 0
20 *222:12 *1050:B1 0
*RES
1 *1078:Q *223:6 40 
2 *223:6 *1044:S1 44.4831 
3 *223:6 *223:21 21.0918 
4 *223:21 *1050:B1 20.5356 
5 *223:21 *223:38 43.09 
6 *223:38 *1048:A 20 
*END

*D_NET *224 0.00412314
*CONN
*I *1051:B1 I *D sg13g2_o21ai_1
*I *1045:A I *D sg13g2_nor2_1
*I *1079:Q O *D sg13g2_dlhq_1
*CAP
1 *1051:B1 0.000158732
2 *1045:A 0.000415981
3 *1079:Q 0
4 *224:6 0.000574713
5 *1045:A *306:8 0.000556331
6 *1045:A *332:8 0.000240377
7 *1045:A *343:22 0.000558085
8 *1045:A *348:28 2.20966e-05
9 *1051:B1 *1051:A2 0.000112426
10 *1051:B1 *247:10 0.000112426
11 *1051:B1 *306:8 0.000499214
12 *1051:B1 *343:22 0.000477586
13 NN4BEG[6] *1045:A 0.000395177
*RES
1 *1079:Q *224:6 40 
2 *224:6 *1045:A 46.1697 
3 *224:6 *1051:B1 43.0797 
*END

*D_NET *225 0.00463648
*CONN
*I *1059:B_N I *D sg13g2_nor2b_1
*I *1056:B_N I *D sg13g2_nor2b_1
*I *1057:A I *D sg13g2_nor2_1
*I *1060:A1 I *D sg13g2_o21ai_1
*I *1054:S0 I *D sg13g2_mux4_1
*I *1080:Q O *D sg13g2_dlhq_1
*CAP
1 *1059:B_N 0
2 *1056:B_N 0
3 *1057:A 0.000215876
4 *1060:A1 0.000293612
5 *1054:S0 0.000230049
6 *1080:Q 0.000329278
7 *225:40 0.000452664
8 *225:36 0.00047349
9 *225:21 0.000771462
10 *225:8 0.000800474
11 *1054:S0 *1054:A0 4.77425e-05
12 *1054:S0 *299:34 0
13 *1054:S0 *333:24 3.23417e-05
14 *1054:S0 *333:37 7.51285e-05
15 *1054:S0 *338:22 0
16 *1057:A *1171:A 0
17 *1057:A *252:10 0.000305317
18 *1060:A1 *1060:B1 0
19 *1060:A1 *1060:A2 1.54008e-05
20 *1060:A1 *1151:A 0
21 *1060:A1 *317:10 0
22 *225:8 *1081:GATE 0.000207541
23 *225:8 *272:8 0
24 *225:8 *317:10 0
25 *225:21 *299:34 0
26 *225:21 *333:24 0
27 *225:36 *1061:A2 4.77425e-05
28 *225:36 *226:27 0
29 *225:36 *251:12 4.77425e-05
30 *225:36 *254:8 0.00012526
31 *225:36 *329:12 0
32 *225:40 *1061:A2 2.14475e-05
33 *225:40 *252:10 0.000143908
*RES
1 *1080:Q *225:8 43.1312 
2 *225:8 *1054:S0 42.1218 
3 *225:8 *225:21 2.0806 
4 *225:21 *1060:A1 42.266 
5 *225:21 *225:36 22.1218 
6 *225:36 *225:40 2.1836 
7 *225:40 *1057:A 22.266 
8 *225:40 *1056:B_N 20 
9 *225:36 *1059:B_N 20 
*END

*D_NET *226 0.00293075
*CONN
*I *1054:S1 I *D sg13g2_mux4_1
*I *1058:A I *D sg13g2_nor3_1
*I *1060:B1 I *D sg13g2_o21ai_1
*I *1081:Q O *D sg13g2_dlhq_1
*CAP
1 *1054:S1 0
2 *1058:A 0
3 *1060:B1 0.000207944
4 *1081:Q 0.000159361
5 *226:27 0.000296521
6 *226:12 0.000697773
7 *226:8 0.00035267
8 *1060:B1 *1060:A2 1.54008e-05
9 *1060:B1 *1061:A2 0.000213425
10 *226:8 *346:16 0.000395369
11 *226:8 *368:10 0
12 *226:12 *1061:A2 4.23522e-05
13 *226:12 *317:10 0
14 *226:27 *249:8 0.000549933
15 *1060:A1 *1060:B1 0
16 *225:36 *226:27 0
*RES
1 *1081:Q *226:8 41.8334 
2 *226:8 *226:12 21.5811 
3 *226:12 *1060:B1 21.8694 
4 *226:12 *226:27 43.0694 
5 *226:27 *1058:A 20 
6 *226:12 *1054:S1 20 
*END

*D_NET *227 0.00267438
*CONN
*I *1055:A I *D sg13g2_nor2_1
*I *1061:B1 I *D sg13g2_o21ai_1
*I *1082:Q O *D sg13g2_dlhq_1
*CAP
1 *1055:A 0.000434963
2 *1061:B1 9.84093e-05
3 *1082:Q 0.00016386
4 *227:10 0.000697232
5 *1055:A *1055:B 0
6 *1055:A *1063:A 0
7 *1055:A *285:8 0
8 *1055:A *285:14 0
9 *1055:A *315:28 0.000287447
10 *1055:A *368:10 0.000531565
11 *1055:A *368:14 4.77425e-05
12 *1055:A *380:12 0
13 *1061:B1 *285:14 0
14 *1061:B1 *368:10 0.000286948
15 *227:10 *1072:B1 4.75166e-05
16 *227:10 *315:36 0
17 *227:10 *346:31 7.87004e-05
18 *67:17 *1055:A 0
*RES
1 *1082:Q *227:10 41.5038 
2 *227:10 *1061:B1 41.339 
3 *227:10 *1055:A 45.0882 
*END

*D_NET *228 0.00625982
*CONN
*I *1066:B_N I *D sg13g2_nor2b_1
*I *1070:A1 I *D sg13g2_o21ai_1
*I *1069:B_N I *D sg13g2_nor2b_1
*I *1064:S0 I *D sg13g2_mux4_1
*I *1067:A I *D sg13g2_nor2_1
*I *1083:Q O *D sg13g2_dlhq_1
*CAP
1 *1066:B_N 0.000392239
2 *1070:A1 3.10612e-05
3 *1069:B_N 3.05917e-05
4 *1064:S0 0.000230041
5 *1067:A 0.000211571
6 *1083:Q 4.63956e-05
7 *228:51 0.000507635
8 *228:40 0.000180599
9 *228:18 0.000552109
10 *228:16 0.000404443
11 *228:10 0.000274668
12 *1064:S0 *1073:A 4.77425e-05
13 *1064:S0 *1073:B 8.00842e-05
14 *1066:B_N *263:12 0.000124547
15 *1066:B_N *264:8 0.00018023
16 *1066:B_N *265:8 0.000181192
17 *1066:B_N *266:8 0
18 *1066:B_N *316:18 0
19 *1066:B_N *317:18 0
20 *1066:B_N *319:36 7.33256e-05
21 *1067:A *1067:B 0.000447598
22 *1067:A *268:32 4.77425e-05
23 *1069:B_N *317:10 4.76973e-05
24 *1069:B_N *348:36 0
25 *1070:A1 *1070:A2 1.54008e-05
26 *1070:A1 *329:20 4.77425e-05
27 *228:10 *261:10 7.56308e-05
28 *228:10 *288:16 7.34778e-05
29 *228:10 *334:44 4.77425e-05
30 *228:16 *348:36 0.000172097
31 *228:40 *266:8 0
32 *228:51 *263:12 0.000176396
33 N4BEG[1] *1064:S0 0.00014391
34 N4BEG[3] *228:18 0
35 *140:20 *1067:A 7.51285e-05
36 *141:16 *228:16 0
37 *145:16 *1067:A 0.000712429
38 *145:16 *228:18 0.000208747
39 *145:16 *228:40 0.000159092
40 *145:16 *228:51 0.000260518
*RES
1 *1083:Q *228:10 40.6695 
2 *228:10 *228:16 41.8334 
3 *228:16 *228:18 1.0918 
4 *228:18 *1067:A 43.6359 
5 *228:18 *1064:S0 42.0497 
6 *228:16 *228:40 0.8446 
7 *228:40 *1069:B_N 40.3193 
8 *228:40 *228:51 1.339 
9 *228:51 *1070:A1 40.3193 
10 *228:51 *1066:B_N 44.1303 
*END

*D_NET *229 0.00344887
*CONN
*I *1064:S1 I *D sg13g2_mux4_1
*I *1070:B1 I *D sg13g2_o21ai_1
*I *1068:A I *D sg13g2_nor3_1
*I *1084:Q O *D sg13g2_dlhq_1
*CAP
1 *1064:S1 0.00027272
2 *1070:B1 0
3 *1068:A 0
4 *1084:Q 0.000220586
5 *229:27 0.000570772
6 *229:12 0.000426357
7 *229:8 0.000348891
8 *1064:S1 *1070:A2 3.23417e-05
9 *1064:S1 *258:18 0
10 *229:8 *1065:A 0
11 *229:8 *258:18 0.000394603
12 *229:8 *295:36 0
13 *229:8 *323:10 0
14 *229:12 *1071:B1 0.00014391
15 *229:12 *1278:A 0.000208035
16 *229:27 *1070:A2 1.54008e-05
17 *229:27 *1071:B1 0.000160849
18 *229:27 *1278:A 0.00017625
19 *229:27 *258:18 0
20 *229:27 *316:18 0.000230615
21 *229:27 *329:20 0
22 *229:27 *334:32 0.000232136
23 N4BEG[8] *1064:S1 1.54008e-05
*RES
1 *1084:Q *229:8 42.575 
2 *229:8 *229:12 21.4008 
3 *229:12 *1068:A 20 
4 *229:12 *229:27 43.4608 
5 *229:27 *1070:B1 20 
6 *229:27 *1064:S1 22.4499 
*END

*D_NET *230 0.00371736
*CONN
*I *1071:B1 I *D sg13g2_o21ai_1
*I *1065:A I *D sg13g2_nor2_1
*I *1085:Q O *D sg13g2_dlhq_1
*CAP
1 *1071:B1 0.000381007
2 *1065:A 0.000231911
3 *1085:Q 0.000204719
4 *230:10 0.000817638
5 *1065:A *258:18 0.000393926
6 *1065:A *275:14 0.000498255
7 *1065:A *317:10 0.00014391
8 *1071:B1 *1278:A 0
9 *1071:B1 *258:18 0.000240331
10 *230:10 *1072:B1 7.90662e-05
11 *230:10 *275:14 0.000342766
12 *230:10 *401:26 7.90662e-05
13 *229:8 *1065:A 0
14 *229:12 *1071:B1 0.00014391
15 *229:27 *1071:B1 0.000160849
*RES
1 *1085:Q *230:10 42.6162 
2 *230:10 *1065:A 43.296 
3 *230:10 *1071:B1 43.8316 
*END

*D_NET *231 0.00160083
*CONN
*I *1035:B I *D sg13g2_nor2_1
*I *1034:X O *D sg13g2_mux4_1
*CAP
1 *1035:B 0.000520789
2 *1034:X 0.000520789
3 *1035:B *1038:C 0
4 *1035:B *1041:A1 0.000272673
5 *1035:B *1042:B1 0.000143351
6 *1035:B *1042:A2 0
7 *1035:B *239:12 4.77425e-05
8 *1035:B *346:72 4.77425e-05
9 *1036:B_N *1035:B 4.77425e-05
*RES
1 *1034:X *1035:B 45.0161 
*END

*D_NET *232 0.00164066
*CONN
*I *1043:A I *D sg13g2_nor2_1
*I *1035:Y O *D sg13g2_nor2_1
*CAP
1 *1043:A 0.000164406
2 *1035:Y 8.86236e-05
3 *232:8 0.000253029
4 *1043:A *333:14 0.000240667
5 *232:8 *362:12 0.000446968
6 *232:8 *381:10 0.000446968
*RES
1 *1035:Y *232:8 42.0806 
2 *232:8 *1043:A 41.6171 
*END

*D_NET *233 0.00129569
*CONN
*I *1038:B I *D sg13g2_nor3_1
*I *1036:Y O *D sg13g2_nor2b_1
*CAP
1 *1038:B 9.74954e-05
2 *1036:Y 0.000272899
3 *233:8 0.000370394
4 *1038:B *1038:C 1.62574e-05
5 *233:8 *235:10 0.000179205
6 *233:8 *239:12 0
7 *233:8 *297:10 0.000127744
8 *233:8 *333:14 0
9 *1034:S1 *233:8 0.00023169
10 *220:8 *1038:B 0
11 *220:12 *1038:B 0
*RES
1 *1036:Y *233:8 42.8222 
2 *233:8 *1038:B 40.7519 
*END

*D_NET *234 0.00250952
*CONN
*I *1038:C I *D sg13g2_nor3_1
*I *1037:Y O *D sg13g2_nor2_1
*CAP
1 *1038:C 0.000265003
2 *1037:Y 0.000605039
3 *234:10 0.000870041
4 *1038:C *1042:B1 0
5 *1038:C *1042:A2 0
6 *1038:C *237:10 0
7 *234:10 *1036:A 0.000180603
8 *234:10 *237:10 0
9 *234:10 *238:10 0
10 *234:10 *269:12 0
11 *234:10 *333:14 0
12 *234:10 *333:24 0
13 *234:10 *344:18 7.4559e-05
14 *234:10 *349:22 0.000241487
15 *234:10 *353:10 0.000181401
16 *234:10 *415:22 0
17 *234:10 *415:26 7.51285e-05
18 *1035:B *1038:C 0
19 *1038:B *1038:C 1.62574e-05
*RES
1 *1037:Y *234:10 45.6753 
2 *234:10 *1038:C 42.4514 
*END

*D_NET *235 0.000479138
*CONN
*I *1042:A1 I *D sg13g2_o21ai_1
*I *1038:Y O *D sg13g2_nor3_1
*CAP
1 *1042:A1 0
2 *1038:Y 0.000149967
3 *235:10 0.000149967
4 *219:47 *235:10 0
5 *233:8 *235:10 0.000179205
*RES
1 *1038:Y *235:10 41.6274 
2 *235:10 *1042:A1 40 
*END

*D_NET *236 0.00214013
*CONN
*I *1041:A1 I *D sg13g2_o21ai_1
*I *1039:Y O *D sg13g2_nor2b_1
*CAP
1 *1041:A1 0.000376126
2 *1039:Y 0.000210567
3 *236:10 0.000586693
4 *236:10 *346:39 4.75166e-05
5 *236:10 *362:22 0.000120527
6 *236:10 *380:12 0.000333522
7 *236:10 *381:10 0
8 *1035:B *1041:A1 0.000272673
9 *1036:B_N *1041:A1 4.77425e-05
10 *221:28 *1041:A1 0.000144768
*RES
1 *1039:Y *236:10 42.1218 
2 *236:10 *1041:A1 43.5844 
*END

*D_NET *237 0.00239708
*CONN
*I *1041:A2 I *D sg13g2_o21ai_1
*I *1040:Y O *D sg13g2_o21ai_1
*CAP
1 *1041:A2 0
2 *1040:Y 0.000446974
3 *237:10 0.000446974
4 *237:10 *1153:A 0.000112426
5 *237:10 *315:18 0.00017625
6 *237:10 *336:14 0.000710977
7 *237:10 *344:18 0.000391388
8 *237:10 *358:40 0
9 *1038:C *237:10 0
10 *1040:B1 *237:10 0.00011209
11 *220:12 *237:10 0
12 *234:10 *237:10 0
*RES
1 *1040:Y *237:10 45.5826 
2 *237:10 *1041:A2 40 
*END

*D_NET *238 0.00151001
*CONN
*I *1042:A2 I *D sg13g2_o21ai_1
*I *1041:Y O *D sg13g2_o21ai_1
*CAP
1 *1042:A2 0.000188962
2 *1041:Y 0.000229595
3 *238:10 0.000418557
4 *238:10 *1036:A 0.000112164
5 *238:10 *269:12 0
6 *238:10 *333:14 0.000337674
7 *1034:S1 *1042:A2 7.86681e-05
8 *1035:B *1042:A2 0
9 *1038:C *1042:A2 0
10 *221:28 *238:10 0.000144395
11 *234:10 *238:10 0
*RES
1 *1041:Y *238:10 42.5544 
2 *238:10 *1042:A2 41.7458 
*END

*D_NET *239 0.000900412
*CONN
*I *1043:B I *D sg13g2_nor2_1
*I *1042:Y O *D sg13g2_o21ai_1
*CAP
1 *1043:B 0
2 *1042:Y 0.000206191
3 *239:12 0.000206191
4 *239:12 *1042:B1 4.77699e-05
5 *239:12 *297:10 0
6 *1035:B *239:12 4.77425e-05
7 *1037:A *239:12 0.000262012
8 *219:47 *239:12 0.000130506
9 *233:8 *239:12 0
*RES
1 *1042:Y *239:12 42.2866 
2 *239:12 *1043:B 40 
*END

*D_NET *240 0.000183077
*CONN
*I *1045:B I *D sg13g2_nor2_1
*I *1044:X O *D sg13g2_mux4_1
*CAP
1 *1045:B 8.04508e-05
2 *1044:X 8.04508e-05
3 *1045:B *241:12 2.21754e-05
*RES
1 *1044:X *1045:B 40.9167 
*END

*D_NET *241 0.00291654
*CONN
*I *1053:A I *D sg13g2_nor2_1
*I *1045:Y O *D sg13g2_nor2_1
*CAP
1 *1053:A 0
2 *1045:Y 0.000732097
3 *241:12 0.000732097
4 *241:12 *1279:A 0
5 *241:12 *288:10 0
6 *241:12 *314:12 0.00103442
7 *241:12 *335:29 0.000235992
8 *241:12 *345:26 0
9 *241:12 *358:26 0
10 *241:12 *401:26 0.000112236
11 *1045:B *241:12 2.21754e-05
12 *150:10 *241:12 4.75151e-05
13 *222:8 *241:12 0
14 *222:34 *241:12 0
*RES
1 *1045:Y *241:12 48.7138 
2 *241:12 *1053:A 40 
*END

*D_NET *242 0.000729553
*CONN
*I *1048:B I *D sg13g2_nor3_1
*I *1046:Y O *D sg13g2_nor2b_1
*CAP
1 *1048:B 5.56796e-05
2 *1046:Y 1.77506e-05
3 *242:16 0.000208931
4 *242:8 0.000171003
5 *1048:B *1048:C 8.09105e-05
6 *242:8 *322:12 7.49214e-05
7 *242:8 *337:16 7.33256e-05
8 *242:16 *308:16 4.7031e-05
*RES
1 *1046:Y *242:8 40.3502 
2 *242:8 *242:16 41.5656 
3 *242:16 *1048:B 40.5356 
*END

*D_NET *243 0.00146989
*CONN
*I *1048:C I *D sg13g2_nor3_1
*I *1047:Y O *D sg13g2_nor2_1
*CAP
1 *1048:C 0.000625492
2 *1047:Y 0.000625492
3 *1048:C *1047:B 0
4 *1048:C *1052:A2 0
5 *1048:C *248:12 0
6 *1046:B_N *1048:C 0
7 *1047:A *1048:C 0.000107421
8 *1048:B *1048:C 8.09105e-05
9 *163:15 *1048:C 1.51776e-05
10 *163:25 *1048:C 1.54008e-05
*RES
1 *1047:Y *1048:C 46.4529 
*END

*D_NET *244 0.00163153
*CONN
*I *1052:A1 I *D sg13g2_o21ai_1
*I *1048:Y O *D sg13g2_nor3_1
*CAP
1 *1052:A1 4.76122e-05
2 *1048:Y 2.91085e-05
3 *244:22 0.00018268
4 *244:14 0.000240668
5 *244:8 0.000134709
6 *244:14 *247:22 0.000292597
7 *244:14 *304:14 0.000453453
8 *244:22 *346:78 4.69343e-05
9 *244:22 *348:10 0
10 *163:15 *1052:A1 3.03714e-05
11 *163:15 *244:8 7.3287e-05
12 *165:13 *1052:A1 0
13 *165:23 *244:22 7.83607e-05
14 *223:38 *244:8 2.17504e-05
*RES
1 *1048:Y *244:8 40.3502 
2 *244:8 *244:14 42.0806 
3 *244:14 *244:22 41.133 
4 *244:22 *1052:A1 40.5536 
*END

*D_NET *245 0.00164439
*CONN
*I *1051:A1 I *D sg13g2_o21ai_1
*I *1049:Y O *D sg13g2_nor2b_1
*CAP
1 *1051:A1 0.000351097
2 *1049:Y 3.33762e-05
3 *245:8 0.000384473
4 *1051:A1 *1051:A2 0.000369743
5 *1051:A1 *246:10 0
6 *1051:A1 *318:10 7.9225e-05
7 *1051:A1 *337:16 0.000175693
8 *245:8 *322:12 0.000125483
9 *245:8 *337:16 0.000125294
*RES
1 *1049:Y *245:8 40.5974 
2 *245:8 *1051:A1 43.5638 
*END

*D_NET *246 0.00190986
*CONN
*I *1051:A2 I *D sg13g2_o21ai_1
*I *1050:Y O *D sg13g2_o21ai_1
*CAP
1 *1051:A2 0.000248876
2 *1050:Y 0.000175983
3 *246:10 0.000424859
4 *246:10 *337:16 0.000143456
5 *246:10 *337:18 7.50072e-05
6 *246:10 *339:20 0
7 *1050:B1 *246:10 1.54008e-05
8 *1051:B1 *1051:A2 0.000112426
9 *1051:A1 *1051:A2 0.000369743
10 *1051:A1 *246:10 0
11 *163:15 *246:10 2.14736e-05
12 *223:38 *246:10 0.000322636
*RES
1 *1050:Y *246:10 42.0291 
2 *246:10 *1051:A2 42.4823 
*END

*D_NET *247 0.00162509
*CONN
*I *1052:A2 I *D sg13g2_o21ai_1
*I *1051:Y O *D sg13g2_o21ai_1
*CAP
1 *1052:A2 4.93192e-05
2 *1051:Y 0.000266489
3 *247:26 4.93192e-05
4 *247:22 0.000278997
5 *247:10 0.000545485
6 *1052:A2 *248:12 1.53556e-05
7 *247:22 *339:20 1.51e-05
8 *247:22 *361:26 0
9 *1048:C *1052:A2 0
10 *1051:B1 *247:10 0.000112426
11 *163:25 *247:22 0
12 *244:14 *247:22 0.000292597
*RES
1 *1051:Y *247:10 42.4308 
2 *247:10 *247:22 42.7604 
3 *247:22 *247:26 40 
4 *247:26 *1052:A2 40.4815 
*END

*D_NET *248 0.00245127
*CONN
*I *1053:B I *D sg13g2_nor2_1
*I *1052:Y O *D sg13g2_o21ai_1
*CAP
1 *1053:B 0
2 *1052:Y 0.000657793
3 *248:12 0.000657793
4 *248:12 *1046:A 9.75775e-05
5 *248:12 *1047:B 1.54008e-05
6 *248:12 *1049:A 0.000237211
7 *248:12 *314:12 0.000391332
8 *248:12 *354:20 0.000112426
9 *248:12 *363:10 0.00015896
10 *1047:A *248:12 0.000107421
11 *1048:C *248:12 0
12 *1052:A2 *248:12 1.53556e-05
13 *1201:A *248:12 0
14 *181:13 *248:12 0
15 *222:34 *248:12 0
16 *222:45 *248:12 0
*RES
1 *1052:Y *248:12 46.9834 
2 *248:12 *1053:B 40 
*END

*D_NET *249 0.00190319
*CONN
*I *1055:B I *D sg13g2_nor2_1
*I *1054:X O *D sg13g2_mux4_1
*CAP
1 *1055:B 3.58648e-05
2 *1054:X 0.000221548
3 *249:8 0.000257413
4 *1055:B *1063:A 0
5 *249:8 *299:12 0.00028427
6 *249:8 *319:12 0
7 *249:8 *333:24 0
8 *249:8 *347:30 0.000554164
9 *1055:A *1055:B 0
10 *226:27 *249:8 0.000549933
*RES
1 *1054:X *249:8 44.0582 
2 *249:8 *1055:B 40.3193 
*END

*D_NET *250 0.000215513
*CONN
*I *1063:A I *D sg13g2_nor2_1
*I *1055:Y O *D sg13g2_nor2_1
*CAP
1 *1063:A 0.000100056
2 *1055:Y 0.000100056
3 *1063:A *1063:B 0
4 *1063:A *319:28 1.54008e-05
5 *1055:A *1063:A 0
6 *1055:B *1063:A 0
*RES
1 *1055:Y *1063:A 41.133 
*END

*D_NET *251 0.00124057
*CONN
*I *1058:B I *D sg13g2_nor3_1
*I *1056:Y O *D sg13g2_nor2b_1
*CAP
1 *1058:B 4.73873e-05
2 *1056:Y 0.000365977
3 *251:12 0.000413364
4 *1058:B *1058:C 1.54008e-05
5 *1058:B *1062:A1 1.54008e-05
6 *1058:B *329:12 8.00842e-05
7 *251:12 *252:10 7.9225e-05
8 *251:12 *254:8 0.000128248
9 *251:12 *329:12 0
10 *251:12 *364:20 4.77425e-05
11 *225:36 *251:12 4.77425e-05
*RES
1 *1056:Y *251:12 43.2754 
2 *251:12 *1058:B 40.5356 
*END

*D_NET *252 0.00211991
*CONN
*I *1058:C I *D sg13g2_nor3_1
*I *1057:Y O *D sg13g2_nor2_1
*CAP
1 *1058:C 0.00010491
2 *1057:Y 0.000350687
3 *252:10 0.000455597
4 *1058:C *1183:A 0.00014391
5 *252:10 *1171:A 0
6 *252:10 *299:12 0
7 *252:10 *347:30 0.000233917
8 *1057:A *252:10 0.000305317
9 *1058:B *1058:C 1.54008e-05
10 *67:9 *252:10 0.000287036
11 *225:40 *252:10 0.000143908
12 *251:12 *252:10 7.9225e-05
*RES
1 *1057:Y *252:10 44.2539 
2 *252:10 *1058:C 40.9682 
*END

*D_NET *253 0.000790842
*CONN
*I *1062:A1 I *D sg13g2_o21ai_1
*I *1058:Y O *D sg13g2_nor3_1
*CAP
1 *1062:A1 0.000267638
2 *1058:Y 0.000267638
3 *1062:A1 *1062:A2 6.39133e-05
4 *1062:A1 *1183:A 0
5 *1062:A1 *364:20 0.000176252
6 *1058:B *1062:A1 1.54008e-05
*RES
1 *1058:Y *1062:A1 42.4458 
*END

*D_NET *254 0.00125722
*CONN
*I *1061:A1 I *D sg13g2_o21ai_1
*I *1059:Y O *D sg13g2_nor2b_1
*CAP
1 *1061:A1 0.000170473
2 *1059:Y 6.89242e-05
3 *254:8 0.000239397
4 *1061:A1 *1061:A2 0.000240141
5 *1061:A1 *329:20 0
6 *254:8 *329:12 0.000284773
7 *225:36 *254:8 0.00012526
8 *251:12 *254:8 0.000128248
*RES
1 *1059:Y *254:8 41.339 
2 *254:8 *1061:A1 41.6171 
*END

*D_NET *255 0.00143673
*CONN
*I *1061:A2 I *D sg13g2_o21ai_1
*I *1060:Y O *D sg13g2_o21ai_1
*CAP
1 *1061:A2 0.000435809
2 *1060:Y 0.000435809
3 *1061:A2 *256:10 0
4 *1061:A2 *364:20 0
5 *1060:B1 *1061:A2 0.000213425
6 *1061:A1 *1061:A2 0.000240141
7 *225:36 *1061:A2 4.77425e-05
8 *225:40 *1061:A2 2.14475e-05
9 *226:12 *1061:A2 4.23522e-05
*RES
1 *1060:Y *1061:A2 44.2642 
*END

*D_NET *256 0.000719699
*CONN
*I *1062:A2 I *D sg13g2_o21ai_1
*I *1061:Y O *D sg13g2_o21ai_1
*CAP
1 *1062:A2 3.48821e-05
2 *1061:Y 0.000130416
3 *256:10 0.000165298
4 *1062:A2 *346:20 6.39133e-05
5 *256:10 *346:16 0
6 *256:10 *364:20 8.00842e-05
7 *256:10 *368:10 0.000181192
8 *1061:A2 *256:10 0
9 *1062:A1 *1062:A2 6.39133e-05
*RES
1 *1061:Y *256:10 41.3802 
2 *256:10 *1062:A2 40.4274 
*END

*D_NET *257 0.000751922
*CONN
*I *1063:B I *D sg13g2_nor2_1
*I *1062:Y O *D sg13g2_o21ai_1
*CAP
1 *1063:B 0.00036826
2 *1062:Y 0.00036826
3 *1063:B *1074:D 1.54008e-05
4 *1063:B *319:28 0
5 *1063:B *329:12 0
6 *1063:B *346:20 0
7 *1063:A *1063:B 0
*RES
1 *1062:Y *1063:B 43.4608 
*END

*D_NET *258 0.00301064
*CONN
*I *1065:B I *D sg13g2_nor2_1
*I *1064:X O *D sg13g2_mux4_1
*CAP
1 *1065:B 0.000147602
2 *1064:X 0.000763912
3 *258:18 0.000911514
4 *1065:B *334:44 0
5 *258:18 *1071:A1 4.77425e-05
6 *258:18 *1278:A 0.00011101
7 *258:18 *275:14 0
8 *258:18 *323:10 0
9 *1064:S1 *258:18 0
10 *1065:A *258:18 0.000393926
11 *1071:B1 *258:18 0.000240331
12 *229:8 *258:18 0.000394603
13 *229:27 *258:18 0
*RES
1 *1064:X *258:18 48.1267 
2 *258:18 *1065:B 41.1845 
*END

*D_NET *259 0.00129421
*CONN
*I *1073:A I *D sg13g2_nor2_1
*I *1065:Y O *D sg13g2_nor2_1
*CAP
1 *1073:A 0.000168356
2 *1065:Y 6.36256e-05
3 *259:8 0.000231982
4 *1073:A *1064:A0 0.000161152
5 *1073:A *334:44 7.9225e-05
6 *259:8 *288:16 0.000286009
7 *259:8 *334:32 2.22695e-05
8 *259:8 *348:44 0.000233844
9 *1064:S0 *1073:A 4.77425e-05
*RES
1 *1065:Y *259:8 41.339 
2 *259:8 *1073:A 41.6171 
*END

*D_NET *260 0.00163884
*CONN
*I *1068:B I *D sg13g2_nor3_1
*I *1066:Y O *D sg13g2_nor2b_1
*CAP
1 *1068:B 7.35762e-05
2 *1066:Y 0.000354851
3 *260:12 0.000428427
4 *1068:B *1278:A 0.000112426
5 *260:12 *1148:A 4.75151e-05
6 *260:12 *288:10 0
7 *260:12 *288:16 0.000446352
8 *260:12 *319:28 0.000175693
*RES
1 *1066:Y *260:12 43.8316 
2 *260:12 *1068:B 40.7519 
*END

*D_NET *261 0.00381753
*CONN
*I *1068:C I *D sg13g2_nor3_1
*I *1067:Y O *D sg13g2_nor2_1
*CAP
1 *1068:C 0
2 *1067:Y 0.000823957
3 *261:10 0.000823957
4 *261:10 *268:32 0.000143351
5 *261:10 *284:14 0.00172161
6 *261:10 *288:16 0
7 *261:10 *301:26 4.77425e-05
8 *261:10 *314:22 0.00018128
9 *228:10 *261:10 7.56308e-05
*RES
1 *1067:Y *261:10 49.6305 
2 *261:10 *1068:C 40 
*END

*D_NET *262 0.000662337
*CONN
*I *1072:A1 I *D sg13g2_o21ai_1
*I *1068:Y O *D sg13g2_nor3_1
*CAP
1 *1072:A1 0.000243138
2 *1068:Y 0.000243138
3 *1072:A1 *1072:B1 0
4 *1072:A1 *1278:A 0.000176062
*RES
1 *1068:Y *1072:A1 42.1836 
*END

*D_NET *263 0.001157
*CONN
*I *1071:A1 I *D sg13g2_o21ai_1
*I *1069:Y O *D sg13g2_nor2b_1
*CAP
1 *1071:A1 3.08544e-05
2 *1069:Y 0.000219992
3 *263:12 0.000250847
4 *263:12 *264:8 0.000127542
5 *263:12 *266:8 0.000179079
6 *1066:B_N *263:12 0.000124547
7 *228:51 *263:12 0.000176396
8 *258:18 *1071:A1 4.77425e-05
*RES
1 *1069:Y *263:12 42.5029 
2 *263:12 *1071:A1 40.3193 
*END

*D_NET *264 0.000413195
*CONN
*I *1071:A2 I *D sg13g2_o21ai_1
*I *1070:Y O *D sg13g2_o21ai_1
*CAP
1 *1071:A2 0
2 *1070:Y 5.27114e-05
3 *264:8 5.27114e-05
4 *1066:B_N *264:8 0.00018023
5 *263:12 *264:8 0.000127542
*RES
1 *1070:Y *264:8 40.8446 
2 *264:8 *1071:A2 40 
*END

*D_NET *265 0.000331236
*CONN
*I *1072:A2 I *D sg13g2_o21ai_1
*I *1071:Y O *D sg13g2_o21ai_1
*CAP
1 *1072:A2 0
2 *1071:Y 7.50219e-05
3 *265:8 7.50219e-05
4 *1066:B_N *265:8 0.000181192
*RES
1 *1071:Y *265:8 40.8446 
2 *265:8 *1072:A2 40 
*END

*D_NET *266 0.00285753
*CONN
*I *1073:B I *D sg13g2_nor2_1
*I *1072:Y O *D sg13g2_o21ai_1
*CAP
1 *1073:B 4.3657e-05
2 *1072:Y 0.000615964
3 *266:8 0.000659621
4 *266:8 *317:18 0.000914814
5 *266:8 *343:36 0
6 N4BEG[1] *1073:B 8.0039e-05
7 N4BEG[3] *266:8 0.00028427
8 *1064:S0 *1073:B 8.00842e-05
9 *1066:B_N *266:8 0
10 *228:40 *266:8 0
11 *263:12 *266:8 0.000179079
*RES
1 *1072:Y *266:8 46.5302 
2 *266:8 *1073:B 40.5356 
*END

*D_NET *267 0.00932002
*CONN
*I *1075:GATE I *D sg13g2_dlhq_1
*I *1074:GATE I *D sg13g2_dlhq_1
*I *1085:GATE I *D sg13g2_dlhq_1
*I *1082:GATE I *D sg13g2_dlhq_1
*I *1081:GATE I *D sg13g2_dlhq_1
*I *1083:GATE I *D sg13g2_dlhq_1
*I *1084:GATE I *D sg13g2_dlhq_1
*I *1080:GATE I *D sg13g2_dlhq_1
*I *1191:X O *D sg13g2_buf_2
*CAP
1 *1075:GATE 0
2 *1074:GATE 0.000221605
3 *1085:GATE 7.5436e-05
4 *1082:GATE 0
5 *1081:GATE 0.000184629
6 *1083:GATE 0.00016701
7 *1084:GATE 0
8 *1080:GATE 0
9 *1191:X 6.8625e-05
10 *267:91 0.000244122
11 *267:78 0.000713457
12 *267:39 0.000109932
13 *267:31 0.00056739
14 *267:24 0.000357317
15 *267:22 0.000425381
16 *267:18 0.00038561
17 *267:12 0.000556513
18 *267:8 0.000585706
19 *1074:GATE *331:16 0
20 *1081:GATE *1082:D 0
21 *1081:GATE *1114:A 0
22 *1083:GATE *272:8 0
23 *1083:GATE *334:44 0.00020871
24 *1085:GATE *1072:B1 0
25 *1085:GATE *315:36 4.77425e-05
26 *1085:GATE *401:16 0
27 *1085:GATE *401:26 0
28 *267:12 *1076:D 0
29 *267:12 *284:14 0
30 *267:12 *295:36 0.000824269
31 *267:12 *315:36 7.51285e-05
32 *267:18 *315:36 0.000240377
33 *267:18 *357:14 0.000181192
34 *267:18 *401:12 0.000159511
35 *267:22 *357:14 0.00086923
36 *267:22 *401:12 0.00086923
37 *267:31 *272:8 0
38 *267:31 *317:10 0
39 *267:39 *275:14 0
40 *267:39 *323:10 0.000288502
41 *267:39 *334:44 7.52158e-05
42 *267:78 *295:36 0.000106798
43 *267:91 *297:22 0
44 *267:91 *381:10 0
45 *10:21 *267:91 0.000391412
46 *67:17 *1074:GATE 0
47 *67:17 *267:8 0.000112426
48 *67:17 *267:78 0
49 *181:13 *267:12 0
50 *225:8 *1081:GATE 0.000207541
*RES
1 *1191:X *267:8 40.7519 
2 *267:8 *267:12 23.811 
3 *267:12 *267:18 22.4617 
4 *267:18 *267:22 24.0582 
5 *267:22 *267:24 0.8446 
6 *267:24 *1080:GATE 20 
7 *267:24 *267:31 2.4823 
8 *267:31 *267:39 41.6583 
9 *267:39 *1084:GATE 20 
10 *267:31 *1083:GATE 21.6171 
11 *267:22 *1081:GATE 21.8334 
12 *267:18 *1082:GATE 40 
13 *267:12 *1085:GATE 20.7519 
14 *267:8 *267:78 22.2145 
15 *267:78 *1074:GATE 21.8334 
16 *267:78 *267:91 42.3278 
17 *267:91 *1075:GATE 20 
*END

*D_NET *268 0.0117782
*CONN
*I *1080:D I *D sg13g2_dlhq_1
*I *1112:A I *D sg13g2_buf_1
*I *1236:X O *D sg13g2_buf_1
*CAP
1 *1080:D 0
2 *1112:A 0
3 *1236:X 0.000486716
4 *268:40 0.000291326
5 *268:32 0.00117216
6 *268:16 0.0034624
7 *268:10 0.00306828
8 *268:10 *301:16 0
9 *268:16 *1240:A 0
10 *268:16 *281:8 0
11 *268:16 *293:20 0
12 *268:16 *301:16 0
13 *268:16 *302:18 0.000126354
14 *268:16 *307:24 0.00154154
15 *268:16 *309:26 0.000444238
16 *268:16 *321:24 4.6693e-05
17 *268:16 *322:24 0
18 *268:16 *324:20 0
19 *268:16 *356:42 0
20 *268:32 *1116:A 4.77425e-05
21 *268:32 *1283:A 0
22 *268:32 *274:10 0
23 *268:32 *301:26 4.77425e-05
24 *268:32 *338:22 0
25 *268:32 *343:36 7.51285e-05
26 *268:32 *348:44 8.00842e-05
27 *268:40 *274:10 0
28 *268:40 *285:14 0
29 *268:40 *357:14 0.000287672
30 *268:40 *401:12 0.000288174
31 N4BEG[2] *268:16 0
32 *1067:A *268:32 4.77425e-05
33 *1194:A *268:10 0
34 *1195:A *268:10 0
35 *1237:A *268:10 0
36 *114:8 *268:16 0
37 *126:18 *268:16 0
38 *136:10 *268:32 7.33256e-05
39 *138:10 *268:32 4.75151e-05
40 *182:25 *268:16 0
41 *261:10 *268:32 0.000143351
*RES
1 *1236:X *268:10 44.9028 
2 *268:10 *268:16 48.3868 
3 *268:16 *268:32 48.2812 
4 *268:32 *268:40 43.3887 
5 *268:40 *1112:A 20 
6 *268:32 *1080:D 20 
*END

*D_NET *269 0.0174132
*CONN
*I *1345:A I *D sg13g2_buf_1
*I *1043:Y O *D sg13g2_nor2_1
*CAP
1 *1345:A 0.00048789
2 *1043:Y 0.000536364
3 *269:14 0.00315879
4 *269:12 0.00320726
5 *269:12 *297:10 0.000175556
6 *269:12 *333:14 0
7 *269:12 *415:22 0.000337176
8 *269:14 *276:10 0.00540186
9 *269:14 *294:12 0.00410828
10 *269:14 *302:12 0
11 *269:14 *351:10 0
12 *269:14 *360:10 0
13 *269:14 *399:18 0
14 *269:14 *416:10 0
15 *234:10 *269:12 0
16 *238:10 *269:12 0
*RES
1 *1043:Y *269:12 45.0985 
2 *269:12 *269:14 41.1382 
3 *269:14 *1345:A 45.0779 
*END

*D_NET *270 0.0138313
*CONN
*I *1346:A I *D sg13g2_buf_1
*I *1053:Y O *D sg13g2_nor2_1
*CAP
1 *1346:A 0
2 *1053:Y 0.000175478
3 *270:20 0.00212316
4 *270:14 0.00212316
5 *270:12 0.00167982
6 *270:8 0.0018553
7 *270:8 *314:12 0.000500589
8 *270:12 *295:30 0
9 *270:12 *344:14 0
10 *270:12 *386:16 0
11 *270:20 *271:12 0.0050963
12 *7:19 *270:12 0.000277492
13 *10:19 *270:12 0
14 *78:9 *270:20 0
15 *79:13 *270:20 0
16 *80:13 *270:20 0
17 *81:9 *270:20 0
18 *181:13 *270:8 0
*RES
1 *1053:Y *270:8 42.3278 
2 *270:8 *270:12 35.244 
3 *270:12 *270:14 20 
4 *270:14 *270:20 32.9085 
5 *270:20 *1346:A 40 
*END

*D_NET *271 0.00942731
*CONN
*I *1238:A I *D sg13g2_buf_1
*I *1063:Y O *D sg13g2_nor2_1
*CAP
1 *1238:A 0
2 *1063:Y 0.000774188
3 *271:12 0.00136745
4 *271:8 0.00214163
5 *271:8 *1167:A 4.77425e-05
6 *271:8 *1171:A 0
7 *271:8 *299:12 0
8 *271:8 *329:12 0
9 *271:8 *415:10 0
10 *67:17 *271:8 0
11 *79:13 *271:8 0
12 *270:20 *271:12 0.0050963
*RES
1 *1063:Y *271:8 47.2409 
2 *271:8 *271:12 43.587 
3 *271:12 *1238:A 20 
*END

*D_NET *272 0.00793985
*CONN
*I *1239:A I *D sg13g2_buf_1
*I *1073:Y O *D sg13g2_nor2_1
*CAP
1 *1239:A 0
2 *1073:Y 0.00107058
3 *272:14 0.0018074
4 *272:8 0.00287798
5 *272:8 *1054:A0 4.77425e-05
6 *272:8 *1283:A 0
7 *272:8 *333:24 0.000144101
8 *272:8 *338:22 0
9 *272:14 *1243:A 0
10 *272:14 *276:10 0
11 *272:14 *283:14 0
12 *272:14 *287:18 0
13 *272:14 *299:34 0.00130237
14 *272:14 *338:32 0.000289003
15 *272:14 *346:16 0
16 N4BEG[1] *272:8 0.000400669
17 *1083:GATE *272:8 0
18 *225:8 *272:8 0
19 *267:31 *272:8 0
*RES
1 *1073:Y *272:8 49.6202 
2 *272:8 *272:14 39.9202 
3 *272:14 *1239:A 20 
*END

*D_NET *273 0.0040052
*CONN
*I *1240:A I *D sg13g2_buf_1
*I *1138:X O *D sg13g2_buf_1
*CAP
1 *1240:A 0.000456796
2 *1138:X 0.000459198
3 *273:14 0.000915994
4 *273:14 *293:20 0.000650772
5 *273:14 *296:22 0.00030506
6 *273:14 *299:34 0
7 *273:14 *305:22 0.00012792
8 *273:14 *306:30 1.54008e-05
9 *273:14 *308:26 0.00038822
10 N4BEG[2] *1240:A 0
11 *119:10 *1240:A 0
12 *120:14 *1240:A 0
13 *124:12 *1240:A 0
14 *145:10 *273:14 0.000240377
15 *182:25 *1240:A 0.000445463
16 *268:16 *1240:A 0
*RES
1 *1138:X *273:14 46.2212 
2 *273:14 *1240:A 44.7998 
*END

*D_NET *274 0.00548595
*CONN
*I *1241:A I *D sg13g2_buf_1
*I *1139:X O *D sg13g2_buf_1
*CAP
1 *1241:A 0
2 *1139:X 0.000780428
3 *274:16 0.000938558
4 *274:10 0.00171899
5 *274:10 *1113:A 4.77425e-05
6 *274:10 *285:14 0
7 *274:10 *292:8 0
8 *274:10 *338:22 0
9 *274:16 *1248:A 0.0001122
10 *274:16 *275:14 0.00140537
11 *274:16 *287:18 0
12 *274:16 *292:14 0.00043496
13 *274:16 *323:10 0
14 *274:16 *334:44 0
15 *274:16 *379:12 0
16 *127:16 *274:10 0
17 *138:10 *274:10 4.77074e-05
18 *268:32 *274:10 0
19 *268:40 *274:10 0
*RES
1 *1139:X *274:10 46.9731 
2 *274:10 *274:16 31.6699 
3 *274:16 *1241:A 20 
*END

*D_NET *275 0.00572963
*CONN
*I *1242:A I *D sg13g2_buf_1
*I *1140:X O *D sg13g2_buf_1
*CAP
1 *1242:A 0
2 *1140:X 2.66683e-05
3 *275:14 0.0016424
4 *275:8 0.00166907
5 *275:14 *1259:A 0
6 *275:14 *280:14 0
7 *275:14 *283:14 0.000145107
8 *275:14 *284:14 0
9 *275:14 *288:16 0
10 *275:14 *379:12 0
11 *1065:A *275:14 0.000498255
12 *138:10 *275:14 0
13 *230:10 *275:14 0.000342766
14 *258:18 *275:14 0
15 *267:39 *275:14 0
16 *274:16 *275:14 0.00140537
*RES
1 *1140:X *275:8 40.3193 
2 *275:8 *275:14 36.6448 
3 *275:14 *1242:A 20 
*END

*D_NET *276 0.0141952
*CONN
*I *1243:A I *D sg13g2_buf_1
*I *1141:X O *D sg13g2_buf_1
*CAP
1 *1243:A 0.0016271
2 *1141:X 0
3 *276:10 0.00289305
4 *276:6 0.00126595
5 *1243:A *1244:A 0
6 *1243:A *1247:A 0
7 *1243:A *1252:A 0
8 *276:10 *287:18 0
9 *276:10 *311:12 0.00300728
10 *276:10 *360:10 0
11 *269:14 *276:10 0.00540186
12 *272:14 *1243:A 0
13 *272:14 *276:10 0
*RES
1 *1141:X *276:6 40 
2 *276:6 *276:10 44.823 
3 *276:10 *1243:A 36.4594 
*END

*D_NET *277 0.000447394
*CONN
*I *1244:A I *D sg13g2_buf_1
*I *1142:X O *D sg13g2_buf_1
*CAP
1 *1244:A 0.000223697
2 *1142:X 0.000223697
3 *1244:A *1252:A 0
4 *1243:A *1244:A 0
*RES
1 *1142:X *1244:A 42.6883 
*END

*D_NET *278 0.00197308
*CONN
*I *1245:A I *D sg13g2_buf_1
*I *1143:X O *D sg13g2_buf_1
*CAP
1 *1245:A 0
2 *1143:X 0.000986539
3 *278:10 0.000986539
4 *278:10 *1252:A 0
5 *1143:A *278:10 0
6 *111:12 *278:10 0
7 *112:10 *278:10 0
8 *181:29 *278:10 0
9 *182:25 *278:10 0
*RES
1 *1143:X *278:10 49.1361 
2 *278:10 *1245:A 40 
*END

*D_NET *279 0.0132972
*CONN
*I *1081:D I *D sg13g2_dlhq_1
*I *1113:A I *D sg13g2_buf_1
*I *1237:X O *D sg13g2_buf_1
*CAP
1 *1081:D 4.28233e-05
2 *1113:A 2.99958e-05
3 *1237:X 0.00108523
4 *279:10 0.00155814
5 *279:6 0.00257055
6 *1081:D *292:14 0.000234172
7 *1081:D *368:10 0.000212076
8 *279:6 *312:12 0
9 *279:10 *290:12 0
10 *279:10 *292:14 0.00199178
11 *279:10 *368:10 0.00552472
12 *1101:A *279:6 0
13 *1104:A *279:6 0
14 *1237:A *279:6 0
15 *274:10 *1113:A 4.77425e-05
*RES
1 *1237:X *279:6 31.1343 
2 *279:6 *279:10 45.5646 
3 *279:10 *1113:A 40.3193 
4 *279:10 *1081:D 41.0918 
*END

*D_NET *280 0.00534604
*CONN
*I *1246:A I *D sg13g2_buf_1
*I *1144:X O *D sg13g2_buf_1
*CAP
1 *1246:A 0
2 *1144:X 0.000266347
3 *280:14 0.000862519
4 *280:8 0.00112887
5 *280:14 *1259:A 0
6 *280:14 *282:14 0.000661316
7 *280:14 *283:14 0
8 *280:14 *288:16 0.000111567
9 *280:14 *390:12 0.00231542
10 *1143:A *280:8 0
11 *181:29 *280:14 0
12 *275:14 *280:14 0
*RES
1 *1144:X *280:8 42.4823 
2 *280:8 *280:14 31.7008 
3 *280:14 *1246:A 20 
*END

*D_NET *281 0.0015157
*CONN
*I *1247:A I *D sg13g2_buf_1
*I *1145:X O *D sg13g2_buf_1
*CAP
1 *1247:A 0.000159949
2 *1145:X 0.000597901
3 *281:8 0.00075785
4 *1247:A *1252:A 0
5 *1243:A *1247:A 0
6 *182:25 *281:8 0
7 *268:16 *281:8 0
*RES
1 *1145:X *281:8 47.2718 
2 *281:8 *1247:A 41.6171 
*END

*D_NET *282 0.00439483
*CONN
*I *1248:A I *D sg13g2_buf_1
*I *1146:X O *D sg13g2_buf_1
*CAP
1 *1248:A 0.000341505
2 *1146:X 0.000726493
3 *282:14 0.001068
4 *1248:A *1268:A 4.77425e-05
5 *1248:A *287:18 0
6 *1248:A *292:14 0
7 *282:14 *288:16 0
8 *282:14 *311:20 0
9 *282:14 *390:12 2.21839e-05
10 *112:10 *1248:A 4.77699e-05
11 *117:8 *282:14 0
12 *119:10 *1248:A 8.01576e-05
13 *126:10 *282:14 0.000547624
14 *127:16 *282:14 7.9225e-05
15 *140:20 *282:14 0
16 *141:8 *282:14 0
17 *181:29 *282:14 0.000660616
18 *274:16 *1248:A 0.0001122
19 *280:14 *282:14 0.000661316
*RES
1 *1146:X *282:14 48.9713 
2 *282:14 *1248:A 43.2651 
*END

*D_NET *283 0.0066322
*CONN
*I *1249:A I *D sg13g2_buf_1
*I *1147:X O *D sg13g2_buf_1
*CAP
1 *1249:A 0
2 *1147:X 9.95682e-05
3 *283:14 0.0019121
4 *283:8 0.00201167
5 *283:14 *1259:A 0
6 *283:14 *287:18 0.00217259
7 *283:14 *288:16 0
8 *283:14 *338:32 0.000291163
9 N1BEG[2] *283:14 0
10 *272:14 *283:14 0
11 *275:14 *283:14 0.000145107
12 *280:14 *283:14 0
*RES
1 *1147:X *283:8 40.7519 
2 *283:8 *283:14 40.4764 
3 *283:14 *1249:A 20 
*END

*D_NET *284 0.00514913
*CONN
*I *1250:A I *D sg13g2_buf_1
*I *1148:X O *D sg13g2_buf_1
*CAP
1 *1250:A 0
2 *1148:X 2.852e-05
3 *284:14 0.00160497
4 *284:8 0.00163349
5 *284:14 *1259:A 8.03417e-05
6 *284:14 *288:16 0
7 *284:14 *301:26 0
8 *284:14 *311:12 8.01995e-05
9 *284:14 *314:22 0
10 *261:10 *284:14 0.00172161
11 *267:12 *284:14 0
12 *275:14 *284:14 0
*RES
1 *1148:X *284:8 40.3193 
2 *284:8 *284:14 35.2234 
3 *284:14 *1250:A 20 
*END

*D_NET *285 0.00669973
*CONN
*I *1251:A I *D sg13g2_buf_1
*I *1149:X O *D sg13g2_buf_1
*CAP
1 *1251:A 0
2 *1149:X 0.000262719
3 *285:14 0.00148528
4 *285:8 0.001748
5 *285:8 *368:14 0
6 *285:14 *290:12 0.00161932
7 *285:14 *295:36 0.0001122
8 *285:14 *299:34 0
9 *285:14 *315:28 0
10 *285:14 *346:39 0.000764919
11 *285:14 *368:10 0
12 *285:14 *380:12 0.000338869
13 *285:14 *401:12 0
14 *1055:A *285:8 0
15 *1055:A *285:14 0
16 *1061:B1 *285:14 0
17 *67:17 *285:8 0.000368429
18 *268:40 *285:14 0
19 *274:10 *285:14 0
*RES
1 *1149:X *285:8 42.4823 
2 *285:8 *285:14 37.3555 
3 *285:14 *1251:A 20 
*END

*D_NET *286 0.00460329
*CONN
*I *1252:A I *D sg13g2_buf_1
*I *1150:X O *D sg13g2_buf_1
*CAP
1 *1252:A 0.000807892
2 *1150:X 0.000450773
3 *286:16 0.00125866
4 *1252:A *292:14 0
5 *286:16 *298:8 0
6 *1243:A *1252:A 0
7 *1244:A *1252:A 0
8 *1247:A *1252:A 0
9 *112:10 *1252:A 0.000287672
10 *115:10 *1252:A 0.000242301
11 *116:10 *1252:A 0.000496652
12 *119:10 *1252:A 0
13 *119:10 *286:16 0.000127878
14 *124:12 *286:16 0.0005986
15 *125:12 *1252:A 0.000126358
16 *125:12 *286:16 0
17 *127:16 *286:16 7.9225e-05
18 *130:8 *286:16 0.000127271
19 *134:8 *286:16 0
20 *181:29 *1252:A 0
21 *278:10 *1252:A 0
*RES
1 *1150:X *286:16 45.0882 
2 *286:16 *1252:A 48.9919 
*END

*D_NET *287 0.00803905
*CONN
*I *1253:A I *D sg13g2_buf_1
*I *1151:X O *D sg13g2_buf_1
*CAP
1 *1253:A 0
2 *1151:X 5.80762e-05
3 *287:18 0.00208048
4 *287:8 0.00213856
5 *287:8 *1147:A 7.9225e-05
6 *287:18 *289:12 0
7 *287:18 *292:14 0
8 *287:18 *311:12 0
9 *287:18 *338:32 0
10 *287:18 *347:30 7.51285e-05
11 N1BEG[0] *287:18 8.00842e-05
12 N1BEG[1] *287:18 0
13 N1BEG[2] *287:18 0
14 *1248:A *287:18 0
15 *67:9 *287:18 0.0013549
16 *119:10 *287:18 0
17 *272:14 *287:18 0
18 *274:16 *287:18 0
19 *276:10 *287:18 0
20 *283:14 *287:18 0.00217259
*RES
1 *1151:X *287:8 40.5356 
2 *287:8 *287:18 45.0393 
3 *287:18 *1253:A 20 
*END

*D_NET *288 0.00720538
*CONN
*I *1254:A I *D sg13g2_buf_1
*I *1152:X O *D sg13g2_buf_1
*CAP
1 *1254:A 0
2 *1152:X 0.000364916
3 *288:16 0.0018186
4 *288:10 0.00218351
5 *288:10 *1140:A 0
6 *288:10 *1279:A 0
7 *288:16 *1077:D 2.19989e-05
8 *288:16 *301:26 0.000444965
9 *288:16 *314:22 0.000604165
10 *288:16 *334:32 0
11 *288:16 *345:26 0
12 *288:16 *348:44 0
13 *288:16 *379:12 7.51285e-05
14 *288:16 *390:12 0
15 N1BEG[2] *288:16 0.000208178
16 NN4BEG[1] *288:10 4.75166e-05
17 *117:8 *288:16 0.000128247
18 *125:12 *288:16 0
19 *126:10 *288:16 0
20 *131:12 *288:16 0.00039075
21 *150:10 *288:10 0
22 *228:10 *288:16 7.34778e-05
23 *241:12 *288:10 0
24 *259:8 *288:16 0.000286009
25 *260:12 *288:10 0
26 *260:12 *288:16 0.000446352
27 *261:10 *288:16 0
28 *275:14 *288:16 0
29 *280:14 *288:16 0.000111567
30 *282:14 *288:16 0
31 *283:14 *288:16 0
32 *284:14 *288:16 0
*RES
1 *1152:X *288:10 43.1462 
2 *288:10 *288:16 38.5297 
3 *288:16 *1254:A 20 
*END

*D_NET *289 0.0103156
*CONN
*I *1255:A I *D sg13g2_buf_1
*I *1153:X O *D sg13g2_buf_1
*CAP
1 *1255:A 0
2 *1153:X 0
3 *289:12 0.00206614
4 *289:6 0.00206614
5 *289:12 *1151:A 0.000181608
6 *289:12 *297:22 0.000564379
7 *289:12 *299:34 0
8 *289:12 *311:12 0
9 *289:12 *342:10 0.0020954
10 *289:12 *347:30 0
11 *289:12 *386:20 0.000234883
12 *67:9 *289:12 0.00310703
13 *287:18 *289:12 0
*RES
1 *1153:X *289:6 40 
2 *289:6 *289:12 48.0469 
3 *289:12 *1255:A 20 
*END

*D_NET *290 0.0119799
*CONN
*I *1082:D I *D sg13g2_dlhq_1
*I *1114:A I *D sg13g2_buf_1
*I *1194:X O *D sg13g2_buf_1
*CAP
1 *1082:D 0.000146339
2 *1114:A 0.000139461
3 *1194:X 0.00113733
4 *290:14 0.0002858
5 *290:12 0.00315525
6 *290:10 0.00315525
7 *290:8 0.00113733
8 *1082:D *317:10 0
9 *1114:A *317:10 0
10 *290:8 *312:12 0
11 *290:8 *323:8 0
12 *290:8 *368:8 0.000693746
13 *290:8 *390:8 0.000112501
14 *290:8 *401:10 0
15 *290:8 *412:18 0
16 *290:12 *292:14 0
17 *290:12 *368:10 0
18 *290:12 *401:12 0
19 *1081:GATE *1082:D 0
20 *1081:GATE *1114:A 0
21 *1101:A *290:12 0.000284941
22 *1197:A *290:8 0
23 *1235:A *290:8 0.000112684
24 *279:10 *290:12 0
25 *285:14 *290:12 0.00161932
*RES
1 *1194:X *290:8 30.8356 
2 *290:8 *290:10 20 
3 *290:10 *290:12 33.7222 
4 *290:12 *290:14 20 
5 *290:14 *1114:A 21.3184 
6 *290:14 *1082:D 21.1845 
*END

*D_NET *291 0.0010646
*CONN
*I *1256:A I *D sg13g2_buf_1
*I *1154:X O *D sg13g2_buf_1
*CAP
1 *1256:A 0.000428283
2 *1154:X 0.000428283
3 *1256:A *301:18 0.000208035
4 N2BEG[7] *1256:A 0
5 *127:16 *1256:A 0
*RES
1 *1154:X *1256:A 43.291 
*END

*D_NET *292 0.0074991
*CONN
*I *1257:A I *D sg13g2_buf_1
*I *1155:X O *D sg13g2_buf_1
*CAP
1 *1257:A 0
2 *1155:X 0.000216466
3 *292:14 0.00208147
4 *292:8 0.00229794
5 *292:8 *338:22 0
6 *292:14 *1268:A 0
7 *1081:D *292:14 0.000234172
8 *1248:A *292:14 0
9 *1252:A *292:14 0
10 *115:10 *292:14 0.000242301
11 *274:10 *292:8 0
12 *274:16 *292:14 0.00043496
13 *279:10 *292:14 0.00199178
14 *287:18 *292:14 0
15 *290:12 *292:14 0
*RES
1 *1155:X *292:8 41.8334 
2 *292:8 *292:14 41.836 
3 *292:14 *1257:A 20 
*END

*D_NET *293 0.00592212
*CONN
*I *1258:A I *D sg13g2_buf_1
*I *1156:X O *D sg13g2_buf_1
*CAP
1 *1258:A 4.34978e-05
2 *1156:X 0
3 *293:20 0.000668178
4 *293:12 0.00159794
5 *293:6 0.000973258
6 *293:12 *304:14 0
7 *293:12 *339:60 0
8 *293:12 *356:34 0
9 *293:20 *308:26 0
10 *293:20 *356:42 6.94556e-05
11 N1BEG[1] *1258:A 7.98942e-05
12 *120:14 *1258:A 8.00842e-05
13 *124:12 *293:20 0.00028736
14 *134:8 *293:20 0.000387041
15 *143:8 *293:20 0.000438729
16 *143:26 *293:20 0.000645908
17 *268:16 *293:20 0
18 *273:14 *293:20 0.000650772
*RES
1 *1156:X *293:6 40 
2 *293:6 *293:12 48.2606 
3 *293:12 *293:20 48.0855 
4 *293:20 *1258:A 40.5356 
*END

*D_NET *294 0.0124785
*CONN
*I *1259:A I *D sg13g2_buf_1
*I *1157:X O *D sg13g2_buf_1
*CAP
1 *1259:A 0.00143462
2 *1157:X 6.80806e-05
3 *294:12 0.00224152
4 *294:8 0.000874984
5 *1259:A *311:12 0
6 *294:8 *416:8 0
7 *294:12 *302:12 0.00338275
8 N2BEG[2] *1259:A 0.000208037
9 *125:12 *1259:A 7.99213e-05
10 *269:14 *294:12 0.00410828
11 *275:14 *1259:A 0
12 *280:14 *1259:A 0
13 *283:14 *1259:A 0
14 *284:14 *1259:A 8.03417e-05
*RES
1 *1157:X *294:8 40.5356 
2 *294:8 *294:12 38.8902 
3 *294:12 *1259:A 32.6484 
*END

*D_NET *295 0.0119278
*CONN
*I *1260:A I *D sg13g2_buf_1
*I *1158:X O *D sg13g2_buf_1
*CAP
1 *1260:A 0
2 *1158:X 0.000648994
3 *295:36 0.00149665
4 *295:30 0.00199213
5 *295:24 0.00123034
6 *295:12 0.00138386
7 *295:12 *1047:B 0
8 *295:12 *334:20 0
9 *295:12 *350:14 0
10 *295:12 *354:10 0
11 *295:12 *363:10 0
12 *295:24 *1050:A2 0
13 *295:24 *322:12 0
14 *295:24 *334:20 0.000341543
15 *295:24 *334:32 0
16 *295:24 *346:72 0.000440663
17 *295:30 *382:12 0
18 *295:36 *1084:D 0
19 *295:36 *1138:A 0.000273141
20 *295:36 *297:22 0
21 *295:36 *299:34 0.000434957
22 *295:36 *312:14 0
23 *295:36 *315:36 0
24 *295:36 *320:14 0.00264226
25 *295:36 *323:10 0
26 *295:36 *331:8 0
27 *163:25 *295:24 0
28 *165:23 *295:24 0
29 *181:13 *295:12 0
30 *229:8 *295:36 0
31 *267:12 *295:36 0.000824269
32 *267:78 *295:36 0.000106798
33 *270:12 *295:30 0
34 *285:14 *295:36 0.0001122
*RES
1 *1158:X *295:12 45.4384 
2 *295:12 *295:24 47.7353 
3 *295:24 *295:30 44.2127 
4 *295:30 *295:36 39.5803 
5 *295:36 *1260:A 20 
*END

*D_NET *296 0.0100808
*CONN
*I *1261:A I *D sg13g2_buf_1
*I *1168:X O *D sg13g2_buf_1
*CAP
1 *1261:A 0
2 *1168:X 0
3 *296:22 0.00018701
4 *296:16 0.00211814
5 *296:10 0.00193113
6 *296:6 0
7 *296:16 *297:30 0
8 *296:16 *302:18 0
9 *296:16 *305:14 0.00517185
10 *296:16 *393:16 0
11 *296:22 *299:34 0.000367578
12 *121:18 *296:16 0
13 *181:25 *296:16 0
14 *273:14 *296:22 0.00030506
*RES
1 *1168:X *296:6 40 
2 *296:6 *296:10 40 
3 *296:10 *296:16 44.097 
4 *296:16 *296:22 42.266 
5 *296:22 *1261:A 20 
*END

*D_NET *297 0.0152082
*CONN
*I *1262:A I *D sg13g2_buf_1
*I *1169:X O *D sg13g2_buf_1
*CAP
1 *1262:A 0
2 *1169:X 0.000223198
3 *297:36 7.86968e-05
4 *297:30 0.000451297
5 *297:22 0.00209679
6 *297:16 0.00203837
7 *297:10 0.000537379
8 *297:10 *1036:A 0.000175556
9 *297:16 *344:14 0
10 *297:16 *362:22 0
11 *297:22 *311:12 0
12 *297:22 *312:14 0
13 *297:22 *338:20 0.00358504
14 *297:22 *346:39 0
15 *297:22 *357:14 0.00300058
16 *297:22 *381:10 0
17 *297:30 *311:20 0
18 N2BEG[2] *297:36 0.0001447
19 *10:21 *297:22 0.00102946
20 *119:22 *297:36 0.0001447
21 *121:10 *297:22 0.000143238
22 *121:10 *297:30 7.33256e-05
23 *121:18 *297:30 0.000502111
24 *126:10 *297:22 0
25 *221:20 *297:16 0.000116115
26 *233:8 *297:10 0.000127744
27 *239:12 *297:10 0
28 *267:91 *297:22 0
29 *269:12 *297:10 0.000175556
30 *289:12 *297:22 0.000564379
31 *295:36 *297:22 0
32 *296:16 *297:30 0
*RES
1 *1169:X *297:10 42.2763 
2 *297:10 *297:16 42.6986 
3 *297:16 *297:22 47.4289 
4 *297:22 *297:30 43.914 
5 *297:30 *297:36 40.9682 
6 *297:36 *1262:A 20 
*END

*D_NET *298 0.00245912
*CONN
*I *1263:A I *D sg13g2_buf_1
*I *1170:X O *D sg13g2_buf_1
*CAP
1 *1263:A 0.000142655
2 *1170:X 0.000354715
3 *298:8 0.00049737
4 *1263:A *301:18 0.000208035
5 *298:8 *343:36 0.000234004
6 N2BEG[7] *1263:A 0.000240569
7 N4BEG[3] *298:8 0.00039391
8 *125:12 *298:8 0.000387865
9 *286:16 *298:8 0
*RES
1 *1170:X *298:8 44.0582 
2 *298:8 *1263:A 41.6171 
*END

*D_NET *299 0.00952052
*CONN
*I *1264:A I *D sg13g2_buf_1
*I *1171:X O *D sg13g2_buf_1
*CAP
1 *1264:A 0
2 *1171:X 0.000505898
3 *299:34 0.00227131
4 *299:12 0.00277721
5 *299:12 *1183:A 0.000143351
6 *299:12 *347:30 0.000443366
7 *299:34 *1138:A 0.000208035
8 *299:34 *306:30 0.000208825
9 *299:34 *333:37 0.000448099
10 *299:34 *338:32 0
11 *299:34 *346:16 0
12 *299:34 *347:30 0
13 N2BEG[7] *299:34 0
14 *1054:S0 *299:34 0
15 *126:10 *299:34 1.54008e-05
16 *132:18 *299:34 2.97526e-05
17 *135:10 *299:34 8.01116e-05
18 *225:21 *299:34 0
19 *249:8 *299:12 0.00028427
20 *252:10 *299:12 0
21 *271:8 *299:12 0
22 *272:14 *299:34 0.00130237
23 *273:14 *299:34 0
24 *285:14 *299:34 0
25 *289:12 *299:34 0
26 *295:36 *299:34 0.000434957
27 *296:22 *299:34 0.000367578
*RES
1 *1171:X *299:12 45.5311 
2 *299:12 *299:34 44.5964 
3 *299:34 *1264:A 20 
*END

*D_NET *300 0.0132557
*CONN
*I *1265:A I *D sg13g2_buf_1
*I *1172:X O *D sg13g2_buf_1
*CAP
1 *1265:A 0
2 *1172:X 0.000202899
3 *300:34 5.61002e-05
4 *300:28 0.000970222
5 *300:22 0.00102484
6 *300:16 0.000564694
7 *300:8 0.000656871
8 *300:8 *347:10 0
9 *300:8 *350:14 0
10 *300:16 *307:16 0.000941428
11 *300:16 *327:24 0.000938665
12 *300:28 *304:14 0
13 *300:28 *313:18 0.00404263
14 *300:28 *324:14 0
15 *300:28 *325:14 0.00345547
16 N2BEGb[1] *300:34 8.00842e-05
17 *1164:A *300:8 0.000144422
18 *1201:A *300:8 0
19 *126:18 *300:28 0.000177424
20 *146:20 *300:28 0
21 *165:23 *300:16 0
*RES
1 *1172:X *300:8 41.8334 
2 *300:8 *300:16 46.3551 
3 *300:16 *300:22 40.7519 
4 *300:22 *300:28 39.8275 
5 *300:28 *300:34 40.5356 
6 *300:34 *1265:A 20 
*END

*D_NET *301 0.0114045
*CONN
*I *1115:A I *D sg13g2_buf_1
*I *1083:D I *D sg13g2_dlhq_1
*I *1195:X O *D sg13g2_buf_1
*CAP
1 *1115:A 0
2 *1083:D 0
3 *1195:X 0.000104386
4 *301:26 0.000215193
5 *301:18 0.000590299
6 *301:16 0.00328054
7 *301:8 0.00300982
8 *301:16 *412:18 0
9 *301:16 *412:22 0
10 *301:18 *339:66 4.77425e-05
11 N2BEG[7] *301:16 0.000208035
12 N2BEG[7] *301:18 0.000208062
13 N2BEGb[1] *301:16 0.00020814
14 *1196:A *301:8 0
15 *1197:A *301:8 0
16 *1256:A *301:18 0.000208035
17 *1263:A *301:18 0.000208035
18 *114:8 *301:16 0
19 *115:10 *301:16 0
20 *120:22 *301:16 0.00070703
21 *123:10 *301:16 0.00176784
22 *130:16 *301:16 0
23 *137:8 *301:16 7.94189e-05
24 *146:20 *301:16 2.14736e-05
25 *261:10 *301:26 4.77425e-05
26 *268:10 *301:16 0
27 *268:16 *301:16 0
28 *268:32 *301:26 4.77425e-05
29 *284:14 *301:26 0
30 *288:16 *301:26 0.000444965
*RES
1 *1195:X *301:8 40.7519 
2 *301:8 *301:16 49.7567 
3 *301:16 *301:18 3.7801 
4 *301:18 *301:26 42.3999 
5 *301:26 *1083:D 20 
6 *301:18 *1115:A 20 
*END

*D_NET *302 0.0105949
*CONN
*I *1266:A I *D sg13g2_buf_1
*I *1173:X O *D sg13g2_buf_1
*CAP
1 *1266:A 0
2 *1173:X 0.000100758
3 *302:18 0.00180601
4 *302:12 0.0032173
5 *302:8 0.00151205
6 *302:12 *1057:B 0
7 *302:12 *351:10 0
8 *302:18 *339:60 0.000112058
9 *302:18 *387:12 0
10 N4BEG[2] *302:18 0.000126354
11 *31:5 *302:12 0
12 *126:18 *302:18 0
13 *130:16 *302:18 0
14 *146:20 *302:18 0.000211293
15 *268:16 *302:18 0.000126354
16 *269:14 *302:12 0
17 *294:12 *302:12 0.00338275
18 *296:16 *302:18 0
*RES
1 *1173:X *302:8 40.7519 
2 *302:8 *302:12 39.6318 
3 *302:12 *302:18 37.3555 
4 *302:18 *1266:A 40 
*END

*D_NET *303 0.00808321
*CONN
*I *1267:A I *D sg13g2_buf_1
*I *1159:X O *D sg13g2_buf_1
*CAP
1 *1267:A 0
2 *1159:X 0
3 *303:24 0
4 *303:20 0.00190144
5 *303:16 0.00261749
6 *303:6 0.000716055
7 *303:16 *347:16 0
8 *303:16 *383:12 0
9 *303:16 *384:32 0.000449463
10 *303:20 *376:22 0.000325428
11 *303:20 *376:24 0
12 *303:20 *383:12 0
13 *303:20 *384:12 0.00207333
14 *303:20 *389:16 0
15 *303:20 *392:16 0
*RES
1 *1159:X *303:6 40 
2 *303:6 *303:16 47.9413 
3 *303:16 *303:20 40.8678 
4 *303:20 *303:24 40 
5 *303:24 *1267:A 20 
*END

*D_NET *304 0.0107557
*CONN
*I *1268:A I *D sg13g2_buf_1
*I *1160:X O *D sg13g2_buf_1
*CAP
1 *1268:A 0.000238845
2 *1160:X 0
3 *304:18 0.000238845
4 *304:14 0.0027123
5 *304:12 0.00277229
6 *304:6 5.99901e-05
7 *304:14 *305:14 0
8 *304:14 *308:20 0.00405061
9 *304:14 *322:18 0
10 *304:14 *339:60 0
11 *304:14 *352:14 0
12 *304:14 *356:34 0
13 *304:14 *361:26 0
14 N1BEG[0] *1268:A 0.000112569
15 *1248:A *1268:A 4.77425e-05
16 *143:18 *304:14 6.90175e-05
17 *244:14 *304:14 0.000453453
18 *292:14 *1268:A 0
19 *293:12 *304:14 0
20 *300:28 *304:14 0
*RES
1 *1160:X *304:6 40 
2 *304:6 *304:12 40.5356 
3 *304:12 *304:14 33.9694 
4 *304:14 *304:18 40 
5 *304:18 *1268:A 42.3999 
*END

*D_NET *305 0.0125292
*CONN
*I *1269:A I *D sg13g2_buf_1
*I *1161:X O *D sg13g2_buf_1
*CAP
1 *1269:A 0
2 *1161:X 0
3 *305:22 0.000281392
4 *305:14 0.00214354
5 *305:10 0.00186215
6 *305:6 0
7 *305:14 *322:18 0
8 *305:14 *339:60 0
9 *305:14 *361:26 0
10 *305:14 *361:32 0
11 *305:14 *382:14 0.00260261
12 *305:14 *393:16 0
13 *305:22 *311:20 0.000339712
14 N4BEG[5] *305:22 0
15 *120:14 *305:22 0
16 *129:14 *305:22 0
17 *181:25 *305:14 0
18 *273:14 *305:22 0.00012792
19 *296:16 *305:14 0.00517185
20 *304:14 *305:14 0
*RES
1 *1161:X *305:6 40 
2 *305:6 *305:10 40 
3 *305:10 *305:14 49.0254 
4 *305:14 *305:22 43.0797 
5 *305:22 *1269:A 20 
*END

*D_NET *306 0.0117156
*CONN
*I *1270:A I *D sg13g2_buf_1
*I *1162:X O *D sg13g2_buf_1
*CAP
1 *1270:A 0
2 *1162:X 0.000684402
3 *306:30 0.000592028
4 *306:18 0.00195007
5 *306:14 0.00153247
6 *306:8 0.000858827
7 *306:8 *339:8 0.000864874
8 *306:8 *343:22 0
9 *306:8 *348:28 0
10 *306:8 *358:20 0
11 *306:18 *307:16 0.00285693
12 *306:18 *309:18 0
13 *306:18 *313:18 0
14 *306:30 *1274:A 0
15 N2BEG[4] *306:30 4.75151e-05
16 *1045:A *306:8 0.000556331
17 *1051:B1 *306:8 0.000499214
18 *119:22 *306:30 0
19 *133:8 *306:30 4.75151e-05
20 *145:10 *306:30 0.000240332
21 *175:11 *306:8 0.000760835
22 *273:14 *306:30 1.54008e-05
23 *299:34 *306:30 0.000208825
*RES
1 *1162:X *306:8 49.2494 
2 *306:8 *306:14 41.1845 
3 *306:14 *306:18 37.407 
4 *306:18 *306:30 45.665 
5 *306:30 *1270:A 20 
*END

*D_NET *307 0.0139302
*CONN
*I *1271:A I *D sg13g2_buf_1
*I *1163:X O *D sg13g2_buf_1
*CAP
1 *1271:A 0
2 *1163:X 0
3 *307:24 0.000547668
4 *307:16 0.0020212
5 *307:10 0.00147353
6 *307:6 0
7 *307:16 *309:18 0
8 *307:16 *313:18 0
9 *307:16 *321:24 0
10 *307:16 *326:36 0.00313452
11 *307:16 *326:42 0
12 *307:16 *327:24 0
13 N1BEG[0] *307:24 0
14 N1BEG[1] *307:24 1.54008e-05
15 N4BEG[10] *307:24 0.000753623
16 NN4BEG[2] *307:24 0.00012794
17 *114:8 *307:24 0.000337302
18 *115:10 *307:24 0
19 *119:22 *307:24 0.000179079
20 *120:22 *307:24 0
21 *268:16 *307:24 0.00154154
22 *300:16 *307:16 0.000941428
23 *306:18 *307:16 0.00285693
*RES
1 *1163:X *307:6 40 
2 *307:6 *307:10 40 
3 *307:10 *307:16 43.6591 
4 *307:16 *307:24 48.549 
5 *307:24 *1271:A 20 
*END

*D_NET *308 0.0134362
*CONN
*I *1272:A I *D sg13g2_buf_1
*I *1164:X O *D sg13g2_buf_1
*CAP
1 *1272:A 0
2 *1164:X 0.000174552
3 *308:26 0.000500607
4 *308:20 0.00127896
5 *308:16 0.000907809
6 *308:10 0.00030401
7 *308:10 *341:16 0.00033494
8 *308:10 *348:10 0
9 *308:16 *346:78 0
10 *308:20 *324:14 0
11 *308:20 *352:14 0.0038361
12 *308:26 *310:8 0.000806504
13 N4BEG[5] *308:26 0
14 *134:16 *308:26 0
15 *143:26 *308:26 0.00080681
16 *146:10 *308:26 0
17 *242:16 *308:16 4.7031e-05
18 *273:14 *308:26 0.00038822
19 *293:20 *308:26 0
20 *304:14 *308:20 0.00405061
*RES
1 *1164:X *308:10 41.9055 
2 *308:10 *308:16 40.9682 
3 *308:16 *308:20 38.643 
4 *308:20 *308:26 46.5302 
5 *308:26 *1272:A 20 
*END

*D_NET *309 0.012098
*CONN
*I *1273:A I *D sg13g2_buf_1
*I *1165:X O *D sg13g2_buf_1
*CAP
1 *1273:A 0
2 *1165:X 3.73186e-05
3 *309:26 0.00023197
4 *309:18 0.0024191
5 *309:14 0.00252066
6 *309:8 0.000370855
7 *309:18 *321:18 0.00538571
8 *309:18 *327:24 0
9 N4BEG[2] *309:26 0.000445733
10 *1165:A *309:8 0
11 *121:18 *309:26 0.000242419
12 *181:13 *309:8 0
13 *182:15 *309:18 0
14 *268:16 *309:26 0.000444238
15 *306:18 *309:18 0
16 *307:16 *309:18 0
*RES
1 *1165:X *309:8 40.3193 
2 *309:8 *309:14 42.9149 
3 *309:14 *309:18 48.7782 
4 *309:18 *309:26 43.6977 
5 *309:26 *1273:A 20 
*END

*D_NET *310 0.0020243
*CONN
*I *1274:A I *D sg13g2_buf_1
*I *1166:X O *D sg13g2_buf_1
*CAP
1 *1274:A 6.40889e-05
2 *1166:X 0.00026251
3 *310:8 0.000326599
4 N4BEG[5] *310:8 0
5 *119:22 *1274:A 6.919e-05
6 *146:10 *310:8 0.000495406
7 *306:30 *1274:A 0
8 *308:26 *310:8 0.000806504
*RES
1 *1166:X *310:8 43.811 
2 *310:8 *1274:A 40.6695 
*END

*D_NET *311 0.0104042
*CONN
*I *1275:A I *D sg13g2_buf_1
*I *1167:X O *D sg13g2_buf_1
*CAP
1 *1275:A 0
2 *1167:X 0
3 *311:26 6.54548e-05
4 *311:20 0.000440383
5 *311:12 0.00257236
6 *311:6 0.00219743
7 *311:12 *1151:A 0
8 *311:12 *1187:A 0.000289504
9 *311:12 *360:10 0.00068892
10 N2BEG[1] *311:26 0.000112533
11 N2BEG[2] *311:12 0.000208037
12 *1259:A *311:12 0
13 *67:9 *311:12 0
14 *120:22 *311:26 0
15 *121:10 *311:12 0.000175582
16 *121:18 *311:20 0
17 *129:14 *311:20 0
18 *140:20 *311:20 0.000179079
19 *144:14 *311:26 4.77425e-05
20 *276:10 *311:12 0.00300728
21 *282:14 *311:20 0
22 *284:14 *311:12 8.01995e-05
23 *287:18 *311:12 0
24 *289:12 *311:12 0
25 *297:22 *311:12 0
26 *297:30 *311:20 0
27 *305:22 *311:20 0.000339712
*RES
1 *1167:X *311:6 40 
2 *311:6 *311:12 45.9457 
3 *311:12 *311:20 44.1921 
4 *311:20 *311:26 40.7519 
5 *311:26 *1275:A 20 
*END

*D_NET *312 0.00805469
*CONN
*I *1084:D I *D sg13g2_dlhq_1
*I *1116:A I *D sg13g2_buf_1
*I *1196:X O *D sg13g2_buf_1
*CAP
1 *1084:D 0.000178364
2 *1116:A 2.13247e-05
3 *1196:X 0.000829961
4 *312:14 0.00298267
5 *312:12 0.00361295
6 *1084:D *1283:A 8.00842e-05
7 *1084:D *323:10 0
8 *312:12 *323:8 0
9 *312:12 *323:10 0.00030159
10 *312:12 *357:12 0
11 *312:12 *368:8 0
12 *312:14 *323:10 0
13 *312:14 *357:12 0
14 *312:14 *357:14 0
15 *1104:A *312:12 0
16 *1197:A *312:12 0
17 *1237:A *312:12 0
18 *268:32 *1116:A 4.77425e-05
19 *279:6 *312:12 0
20 *290:8 *312:12 0
21 *295:36 *1084:D 0
22 *295:36 *312:14 0
23 *297:22 *312:14 0
*RES
1 *1196:X *312:12 44.6541 
2 *312:12 *312:14 25.75 
3 *312:14 *1116:A 40.3193 
4 *312:14 *1084:D 41.6274 
*END

*D_NET *313 0.017131
*CONN
*I *1276:A I *D sg13g2_buf_1
*I *1174:X O *D sg13g2_buf_1
*CAP
1 *1276:A 0
2 *1174:X 0.000260585
3 *313:22 0
4 *313:18 0.00261046
5 *313:16 0.00283587
6 *313:10 0.000485992
7 *313:10 *321:10 0.000181813
8 *313:10 *360:6 4.75166e-05
9 *313:10 *392:28 0
10 *313:16 *321:16 0.000405342
11 *313:18 *321:18 0
12 *313:18 *324:14 0
13 *313:18 *325:14 0
14 *313:18 *326:36 0
15 *313:18 *327:24 0.00560044
16 *213:21 *313:10 0.000660389
17 *300:28 *313:18 0.00404263
18 *306:18 *313:18 0
19 *307:16 *313:18 0
*RES
1 *1174:X *313:10 43.3887 
2 *313:10 *313:16 42.6986 
3 *313:16 *313:18 37.6774 
4 *313:18 *313:22 40 
5 *313:22 *1276:A 40 
*END

*D_NET *314 0.00707947
*CONN
*I *1277:A I *D sg13g2_buf_1
*I *1184:X O *D sg13g2_buf_1
*CAP
1 *1277:A 0.000206308
2 *1184:X 0.000706774
3 *314:22 0.000975399
4 *314:12 0.00147587
5 *314:12 *1077:D 0
6 *314:12 *345:26 0
7 *314:22 *319:36 0
8 *314:22 *339:40 0.000231766
9 *314:22 *412:36 0
10 N4BEG[8] *1277:A 0.00030506
11 *156:10 *314:22 0.000232917
12 *163:25 *314:12 0.000233591
13 *181:13 *314:12 0
14 *222:34 *314:12 0
15 *241:12 *314:12 0.00103442
16 *248:12 *314:12 0.000391332
17 *261:10 *314:22 0.00018128
18 *270:8 *314:12 0.000500589
19 *284:14 *314:22 0
20 *288:16 *314:22 0.000604165
*RES
1 *1184:X *314:12 49.8571 
2 *314:12 *314:22 47.6941 
3 *314:22 *1277:A 42.0497 
*END

*D_NET *315 0.00894055
*CONN
*I *1278:A I *D sg13g2_buf_1
*I *1185:X O *D sg13g2_buf_1
*CAP
1 *1278:A 0.00101965
2 *1185:X 0.000198853
3 *315:36 0.00152573
4 *315:28 0.000773781
5 *315:18 0.000822925
6 *315:10 0.00075408
7 *1278:A *1072:B1 0
8 *1278:A *329:20 0
9 *315:10 *347:30 0
10 *315:10 *358:40 0.000336354
11 *315:10 *386:20 0.000443036
12 *315:18 *1034:A2 4.77425e-05
13 *315:18 *1157:A 0.000111568
14 *315:18 *333:24 0.000975657
15 *315:18 *358:40 0.000111567
16 *315:18 *368:10 0
17 *315:18 *380:12 0
18 *315:28 *319:28 0.000208887
19 *315:28 *380:12 0
20 *315:36 *1074:D 0
21 *1034:S0 *315:18 0
22 *1040:B1 *315:18 0
23 *1055:A *315:28 0.000287447
24 *1068:B *1278:A 0.000112426
25 *1071:B1 *1278:A 0
26 *1072:A1 *1278:A 0.000176062
27 *1085:GATE *315:36 4.77425e-05
28 *219:23 *315:18 0
29 *227:10 *315:36 0
30 *229:12 *1278:A 0.000208035
31 *229:27 *1278:A 0.00017625
32 *237:10 *315:18 0.00017625
33 *258:18 *1278:A 0.00011101
34 *267:12 *315:36 7.51285e-05
35 *267:18 *315:36 0.000240377
36 *285:14 *315:28 0
37 *295:36 *315:36 0
*RES
1 *1185:X *315:10 42.6162 
2 *315:10 *315:18 46.6023 
3 *315:18 *315:28 43.0591 
4 *315:28 *315:36 44.4702 
5 *315:36 *1278:A 49.6723 
*END

*D_NET *316 0.00345768
*CONN
*I *1279:A I *D sg13g2_buf_1
*I *1186:X O *D sg13g2_buf_1
*CAP
1 *1279:A 8.15023e-05
2 *1186:X 0.000638761
3 *316:18 0.000720263
4 *316:18 *1182:A 0.000182121
5 *316:18 *334:32 0.00115802
6 *316:18 *339:46 0
7 *316:18 *401:26 0.000446402
8 *1066:B_N *316:18 0
9 *145:16 *316:18 0
10 *229:27 *316:18 0.000230615
11 *241:12 *1279:A 0
12 *288:10 *1279:A 0
*RES
1 *1186:X *316:18 48.4357 
2 *316:18 *1279:A 40.7519 
*END

*D_NET *317 0.00619219
*CONN
*I *1280:A I *D sg13g2_buf_1
*I *1187:X O *D sg13g2_buf_1
*CAP
1 *1280:A 0
2 *1187:X 0.00143926
3 *317:18 0.0005275
4 *317:10 0.00196676
5 *317:10 *1054:A3 0.000207845
6 *317:10 *1069:A 0
7 *317:10 *1117:A 0.00030506
8 *317:10 *329:20 0
9 *317:10 *348:36 0
10 *317:18 *1140:A 0.000175693
11 *317:18 *318:16 0.000285601
12 *317:18 *343:36 0.000178046
13 *1060:A1 *317:10 0
14 *1065:A *317:10 0.00014391
15 *1066:B_N *317:18 0
16 *1069:B_N *317:10 4.76973e-05
17 *1082:D *317:10 0
18 *1114:A *317:10 0
19 *154:10 *317:18 0
20 *225:8 *317:10 0
21 *226:12 *317:10 0
22 *266:8 *317:18 0.000914814
23 *267:31 *317:10 0
*RES
1 *1187:X *317:10 32.4527 
2 *317:10 *317:18 46.2006 
3 *317:18 *1280:A 20 
*END

*D_NET *318 0.00669688
*CONN
*I *1281:A I *D sg13g2_buf_1
*I *1188:X O *D sg13g2_buf_1
*CAP
1 *1281:A 0
2 *1188:X 0.000384362
3 *318:16 0.000890486
4 *318:10 0.00127485
5 *318:10 *1188:A 0.000272897
6 *318:10 *346:72 0
7 *318:16 *1152:A 0.000719434
8 *318:16 *322:12 0
9 *318:16 *337:16 0.000126146
10 *318:16 *339:28 0
11 *318:16 *341:16 0.000790257
12 *318:16 *356:26 0
13 *318:16 *401:26 0
14 N4BEG[12] *318:16 0.000208035
15 *1049:B_N *318:10 0.000240701
16 *1051:A1 *318:10 7.9225e-05
17 *150:10 *318:16 0.000977812
18 *154:10 *318:16 0.000447079
19 *223:21 *318:16 0
20 *317:18 *318:16 0.000285601
*RES
1 *1188:X *318:10 43.6324 
2 *318:10 *318:16 32.6587 
3 *318:16 *1281:A 20 
*END

*D_NET *319 0.00731645
*CONN
*I *1282:A I *D sg13g2_buf_1
*I *1189:X O *D sg13g2_buf_1
*CAP
1 *1282:A 0
2 *1189:X 0.000689667
3 *319:42 0.000172408
4 *319:36 0.000541935
5 *319:28 0.00140428
6 *319:12 0.00172442
7 *319:12 *1034:A3 0.0001319
8 *319:12 *1149:A 0.000445264
9 *319:12 *1153:A 0.000272718
10 *319:12 *333:24 0
11 *319:12 *340:26 0.000334863
12 *319:12 *344:18 0.000283054
13 *319:12 *347:30 0
14 *319:28 *1074:D 0.000272224
15 *319:28 *1077:D 0
16 *319:28 *1107:A 0
17 *319:28 *1110:A 0
18 *319:28 *1140:A 0
19 *319:28 *368:14 0
20 *319:28 *380:8 0.000110997
21 *319:28 *401:16 0
22 *319:28 *401:26 0.000240377
23 *319:36 *401:26 7.51285e-05
24 N4BEG[15] *319:42 0.00014391
25 *1063:A *319:28 1.54008e-05
26 *1063:B *319:28 0
27 *1066:B_N *319:36 7.33256e-05
28 *67:17 *319:28 0
29 *249:8 *319:12 0
30 *260:12 *319:28 0.000175693
31 *314:22 *319:36 0
32 *315:28 *319:28 0.000208887
*RES
1 *1189:X *319:12 47.725 
2 *319:12 *319:28 30.2656 
3 *319:28 *319:36 43.0488 
4 *319:36 *319:42 41.6171 
5 *319:42 *1282:A 20 
*END

*D_NET *320 0.0173944
*CONN
*I *1283:A I *D sg13g2_buf_1
*I *1175:X O *D sg13g2_buf_1
*CAP
1 *1283:A 0.000901847
2 *1175:X 0.000581988
3 *320:14 0.00346303
4 *320:8 0.00314317
5 *1283:A *1182:A 4.77425e-05
6 *1283:A *328:12 0
7 *320:8 *359:10 0.00020815
8 *320:8 *360:6 0
9 *320:14 *331:8 0
10 *320:14 *338:20 0
11 *320:14 *364:14 0.00604362
12 *320:14 *392:20 0
13 *1084:D *1283:A 8.00842e-05
14 *154:10 *1283:A 4.75166e-05
15 *157:10 *1283:A 0
16 *221:8 *320:14 0.000234986
17 *268:32 *1283:A 0
18 *272:8 *1283:A 0
19 *295:36 *320:14 0.00264226
*RES
1 *1175:X *320:8 46.1594 
2 *320:8 *320:14 36.8637 
3 *320:14 *1283:A 47.6088 
*END

*D_NET *321 0.0179148
*CONN
*I *1284:A I *D sg13g2_buf_1
*I *1176:X O *D sg13g2_buf_1
*CAP
1 *1284:A 0
2 *1176:X 0.000128881
3 *321:24 0.000240399
4 *321:18 0.00220797
5 *321:16 0.0023899
6 *321:10 0.000551211
7 *321:10 *392:28 0.000234834
8 *321:16 *324:12 0
9 *321:16 *325:12 0
10 *321:16 *393:20 0.000115102
11 *321:18 *327:24 0
12 *321:18 *365:18 0.00602694
13 *126:18 *321:24 0
14 *182:15 *321:18 0
15 *268:16 *321:24 4.6693e-05
16 *307:16 *321:24 0
17 *309:18 *321:18 0.00538571
18 *313:10 *321:10 0.000181813
19 *313:16 *321:16 0.000405342
20 *313:18 *321:18 0
*RES
1 *1176:X *321:10 41.6274 
2 *321:10 *321:16 44.6453 
3 *321:16 *321:18 36.4414 
4 *321:18 *321:24 41.8334 
5 *321:24 *1284:A 40 
*END

*D_NET *322 0.0166965
*CONN
*I *1285:A I *D sg13g2_buf_1
*I *1177:X O *D sg13g2_buf_1
*CAP
1 *1285:A 0
2 *1177:X 0.000122588
3 *322:24 0.000275118
4 *322:18 0.000717998
5 *322:12 0.00193749
6 *322:8 0.0016172
7 *322:8 *355:10 0
8 *322:12 *1050:A2 0.000337255
9 *322:12 *334:32 0
10 *322:12 *337:16 0
11 *322:12 *354:20 0.000120992
12 *322:12 *356:26 0.000448012
13 *322:12 *359:12 0.00378906
14 *322:18 *356:34 0.00189308
15 *322:18 *361:26 0.00103854
16 *322:18 *361:32 0.000556967
17 *322:24 *352:20 0
18 *322:24 *356:42 0
19 *1044:S1 *322:12 0.000660461
20 *150:10 *322:12 0
21 *189:9 *322:8 0.000143351
22 *189:9 *322:12 0.00262915
23 *223:21 *322:12 0.000208845
24 *242:8 *322:12 7.49214e-05
25 *245:8 *322:12 0.000125483
26 *268:16 *322:24 0
27 *295:24 *322:12 0
28 *304:14 *322:18 0
29 *305:14 *322:18 0
30 *318:16 *322:12 0
*RES
1 *1177:X *322:8 41.1845 
2 *322:8 *322:12 45.0702 
3 *322:12 *322:18 49.2494 
4 *322:18 *322:24 41.8334 
5 *322:24 *1285:A 20 
*END

*D_NET *323 0.0103142
*CONN
*I *1117:A I *D sg13g2_buf_1
*I *1085:D I *D sg13g2_dlhq_1
*I *1197:X O *D sg13g2_buf_1
*CAP
1 *1117:A 0.000173448
2 *1085:D 0
3 *1197:X 0.000501745
4 *323:12 0.000173448
5 *323:10 0.00325952
6 *323:8 0.00376126
7 *1117:A *329:20 0.00030506
8 *323:8 *368:8 0
9 *323:8 *390:8 0
10 *323:10 *334:44 0.00124456
11 *323:10 *357:12 0
12 *1084:D *323:10 0
13 *229:8 *323:10 0
14 *258:18 *323:10 0
15 *267:39 *323:10 0.000288502
16 *274:16 *323:10 0
17 *290:8 *323:8 0
18 *295:36 *323:10 0
19 *312:12 *323:8 0
20 *312:12 *323:10 0.00030159
21 *312:14 *323:10 0
22 *317:10 *1117:A 0.00030506
*RES
1 *1197:X *323:8 43.455 
2 *323:8 *323:10 33.2278 
3 *323:10 *323:12 20 
4 *323:12 *1085:D 20 
5 *323:12 *1117:A 22.0497 
*END

*D_NET *324 0.0119464
*CONN
*I *1286:A I *D sg13g2_buf_1
*I *1178:X O *D sg13g2_buf_1
*CAP
1 *1286:A 0
2 *1178:X 0
3 *324:20 0.000171966
4 *324:14 0.00260516
5 *324:12 0.00246744
6 *324:6 3.4241e-05
7 *324:12 *325:12 0
8 *324:14 *325:14 0
9 *324:14 *352:14 0.00666762
10 *324:20 *325:20 0
11 *268:16 *324:20 0
12 *300:28 *324:14 0
13 *308:20 *324:14 0
14 *313:18 *324:14 0
15 *321:16 *324:12 0
*RES
1 *1178:X *324:6 40 
2 *324:6 *324:12 40.3193 
3 *324:12 *324:14 34.4638 
4 *324:14 *324:20 41.4008 
5 *324:20 *1286:A 40 
*END

*D_NET *325 0.00977305
*CONN
*I *1287:A I *D sg13g2_buf_1
*I *1179:X O *D sg13g2_buf_1
*CAP
1 *1287:A 0
2 *1179:X 0
3 *325:20 7.87308e-05
4 *325:14 0.00301454
5 *325:12 0.00308006
6 *325:6 0.000144253
7 *325:12 *352:12 0
8 *300:28 *325:14 0.00345547
9 *313:18 *325:14 0
10 *321:16 *325:12 0
11 *324:12 *325:12 0
12 *324:14 *325:14 0
13 *324:20 *325:20 0
*RES
1 *1179:X *325:6 40 
2 *325:6 *325:12 41.1845 
3 *325:12 *325:14 32.239 
4 *325:14 *325:20 40.5356 
5 *325:20 *1287:A 40 
*END

*D_NET *326 0.0145291
*CONN
*I *1288:A I *D sg13g2_buf_1
*I *1180:X O *D sg13g2_buf_1
*CAP
1 *1288:A 0
2 *1180:X 0.000145118
3 *326:42 7.87133e-05
4 *326:36 0.000711747
5 *326:32 0.000766468
6 *326:26 0.00108445
7 *326:16 0.00113988
8 *326:10 0.000333983
9 *326:16 *350:8 0.000143306
10 *326:16 *351:6 0
11 *326:26 *348:18 0
12 *326:26 *358:20 0.00240437
13 *326:32 *348:28 0.000551065
14 *326:32 *358:20 0.000608388
15 *326:36 *327:24 0.00281256
16 *165:13 *326:26 0.000177736
17 *175:11 *326:32 0
18 *176:13 *326:26 0
19 *182:11 *326:26 0
20 *185:9 *326:26 0
21 *188:31 *326:10 1.56814e-05
22 *190:13 *326:16 8.00394e-05
23 *193:13 *326:26 0
24 *197:9 *326:10 0.000341071
25 *307:16 *326:36 0.00313452
26 *307:16 *326:42 0
27 *313:18 *326:36 0
*RES
1 *1180:X *326:10 41.9055 
2 *326:10 *326:16 41.8334 
3 *326:16 *326:26 32.463 
4 *326:26 *326:32 42.8222 
5 *326:32 *326:36 34.4406 
6 *326:36 *326:42 40.4476 
7 *326:42 *1288:A 40 
*END

*D_NET *327 0.0131783
*CONN
*I *1289:A I *D sg13g2_buf_1
*I *1181:X O *D sg13g2_buf_1
*CAP
1 *1289:A 0
2 *1181:X 0.000253943
3 *327:30 3.27832e-05
4 *327:24 0.00134155
5 *327:16 0.00138764
6 *327:10 0.000332813
7 *327:10 *343:22 0
8 *327:10 *350:8 0.000175693
9 *327:10 *361:22 0
10 NN4BEG[0] *327:30 0
11 NN4BEG[2] *327:30 7.40536e-05
12 *1216:A *327:10 0
13 *141:16 *327:24 4.63914e-05
14 *174:11 *327:10 0.00018174
15 *300:16 *327:24 0.000938665
16 *307:16 *327:24 0
17 *309:18 *327:24 0
18 *313:18 *327:24 0.00560044
19 *321:18 *327:24 0
20 *326:36 *327:24 0.00281256
*RES
1 *1181:X *327:10 42.4926 
2 *327:10 *327:16 40.5356 
3 *327:16 *327:24 46.4813 
4 *327:24 *327:30 40.3502 
5 *327:30 *1289:A 20 
*END

*D_NET *328 0.00250681
*CONN
*I *1290:A I *D sg13g2_buf_1
*I *1182:X O *D sg13g2_buf_1
*CAP
1 *1290:A 0.000148392
2 *1182:X 0.000561461
3 *328:12 0.000709852
4 *1290:A *348:28 0.000208035
5 N4BEG[0] *328:12 0
6 N4BEG[3] *1290:A 0
7 N4BEG[5] *1290:A 0.000175693
8 *1283:A *328:12 0
9 *134:16 *328:12 0.000655857
10 *143:26 *328:12 0
11 *154:10 *328:12 4.75166e-05
*RES
1 *1182:X *328:12 45.253 
2 *328:12 *1290:A 41.6171 
*END

*D_NET *329 0.00661052
*CONN
*I *1291:A I *D sg13g2_buf_1
*I *1183:X O *D sg13g2_buf_1
*CAP
1 *1291:A 0
2 *1183:X 0.000683578
3 *329:20 0.00145108
4 *329:12 0.00213465
5 *329:12 *1183:A 0.000112426
6 *329:12 *333:24 0.000709356
7 *329:20 *1069:A 0.000112426
8 *329:20 *1072:B1 0
9 *329:20 *343:22 6.46834e-05
10 *329:20 *343:36 0.00014391
11 *329:20 *364:20 0
12 *329:20 *412:30 0.000175693
13 N4BEG[6] *329:20 0.00030506
14 *1058:B *329:12 8.00842e-05
15 *1061:A1 *329:20 0
16 *1063:B *329:12 0
17 *1070:A1 *329:20 4.77425e-05
18 *1117:A *329:20 0.00030506
19 *1278:A *329:20 0
20 *225:36 *329:12 0
21 *229:27 *329:20 0
22 *251:12 *329:12 0
23 *254:8 *329:12 0.000284773
24 *271:8 *329:12 0
25 *317:10 *329:20 0
*RES
1 *1183:X *329:12 47.5087 
2 *329:12 *329:20 33.2211 
3 *329:20 *1291:A 20 
*END

*D_NET *330 0.00592291
*CONN
*I *1292:A I *D sg13g2_buf_1
*I *1190:X O *D sg13g2_buf_1
*CAP
1 *1292:A 0
2 *1190:X 0.00143112
3 *330:14 0.000825126
4 *330:6 0.00225625
5 *330:6 *360:6 0
6 *330:6 *362:8 0.000855507
7 *330:6 *363:8 0
8 *330:6 *414:10 0
9 *330:14 *1325:A 0
10 *330:14 *363:10 0
11 *330:14 *392:28 0
12 *330:14 *403:12 0.000554906
13 *330:14 *404:12 0
14 *330:14 *405:8 0
15 *330:14 *422:6 0
16 FrameStrobe_O[3] *330:14 0
17 *205:11 *330:14 0
*RES
1 *1190:X *330:6 34.8114 
2 *330:6 *330:14 48.5181 
3 *330:14 *1292:A 20 
*END

*D_NET *331 0.00477197
*CONN
*I *1034:A0 I *D sg13g2_mux4_1
*I *1141:A I *D sg13g2_buf_1
*I *1198:X O *D sg13g2_buf_1
*CAP
1 *1034:A0 0
2 *1141:A 0.000221447
3 *1198:X 0.000513374
4 *331:16 0.000866039
5 *331:8 0.00115797
6 *1141:A *1157:A 0
7 *1141:A *358:40 0
8 *331:16 *340:22 0.000562373
9 *331:16 *358:40 0
10 *1034:S0 *1141:A 1.54282e-05
11 *1034:S0 *331:16 0.000224976
12 *1074:GATE *331:16 0
13 *67:17 *1141:A 0
14 *67:17 *331:16 0
15 *67:34 *331:8 0.000975934
16 *221:8 *331:8 0.000234437
17 *295:36 *331:8 0
18 *320:14 *331:8 0
*RES
1 *1198:X *331:8 45.7886 
2 *331:8 *331:16 26.18 
3 *331:16 *1141:A 22.0497 
4 *331:16 *1034:A0 20 
*END

*D_NET *332 0.00584567
*CONN
*I *1044:A0 I *D sg13g2_mux4_1
*I *1140:A I *D sg13g2_buf_1
*I *1199:X O *D sg13g2_buf_1
*CAP
1 *1044:A0 0.000426138
2 *1140:A 0.000514314
3 *1199:X 0.000145772
4 *332:8 0.00108622
5 *1044:A0 *1156:A 0.000461307
6 *1044:A0 *337:18 0.00026037
7 *1044:A0 *339:28 0.00103225
8 *1044:A0 *341:16 0
9 *1140:A *1072:B1 0.000272528
10 *1140:A *1156:A 0.000444965
11 *1140:A *339:40 0
12 *1140:A *401:26 0.00020799
13 *332:8 *1152:A 4.77425e-05
14 *1044:S0 *1044:A0 4.77425e-05
15 *1045:A *332:8 0.000240377
16 *156:10 *1140:A 0.000338901
17 *156:22 *332:8 0.000143351
18 *288:10 *1140:A 0
19 *317:18 *1140:A 0.000175693
20 *319:28 *1140:A 0
*RES
1 *1199:X *332:8 41.6171 
2 *332:8 *1140:A 46.3139 
3 *332:8 *1044:A0 46.1285 
*END

*D_NET *333 0.00940377
*CONN
*I *1139:A I *D sg13g2_buf_1
*I *1054:A0 I *D sg13g2_mux4_1
*I *1200:X O *D sg13g2_buf_1
*CAP
1 *1139:A 0
2 *1054:A0 2.60565e-05
3 *1200:X 0.000870961
4 *333:37 0.000125564
5 *333:24 0.00138402
6 *333:14 0.00210336
7 *333:14 *347:22 0
8 *333:24 *1034:A3 0.000127472
9 *333:24 *338:22 0
10 *333:24 *340:26 0.000335669
11 *333:24 *344:18 0
12 *333:24 *346:16 0.00129837
13 *333:24 *368:10 0
14 *333:37 *346:16 0
15 *1034:S1 *333:14 2.14736e-05
16 *1034:S1 *333:24 0
17 *1037:A *333:14 5.23167e-05
18 *1040:B1 *333:24 0
19 *1043:A *333:14 0.000240667
20 *1054:S0 *1054:A0 4.77425e-05
21 *1054:S0 *333:24 3.23417e-05
22 *1054:S0 *333:37 7.51285e-05
23 *225:21 *333:24 0
24 *233:8 *333:14 0
25 *234:10 *333:14 0
26 *234:10 *333:24 0
27 *238:10 *333:14 0.000337674
28 *249:8 *333:24 0
29 *269:12 *333:14 0
30 *272:8 *1054:A0 4.77425e-05
31 *272:8 *333:24 0.000144101
32 *299:34 *333:37 0.000448099
33 *315:18 *333:24 0.000975657
34 *319:12 *333:24 0
35 *329:12 *333:24 0.000709356
*RES
1 *1200:X *333:14 48.1679 
2 *333:14 *333:24 35.8311 
3 *333:24 *1054:A0 20.3193 
4 *333:24 *333:37 42.0806 
5 *333:37 *1139:A 20 
*END

*D_NET *334 0.0129446
*CONN
*I *1064:A0 I *D sg13g2_mux4_1
*I *1138:A I *D sg13g2_buf_1
*I *1201:X O *D sg13g2_buf_1
*CAP
1 *1064:A0 0.000372736
2 *1138:A 0.000381233
3 *1201:X 0.000694169
4 *334:44 0.00116785
5 *334:32 0.00213935
6 *334:20 0.00167417
7 *1064:A0 *1186:A 4.77425e-05
8 *334:20 *1047:B 0
9 *334:20 *345:26 2.14736e-05
10 *334:20 *346:72 0
11 *334:20 *363:10 0
12 *334:32 *1182:A 0.000232864
13 *334:32 *345:26 0.00102769
14 *334:32 *348:44 0.000180675
15 *334:32 *401:26 0
16 N2BEG[7] *1138:A 8.00842e-05
17 *1047:A *334:20 0.000234367
18 *1065:B *334:44 0
19 *1073:A *1064:A0 0.000161152
20 *1073:A *334:44 7.9225e-05
21 *1083:GATE *334:44 0.00020871
22 *1201:A *334:20 4.75425e-05
23 *138:10 *334:44 0
24 *222:8 *334:20 2.14736e-05
25 *222:34 *334:20 0.000285715
26 *222:45 *334:20 0.000283681
27 *228:10 *334:44 4.77425e-05
28 *229:27 *334:32 0.000232136
29 *259:8 *334:32 2.22695e-05
30 *267:39 *334:44 7.52158e-05
31 *274:16 *334:44 0
32 *288:16 *334:32 0
33 *295:12 *334:20 0
34 *295:24 *334:20 0.000341543
35 *295:24 *334:32 0
36 *295:36 *1138:A 0.000273141
37 *299:34 *1138:A 0.000208035
38 *316:18 *334:32 0.00115802
39 *322:12 *334:32 0
40 *323:10 *334:44 0.00124456
*RES
1 *1201:X *334:20 47.7662 
2 *334:20 *334:32 32.3188 
3 *334:32 *334:44 49.1876 
4 *334:44 *1138:A 23.5638 
5 *334:32 *1064:A0 23.2651 
*END

*D_NET *335 0.00404183
*CONN
*I *1118:A I *D sg13g2_buf_1
*I *1078:GATE I *D sg13g2_dlhq_1
*I *1079:GATE I *D sg13g2_dlhq_1
*I *1077:GATE I *D sg13g2_dlhq_1
*I *1076:GATE I *D sg13g2_dlhq_1
*I *1192:X O *D sg13g2_buf_1
*CAP
1 *1118:A 0
2 *1078:GATE 9.43309e-05
3 *1079:GATE 0.000433836
4 *1077:GATE 2.14341e-05
5 *1076:GATE 8.22093e-05
6 *1192:X 9.18767e-05
7 *335:38 0.000732541
8 *335:29 0.000312997
9 *335:23 0.00028537
10 *335:10 0.00028039
11 *335:8 9.18767e-05
12 *1076:GATE *358:26 0
13 *1077:GATE *358:26 4.77079e-05
14 *1078:GATE *345:26 4.76977e-05
15 *1079:GATE *345:16 0
16 *1079:GATE *358:26 0.000547111
17 *335:8 *340:22 0
18 *335:8 *392:20 0.000128293
19 *335:23 *346:72 0
20 *335:23 *358:26 0
21 *335:38 *345:26 0
22 *335:38 *358:26 0.000321363
23 NN4BEG[12] *1079:GATE 0
24 *181:13 *335:8 0.000286806
25 *222:12 *335:38 0
26 *241:12 *335:29 0.000235992
*RES
1 *1192:X *335:8 41.339 
2 *335:8 *335:10 20 
3 *335:10 *1076:GATE 20.8858 
4 *335:10 *335:23 1.9673 
5 *335:23 *335:29 41.0918 
6 *335:29 *1077:GATE 20.3193 
7 *335:29 *335:38 2.266 
8 *335:38 *1079:GATE 24.6247 
9 *335:38 *1078:GATE 21.1639 
10 *335:23 *1118:A 20 
*END

*D_NET *336 0.00888338
*CONN
*I *1034:A2 I *D sg13g2_mux4_1
*I *1157:A I *D sg13g2_buf_1
*I *1202:X O *D sg13g2_buf_1
*CAP
1 *1034:A2 2.60336e-05
2 *1157:A 0.000228469
3 *1202:X 0.00142553
4 *336:16 0.000254502
5 *336:14 0.000610454
6 *336:10 0.00203599
7 *1034:A2 *358:40 0
8 *1157:A *358:40 0
9 *336:10 *337:8 0
10 *336:10 *338:12 0
11 *336:10 *418:8 0.000726442
12 *336:14 *1036:A 0
13 *336:14 *344:18 0
14 *336:14 *347:30 0.0014537
15 *336:14 *369:24 0.00113977
16 *336:14 *386:20 0
17 *1141:A *1157:A 0
18 *1158:A *336:10 0
19 *1160:A *336:10 0
20 *1165:A *336:10 0.000112198
21 *181:13 *336:10 0
22 *237:10 *336:14 0.000710977
23 *315:18 *1034:A2 4.77425e-05
24 *315:18 *1157:A 0.000111568
*RES
1 *1202:X *336:10 33.9668 
2 *336:10 *336:14 30.4854 
3 *336:14 *336:16 20 
4 *336:16 *1157:A 22.1836 
5 *336:16 *1034:A2 20.3193 
*END

*D_NET *337 0.00862286
*CONN
*I *1044:A2 I *D sg13g2_mux4_1
*I *1156:A I *D sg13g2_buf_1
*I *1203:X O *D sg13g2_buf_1
*CAP
1 *1044:A2 0
2 *1156:A 0.000550668
3 *1203:X 0.000310888
4 *337:18 0.000690157
5 *337:16 0.000913891
6 *337:8 0.00108529
7 *1156:A *343:22 0
8 *337:16 *341:16 0.00139387
9 *337:16 *354:20 0.000120992
10 *337:18 *339:20 0.00033565
11 *1044:A0 *1156:A 0.000461307
12 *1044:A0 *337:18 0.00026037
13 *1051:A1 *337:16 0.000175693
14 *1140:A *1156:A 0.000444965
15 *1160:A *337:8 8.00842e-05
16 *151:8 *1156:A 0.000753846
17 *156:10 *1156:A 0
18 *189:9 *337:16 0.000501962
19 *242:8 *337:16 7.33256e-05
20 *245:8 *337:16 0.000125294
21 *246:10 *337:16 0.000143456
22 *246:10 *337:18 7.50072e-05
23 *318:16 *337:16 0.000126146
24 *322:12 *337:16 0
25 *336:10 *337:8 0
*RES
1 *1203:X *337:8 41.5898 
2 *337:8 *337:16 49.6923 
3 *337:16 *337:18 2.0806 
4 *337:18 *1156:A 46.9525 
5 *337:18 *1044:A2 40 
*END

*D_NET *338 0.0155541
*CONN
*I *1155:A I *D sg13g2_buf_1
*I *1054:A2 I *D sg13g2_mux4_1
*I *1205:X O *D sg13g2_buf_1
*CAP
1 *1155:A 0
2 *1054:A2 0
3 *1205:X 0.000882304
4 *338:32 0.00029821
5 *338:22 0.000799049
6 *338:20 0.00240711
7 *338:12 0.00278857
8 *338:12 *340:8 0.000725025
9 *338:12 *342:6 0
10 *338:20 *364:14 0.00260062
11 *338:20 *384:20 0.000128628
12 *338:20 *418:12 0.000395897
13 *338:32 *1054:A1 8.00842e-05
14 *338:32 *347:30 7.53228e-05
15 *1054:S0 *338:22 0
16 *1207:A *338:12 0.000208035
17 *10:21 *338:20 0
18 *268:32 *338:22 0
19 *272:8 *338:22 0
20 *272:14 *338:32 0.000289003
21 *274:10 *338:22 0
22 *283:14 *338:32 0.000291163
23 *287:18 *338:32 0
24 *292:8 *338:22 0
25 *297:22 *338:20 0.00358504
26 *299:34 *338:32 0
27 *320:14 *338:20 0
28 *333:24 *338:22 0
29 *336:10 *338:12 0
*RES
1 *1205:X *338:12 48.9919 
2 *338:12 *338:20 45.7397 
3 *338:20 *338:22 4.429 
4 *338:22 *338:32 43.6153 
5 *338:32 *1054:A2 20 
6 *338:22 *1155:A 20 
*END

*D_NET *339 0.0143606
*CONN
*I *1064:A2 I *D sg13g2_mux4_1
*I *1154:A I *D sg13g2_buf_1
*I *1206:X O *D sg13g2_buf_1
*CAP
1 *1064:A2 2.32363e-05
2 *1154:A 0
3 *1206:X 0.000593616
4 *339:66 2.60565e-05
5 *339:60 0.000647782
6 *339:52 0.000722393
7 *339:46 0.000223555
8 *339:40 0.000596709
9 *339:28 0.000911763
10 *339:20 0.000844393
11 *339:8 0.0010233
12 *1064:A2 *348:28 1.54008e-05
13 *1064:A2 *348:36 3.23417e-05
14 *339:8 *343:22 0.00198944
15 *339:8 *358:20 0
16 *339:20 *344:14 0
17 *339:20 *345:12 0
18 *339:20 *348:18 0
19 *339:28 *1152:A 0.000716954
20 *339:28 *341:16 0.000394261
21 *339:28 *345:16 4.77425e-05
22 *339:28 *345:26 8.00842e-05
23 *339:40 *343:22 0.000603815
24 *339:52 *348:36 0.000143351
25 *339:60 *356:34 0.000717442
26 N2BEG[7] *339:66 4.77425e-05
27 N4BEG[6] *339:46 4.77425e-05
28 NN4BEG[12] *339:28 0.000112426
29 *1044:A0 *339:28 0.00103225
30 *1140:A *339:40 0
31 *134:16 *339:40 0
32 *143:26 *339:40 7.48178e-05
33 *151:8 *339:20 0.000282827
34 *154:10 *339:28 0.00028539
35 *156:10 *339:28 0.00039075
36 *156:10 *339:40 0
37 *163:15 *339:20 0.000125875
38 *169:11 *339:8 0
39 *246:10 *339:20 0
40 *247:22 *339:20 1.51e-05
41 *293:12 *339:60 0
42 *301:18 *339:66 4.77425e-05
43 *302:18 *339:60 0.000112058
44 *304:14 *339:60 0
45 *305:14 *339:60 0
46 *306:8 *339:8 0.000864874
47 *314:22 *339:40 0.000231766
48 *316:18 *339:46 0
49 *318:16 *339:28 0
50 *337:18 *339:20 0.00033565
*RES
1 *1206:X *339:8 49.2494 
2 *339:8 *339:20 44.429 
3 *339:20 *339:28 47.7765 
4 *339:28 *339:40 45.2633 
5 *339:40 *339:46 21.133 
6 *339:46 *339:52 40.9682 
7 *339:52 *339:60 47.5293 
8 *339:60 *339:66 40.3193 
9 *339:66 *1154:A 20 
10 *339:46 *1064:A2 20.3193 
*END

*D_NET *340 0.0116248
*CONN
*I *1034:A3 I *D sg13g2_mux4_1
*I *1153:A I *D sg13g2_buf_1
*I *1207:X O *D sg13g2_buf_1
*CAP
1 *1034:A3 0.000107072
2 *1153:A 0.00027054
3 *1207:X 0.000456266
4 *340:26 0.00045922
5 *340:22 0.00101188
6 *340:16 0.00142156
7 *340:8 0.000947558
8 *340:8 *342:6 0
9 *340:16 *363:10 0
10 *340:16 *392:20 0.00194141
11 *340:22 *358:26 0
12 *340:22 *392:20 0.000287572
13 *67:34 *340:22 0.000924915
14 *181:13 *340:16 0.00119436
15 *181:13 *340:22 0
16 *219:23 *340:22 0
17 *219:34 *340:22 0
18 *237:10 *1153:A 0.000112426
19 *319:12 *1034:A3 0.0001319
20 *319:12 *1153:A 0.000272718
21 *319:12 *340:26 0.000334863
22 *331:16 *340:22 0.000562373
23 *333:24 *1034:A3 0.000127472
24 *333:24 *340:26 0.000335669
25 *335:8 *340:22 0
26 *338:12 *340:8 0.000725025
*RES
1 *1207:X *340:8 44.8616 
2 *340:8 *340:16 49.5378 
3 *340:16 *340:22 30.0631 
4 *340:22 *340:26 21.5862 
5 *340:26 *1153:A 42.6986 
6 *340:26 *1034:A3 41.3493 
*END

*D_NET *341 0.0100892
*CONN
*I *1044:A3 I *D sg13g2_mux4_1
*I *1152:A I *D sg13g2_buf_1
*I *1208:X O *D sg13g2_buf_1
*CAP
1 *1044:A3 7.20735e-05
2 *1152:A 0.000229603
3 *1208:X 0.000359382
4 *341:16 0.00135704
5 *341:10 0.00141474
6 *1044:A3 *358:26 0.0001122
7 *1044:A0 *341:16 0
8 *1216:A *341:10 0
9 *156:22 *1152:A 8.00842e-05
10 *163:15 *341:16 0
11 *189:9 *341:16 0
12 *198:13 *341:16 0.00172697
13 *223:38 *341:16 0.000339617
14 *308:10 *341:16 0.00033494
15 *318:16 *1152:A 0.000719434
16 *318:16 *341:16 0.000790257
17 *332:8 *1152:A 4.77425e-05
18 *337:16 *341:16 0.00139387
19 *339:28 *1152:A 0.000716954
20 *339:28 *341:16 0.000394261
*RES
1 *1208:X *341:10 43.2389 
2 *341:10 *341:16 15.8517 
3 *341:16 *1152:A 44.2848 
4 *341:16 *1044:A3 40.7519 
*END

*D_NET *342 0.0151341
*CONN
*I *1054:A3 I *D sg13g2_mux4_1
*I *1151:A I *D sg13g2_buf_1
*I *1209:X O *D sg13g2_buf_1
*CAP
1 *1054:A3 0.00017174
2 *1151:A 0.000114272
3 *1209:X 0.00135783
4 *342:10 0.00136364
5 *342:6 0.00243546
6 *1151:A *1060:A2 0
7 *1151:A *1147:A 0
8 *1151:A *1187:A 0
9 *342:6 *349:8 0
10 *342:10 *1056:A 0.00044727
11 *342:10 *1187:A 0
12 *342:10 *355:14 0.00396514
13 *342:10 *360:10 0
14 *1060:A1 *1151:A 0
15 *7:21 *342:10 0.00279386
16 *289:12 *1151:A 0.000181608
17 *289:12 *342:10 0.0020954
18 *311:12 *1151:A 0
19 *317:10 *1054:A3 0.000207845
20 *338:12 *342:6 0
21 *340:8 *342:6 0
*RES
1 *1209:X *342:6 28.7111 
2 *342:6 *342:10 43.0926 
3 *342:10 *1151:A 41.3802 
4 *342:10 *1054:A3 41.6171 
*END

*D_NET *343 0.015362
*CONN
*I *1064:A3 I *D sg13g2_mux4_1
*I *1150:A I *D sg13g2_buf_1
*I *1210:X O *D sg13g2_buf_1
*CAP
1 *1064:A3 0
2 *1150:A 0
3 *1210:X 3.40421e-05
4 *343:36 0.000821239
5 *343:22 0.00230161
6 *343:8 0.00151441
7 *343:22 *1079:D 0.000873601
8 *343:22 *345:12 0
9 *343:22 *402:14 0.00294201
10 *343:36 *356:42 0
11 N2BEGb[2] *343:36 7.98567e-05
12 N4BEG[3] *343:36 0
13 NN4BEG[6] *343:22 0
14 *1045:A *343:22 0.000558085
15 *1051:B1 *343:22 0.000477586
16 *1156:A *343:22 0
17 *127:16 *343:36 0.00011229
18 *134:16 *343:22 0.000550783
19 *136:10 *343:36 7.62515e-05
20 *151:8 *343:22 0.000766792
21 *154:10 *343:36 0.000964456
22 *174:11 *343:22 0
23 *266:8 *343:36 0
24 *268:32 *343:36 7.51285e-05
25 *298:8 *343:36 0.000234004
26 *306:8 *343:22 0
27 *317:18 *343:36 0.000178046
28 *327:10 *343:22 0
29 *329:20 *343:22 6.46834e-05
30 *329:20 *343:36 0.00014391
31 *339:8 *343:22 0.00198944
32 *339:40 *343:22 0.000603815
*RES
1 *1210:X *343:8 40.3193 
2 *343:8 *343:22 46.1414 
3 *343:22 *343:36 48.8889 
4 *343:36 *1150:A 20 
5 *343:22 *1064:A3 20 
*END

*D_NET *344 0.0059588
*CONN
*I *1034:A1 I *D sg13g2_mux4_1
*I *1149:A I *D sg13g2_buf_1
*I *1211:X O *D sg13g2_buf_1
*CAP
1 *1034:A1 2.52776e-05
2 *1149:A 0.00016168
3 *1211:X 0.000106041
4 *344:18 0.000367083
5 *344:14 0.00160769
6 *344:10 0.00153361
7 *1149:A *347:30 0
8 *344:10 *345:12 7.44765e-05
9 *344:10 *402:14 7.33256e-05
10 *344:14 *362:22 0
11 *344:14 *392:16 4.669e-05
12 *344:14 *402:12 0.000657651
13 NN4BEG[13] *344:10 0.00011101
14 *7:19 *344:14 0
15 *163:25 *344:14 0
16 *234:10 *344:18 7.4559e-05
17 *237:10 *344:18 0.000391388
18 *270:12 *344:14 0
19 *297:16 *344:14 0
20 *319:12 *1149:A 0.000445264
21 *319:12 *344:18 0.000283054
22 *333:24 *344:18 0
23 *336:14 *344:18 0
24 *339:20 *344:14 0
*RES
1 *1211:X *344:10 41.1021 
2 *344:10 *344:14 32.4321 
3 *344:14 *344:18 22.575 
4 *344:18 *1149:A 42.0806 
5 *344:18 *1034:A1 40.3193 
*END

*D_NET *345 0.00551037
*CONN
*I *1044:A1 I *D sg13g2_mux4_1
*I *1148:A I *D sg13g2_buf_1
*I *1212:X O *D sg13g2_buf_1
*CAP
1 *1044:A1 0
2 *1148:A 8.5634e-05
3 *1212:X 0.00059551
4 *345:26 0.000983233
5 *345:16 0.000971646
6 *345:12 0.000669557
7 *345:12 *402:14 0
8 *345:26 *1077:D 0
9 *1078:GATE *345:26 4.76977e-05
10 *1079:GATE *345:16 0
11 *151:8 *345:12 0.000335686
12 *163:15 *345:12 0.00011101
13 *222:8 *345:26 0.000235957
14 *222:12 *345:26 0.000175457
15 *241:12 *345:26 0
16 *260:12 *1148:A 4.75151e-05
17 *288:16 *345:26 0
18 *314:12 *345:26 0
19 *334:20 *345:26 2.14736e-05
20 *334:32 *345:26 0.00102769
21 *335:38 *345:26 0
22 *339:20 *345:12 0
23 *339:28 *345:16 4.77425e-05
24 *339:28 *345:26 8.00842e-05
25 *343:22 *345:12 0
26 *344:10 *345:12 7.44765e-05
*RES
1 *1212:X *345:12 45.1294 
2 *345:12 *345:16 20.7519 
3 *345:16 *345:26 30.1146 
4 *345:26 *1148:A 40.7519 
5 *345:16 *1044:A1 20 
*END

*D_NET *346 0.0202087
*CONN
*I *1072:B1 I *D sg13g2_o21ai_1
*I *1052:B1 I *D sg13g2_o21ai_1
*I *1042:B1 I *D sg13g2_o21ai_1
*I *1062:B1 I *D sg13g2_o21ai_1
*I *1193:X O *D sg13g2_buf_2
*CAP
1 *1072:B1 0.000866027
2 *1052:B1 0
3 *1042:B1 0.000177547
4 *1062:B1 0
5 *1193:X 0.000877142
6 *346:78 0.000296208
7 *346:72 0.00131782
8 *346:45 0.00126929
9 *346:39 0.000822258
10 *346:31 0.00178763
11 *346:20 0.000245224
12 *346:16 0.00313453
13 *346:12 0.00393593
14 *1042:B1 *362:22 7.98582e-05
15 *1072:B1 *364:20 0
16 *1072:B1 *401:26 0
17 *346:12 *378:10 0
18 *346:12 *399:12 0
19 *346:16 *368:10 0
20 *346:31 *1074:D 0
21 *346:31 *364:20 0
22 *346:39 *380:12 0
23 *346:39 *381:10 0.00108364
24 *346:39 *401:12 0
25 *346:45 *362:12 7.48209e-05
26 *346:45 *381:10 0.000178206
27 *346:72 *1050:A2 0
28 *346:72 *359:12 0
29 *346:72 *362:22 3.23417e-05
30 *1035:B *1042:B1 0.000143351
31 *1035:B *346:72 4.77425e-05
32 *1038:C *1042:B1 0
33 *1039:B_N *346:39 7.9813e-05
34 *1049:B_N *346:72 0.000176018
35 *1062:A2 *346:20 6.39133e-05
36 *1063:B *346:20 0
37 *1072:A1 *1072:B1 0
38 *1085:GATE *1072:B1 0
39 *1087:A *346:12 0
40 *1097:A *346:12 0
41 *1140:A *1072:B1 0.000272528
42 *1278:A *1072:B1 0
43 *10:21 *346:45 0
44 *163:25 *346:72 0
45 *163:25 *346:78 0
46 *165:23 *346:78 0
47 *222:12 *346:72 0
48 *226:8 *346:16 0.000395369
49 *227:10 *1072:B1 4.75166e-05
50 *227:10 *346:31 7.87004e-05
51 *230:10 *1072:B1 7.90662e-05
52 *236:10 *346:39 4.75166e-05
53 *239:12 *1042:B1 4.77699e-05
54 *244:22 *346:78 4.69343e-05
55 *256:10 *346:16 0
56 *272:14 *346:16 0
57 *285:14 *346:39 0.000764919
58 *295:24 *346:72 0.000440663
59 *297:22 *346:39 0
60 *299:34 *346:16 0
61 *308:16 *346:78 0
62 *318:10 *346:72 0
63 *329:20 *1072:B1 0
64 *333:24 *346:16 0.00129837
65 *333:37 *346:16 0
66 *334:20 *346:72 0
67 *335:23 *346:72 0
*RES
1 *1193:X *346:12 49.4554 
2 *346:12 *346:16 34.2269 
3 *346:16 *346:20 20.7519 
4 *346:20 *1062:B1 20 
5 *346:20 *346:31 1.6377 
6 *346:31 *346:39 48.7962 
7 *346:39 *346:45 40.8446 
8 *346:45 *1042:B1 22.0343 
9 *346:45 *346:72 49.4657 
10 *346:72 *346:78 42.266 
11 *346:78 *1052:B1 20 
12 *346:31 *1072:B1 27.7559 
*END

*D_NET *347 0.0112358
*CONN
*I *1054:A1 I *D sg13g2_mux4_1
*I *1147:A I *D sg13g2_buf_1
*I *1213:X O *D sg13g2_buf_1
*CAP
1 *1054:A1 6.99398e-05
2 *1147:A 0.000178788
3 *1213:X 0.000169305
4 *347:30 0.001637
5 *347:22 0.00226278
6 *347:16 0.00135621
7 *347:10 0.000651006
8 *347:22 *349:22 0
9 *347:30 *349:22 0.000553389
10 *347:30 *358:40 0.000494704
11 *347:30 *386:20 0
12 *1149:A *347:30 0
13 *1151:A *1147:A 0
14 *1201:A *347:10 0.000111522
15 *67:9 *347:30 0
16 *163:25 *347:22 0
17 *165:23 *347:16 0.00075621
18 *165:23 *347:22 0
19 *181:13 *347:22 0
20 *249:8 *347:30 0.000554164
21 *252:10 *347:30 0.000233917
22 *287:8 *1147:A 7.9225e-05
23 *287:18 *347:30 7.51285e-05
24 *289:12 *347:30 0
25 *299:12 *347:30 0.000443366
26 *299:34 *347:30 0
27 *300:8 *347:10 0
28 *303:16 *347:16 0
29 *315:10 *347:30 0
30 *319:12 *347:30 0
31 *333:14 *347:22 0
32 *336:14 *347:30 0.0014537
33 *338:32 *1054:A1 8.00842e-05
34 *338:32 *347:30 7.53228e-05
*RES
1 *1213:X *347:10 41.5347 
2 *347:10 *347:16 45.0779 
3 *347:16 *347:22 47.6735 
4 *347:22 *347:30 38.0765 
5 *347:30 *1147:A 21.751 
6 *347:30 *1054:A1 20.7519 
*END

*D_NET *348 0.011337
*CONN
*I *1064:A1 I *D sg13g2_mux4_1
*I *1146:A I *D sg13g2_buf_1
*I *1214:X O *D sg13g2_buf_1
*CAP
1 *1064:A1 0
2 *1146:A 0
3 *1214:X 0.000371184
4 *348:44 0.000511911
5 *348:36 0.000853638
6 *348:28 0.00193059
7 *348:18 0.00188702
8 *348:10 0.000669341
9 *348:10 *402:14 0
10 *348:28 *358:20 0.000342629
11 *348:44 *1182:A 0
12 N4BEG[3] *348:28 0.000257272
13 N4BEG[3] *348:36 0.000240377
14 NN4BEG[0] *348:28 0.0013474
15 NN4BEG[2] *348:28 0
16 NN4BEG[5] *348:28 0.000287672
17 *1045:A *348:28 2.20966e-05
18 *1064:A2 *348:28 1.54008e-05
19 *1064:A2 *348:36 3.23417e-05
20 *1069:B_N *348:36 0
21 *1290:A *348:28 0.000208035
22 *131:12 *348:44 0.000554164
23 *141:16 *348:36 0
24 *149:8 *348:28 0
25 *165:23 *348:18 0
26 *175:11 *348:28 0.000444816
27 *228:16 *348:36 0.000172097
28 *244:22 *348:10 0
29 *259:8 *348:44 0.000233844
30 *268:32 *348:44 8.00842e-05
31 *288:16 *348:44 0
32 *306:8 *348:28 0
33 *308:10 *348:10 0
34 *317:10 *348:36 0
35 *326:26 *348:18 0
36 *326:32 *348:28 0.000551065
37 *334:32 *348:44 0.000180675
38 *339:20 *348:18 0
39 *339:52 *348:36 0.000143351
*RES
1 *1214:X *348:10 42.8016 
2 *348:10 *348:18 42.4617 
3 *348:18 *348:28 37.6542 
4 *348:28 *348:36 43.2342 
5 *348:36 *348:44 45.5517 
6 *348:44 *1146:A 20 
7 *348:28 *1064:A1 20 
*END

*D_NET *349 0.0059656
*CONN
*I *1037:B I *D sg13g2_nor2_1
*I *1173:A I *D sg13g2_buf_1
*I *1216:X O *D sg13g2_buf_1
*CAP
1 *1037:B 0
2 *1173:A 0
3 *1216:X 0.000975442
4 *349:22 0.000717124
5 *349:12 0.00160992
6 *349:8 0.00186824
7 *349:12 *380:14 0
8 *349:12 *415:26 0
9 *349:22 *362:28 0
10 *349:22 *386:20 0
11 *1037:A *349:22 0
12 *234:10 *349:22 0.000241487
13 *342:6 *349:8 0
14 *347:22 *349:22 0
15 *347:30 *349:22 0.000553389
*RES
1 *1216:X *349:8 49.1876 
2 *349:8 *349:12 28.5078 
3 *349:12 *349:22 46.8907 
4 *349:22 *1173:A 20 
5 *349:12 *1037:B 20 
*END

*D_NET *350 0.00434911
*CONN
*I *1172:A I *D sg13g2_buf_1
*I *1047:B I *D sg13g2_nor2_1
*I *1217:X O *D sg13g2_buf_1
*CAP
1 *1172:A 0
2 *1047:B 0.000404685
3 *1217:X 0.000105208
4 *350:14 0.00183003
5 *350:8 0.00153056
6 *350:14 *402:14 0
7 *1048:C *1047:B 0
8 *1159:A *350:14 0
9 *1164:A *350:14 0.00014423
10 *1201:A *1047:B 0
11 *181:13 *1047:B 0
12 *181:13 *350:14 0
13 *188:31 *350:14 0
14 *197:9 *350:14 0
15 *198:13 *350:14 0
16 *248:12 *1047:B 1.54008e-05
17 *295:12 *1047:B 0
18 *295:12 *350:14 0
19 *300:8 *350:14 0
20 *326:16 *350:8 0.000143306
21 *327:10 *350:8 0.000175693
22 *334:20 *1047:B 0
*RES
1 *1217:X *350:8 41.1845 
2 *350:8 *350:14 31.4845 
3 *350:14 *1047:B 23.8987 
4 *350:14 *1172:A 20 
*END

*D_NET *351 0.0115226
*CONN
*I *1171:A I *D sg13g2_buf_1
*I *1057:B I *D sg13g2_nor2_1
*I *1218:X O *D sg13g2_buf_1
*CAP
1 *1171:A 2.92965e-05
2 *1057:B 9.28936e-05
3 *1218:X 0.00171165
4 *351:10 0.00190285
5 *351:6 0.00349231
6 *351:6 *353:6 0.00166138
7 *351:6 *354:8 0
8 *351:6 *392:26 0
9 *351:6 *421:16 0
10 *351:10 *415:10 0
11 *351:10 *416:10 0
12 *351:10 *421:10 0
13 *1057:A *1171:A 0
14 *1181:A *351:6 0
15 *31:5 *1057:B 0
16 *31:5 *351:10 0
17 *31:9 *351:10 0
18 *32:19 *351:10 0.00242443
19 *193:13 *351:6 0.0002078
20 *252:10 *1171:A 0
21 *269:14 *351:10 0
22 *271:8 *1171:A 0
23 *302:12 *1057:B 0
24 *302:12 *351:10 0
25 *326:16 *351:6 0
*RES
1 *1218:X *351:6 37.1907 
2 *351:6 *351:10 43.587 
3 *351:10 *1057:B 41.0918 
4 *351:10 *1171:A 40.3193 
*END

*D_NET *352 0.0158388
*CONN
*I *1170:A I *D sg13g2_buf_1
*I *1067:B I *D sg13g2_nor2_1
*I *1219:X O *D sg13g2_buf_1
*CAP
1 *1170:A 2.60565e-05
2 *1067:B 8.61836e-05
3 *1219:X 0
4 *352:20 0.000432034
5 *352:14 0.00191477
6 *352:12 0.00174088
7 *352:6 0.0001459
8 *352:14 *361:26 0
9 N4BEG[0] *1170:A 4.77425e-05
10 N4BEG[1] *1170:A 4.77425e-05
11 N4BEG[3] *1067:B 0.000446207
12 *1067:A *1067:B 0.000447598
13 *141:16 *352:20 0
14 *304:14 *352:14 0
15 *308:20 *352:14 0.0038361
16 *322:24 *352:20 0
17 *324:14 *352:14 0.00666762
18 *325:12 *352:12 0
*RES
1 *1219:X *352:6 40 
2 *352:6 *352:12 41.1845 
3 *352:12 *352:14 30.7558 
4 *352:14 *352:20 42.266 
5 *352:20 *1067:B 42.0806 
6 *352:20 *1170:A 40.3193 
*END

*D_NET *353 0.00972993
*CONN
*I *1169:A I *D sg13g2_buf_1
*I *1036:A I *D sg13g2_nor2b_1
*I *1220:X O *D sg13g2_buf_1
*CAP
1 *1169:A 0
2 *1036:A 0.000327016
3 *1220:X 0.00103146
4 *353:10 0.00129963
5 *353:6 0.00200407
6 *1036:A *369:24 2.14736e-05
7 *353:6 *421:16 4.77425e-05
8 *353:10 *369:24 0.00261233
9 *353:10 *415:26 0
10 *353:10 *421:20 7.51285e-05
11 *234:10 *1036:A 0.000180603
12 *234:10 *353:10 0.000181401
13 *238:10 *1036:A 0.000112164
14 *297:10 *1036:A 0.000175556
15 *336:14 *1036:A 0
16 *351:6 *353:6 0.00166138
*RES
1 *1220:X *353:6 31.1343 
2 *353:6 *353:10 32.2158 
3 *353:10 *1036:A 43.2445 
4 *353:10 *1169:A 40 
*END

*D_NET *354 0.00715703
*CONN
*I *1168:A I *D sg13g2_buf_1
*I *1046:A I *D sg13g2_nor2b_1
*I *1221:X O *D sg13g2_buf_1
*CAP
1 *1168:A 0
2 *1046:A 4.76287e-05
3 *1221:X 0.00040604
4 *354:20 0.000204189
5 *354:10 0.00122642
6 *354:8 0.0014759
7 *354:10 *359:12 0.00278889
8 *354:10 *363:10 0
9 *354:20 *359:12 0.000124702
10 *1179:A *354:8 0.000207874
11 *1201:A *354:20 0.000112426
12 *186:13 *354:8 0
13 *186:13 *354:10 0
14 *188:17 *354:8 0.000110965
15 *198:13 *354:8 0
16 *248:12 *1046:A 9.75775e-05
17 *248:12 *354:20 0.000112426
18 *295:12 *354:10 0
19 *322:12 *354:20 0.000120992
20 *337:16 *354:20 0.000120992
21 *351:6 *354:8 0
*RES
1 *1221:X *354:8 43.5638 
2 *354:8 *354:10 12.9574 
3 *354:10 *354:20 41.9287 
4 *354:20 *1046:A 40.5176 
5 *354:10 *1168:A 40 
*END

*D_NET *355 0.0168612
*CONN
*I *1167:A I *D sg13g2_buf_1
*I *1056:A I *D sg13g2_nor2b_1
*I *1222:X O *D sg13g2_buf_1
*CAP
1 *1167:A 3.04198e-05
2 *1056:A 8.51416e-05
3 *1222:X 0.00156753
4 *355:14 0.00140471
5 *355:10 0.00285668
6 *1056:A *360:10 0.00044727
7 *355:10 *392:26 0
8 *355:14 *360:10 0.00538366
9 *7:21 *355:14 0
10 *186:13 *355:10 0.000514608
11 *187:9 *355:10 0.00011107
12 *271:8 *1167:A 4.77425e-05
13 *322:8 *355:10 0
14 *342:10 *1056:A 0.00044727
15 *342:10 *355:14 0.00396514
*RES
1 *1222:X *355:10 35.4809 
2 *355:10 *355:14 45.0702 
3 *355:14 *1056:A 42.0806 
4 *355:14 *1167:A 40.3193 
*END

*D_NET *356 0.0165716
*CONN
*I *1066:A I *D sg13g2_nor2b_1
*I *1166:A I *D sg13g2_buf_1
*I *1223:X O *D sg13g2_buf_1
*CAP
1 *1066:A 0
2 *1166:A 7.17621e-05
3 *1223:X 0.000147662
4 *356:42 0.000324835
5 *356:34 0.00085381
6 *356:26 0.000815326
7 *356:22 0.00275875
8 *356:8 0.00269182
9 *356:22 *1079:D 0
10 *356:22 *358:20 0
11 *356:22 *358:26 0
12 *356:26 *401:26 0
13 NN4BEG[5] *356:22 0.00030506
14 NN4BEG[6] *356:22 0.000466352
15 NN4BEG[7] *356:22 0.000181192
16 *1044:S1 *356:22 0.00020996
17 *1178:A *356:8 1.54008e-05
18 *2:10 *356:22 0.00113449
19 *126:18 *356:42 0
20 *134:16 *1166:A 0.000112426
21 *136:10 *356:42 7.13863e-05
22 *136:20 *1166:A 0.000112426
23 *143:26 *356:42 0
24 *154:10 *356:42 2.14736e-05
25 *164:11 *356:22 0
26 *168:13 *356:22 0
27 *170:13 *356:22 0
28 *172:13 *356:22 0.000499885
29 *182:11 *356:22 0.000925299
30 *184:9 *356:22 0
31 *187:9 *356:8 0
32 *188:17 *356:8 0.000112236
33 *188:17 *356:22 0
34 *189:9 *356:8 0.000240786
35 *191:13 *356:22 0.000606694
36 *192:13 *356:22 0
37 *194:15 *356:22 0
38 *196:21 *356:22 0.000764629
39 *268:16 *356:42 0
40 *293:12 *356:34 0
41 *293:20 *356:42 6.94556e-05
42 *304:14 *356:34 0
43 *318:16 *356:26 0
44 *322:12 *356:26 0.000448012
45 *322:18 *356:34 0.00189308
46 *322:24 *356:42 0
47 *339:60 *356:34 0.000717442
48 *343:36 *356:42 0
*RES
1 *1223:X *356:8 41.6171 
2 *356:8 *356:22 49.8803 
3 *356:22 *356:26 22.575 
4 *356:26 *356:34 49.785 
5 *356:34 *356:42 42.042 
6 *356:42 *1166:A 40.8729 
7 *356:26 *1066:A 40 
*END

*D_NET *357 0.0137142
*CONN
*I *1106:A I *D sg13g2_buf_1
*I *1074:D I *D sg13g2_dlhq_1
*I *1204:X O *D sg13g2_buf_1
*CAP
1 *1106:A 0
2 *1074:D 0.000198859
3 *1204:X 0.000654336
4 *357:16 0.000198859
5 *357:14 0.00313035
6 *357:12 0.00378469
7 *1074:D *401:16 8.00842e-05
8 *357:12 *401:10 0.000435638
9 *357:12 *401:12 0
10 *357:14 *401:12 0
11 *1063:B *1074:D 1.54008e-05
12 *1103:A *357:12 0.000605125
13 *1104:A *357:12 0
14 *1204:A *357:12 0
15 *267:18 *357:14 0.000181192
16 *267:22 *357:14 0.00086923
17 *268:40 *357:14 0.000287672
18 *297:22 *357:14 0.00300058
19 *312:12 *357:12 0
20 *312:14 *357:12 0
21 *312:14 *357:14 0
22 *315:36 *1074:D 0
23 *319:28 *1074:D 0.000272224
24 *323:10 *357:12 0
25 *346:31 *1074:D 0
*RES
1 *1204:X *357:12 47.8177 
2 *357:12 *357:14 35.1436 
3 *357:14 *357:16 20 
4 *357:16 *1074:D 22.0497 
5 *357:16 *1106:A 20 
*END

*D_NET *358 0.0159759
*CONN
*I *1040:A2 I *D sg13g2_o21ai_1
*I *1189:A I *D sg13g2_buf_1
*I *1224:X O *D sg13g2_buf_1
*CAP
1 *1040:A2 0
2 *1189:A 0
3 *1224:X 6.50214e-05
4 *358:40 0.000692045
5 *358:26 0.00197128
6 *358:20 0.00280088
7 *358:8 0.00158666
8 *358:8 *361:14 1.55212e-05
9 *358:20 *361:22 0
10 *358:26 *401:26 0
11 *358:40 *386:20 0
12 NN4BEG[6] *358:26 0
13 *1034:A2 *358:40 0
14 *1040:B1 *358:26 1.53666e-05
15 *1040:B1 *358:40 0.000111865
16 *1044:A3 *358:26 0.0001122
17 *1076:GATE *358:26 0
18 *1077:GATE *358:26 4.77079e-05
19 *1079:GATE *358:26 0.000547111
20 *1141:A *358:40 0
21 *1157:A *358:40 0
22 *149:8 *358:20 0.000290072
23 *153:10 *358:20 0.000395052
24 *164:11 *358:20 0
25 *169:11 *358:20 0.000394151
26 *174:11 *358:20 0.000498881
27 *175:11 *358:20 0.000232798
28 *195:11 *358:20 0.000817575
29 *200:9 *358:20 0.000602549
30 *219:23 *358:40 0.00011209
31 *219:34 *358:26 3.23417e-05
32 *219:34 *358:40 1.53666e-05
33 *237:10 *358:40 0
34 *241:12 *358:26 0
35 *306:8 *358:20 0
36 *315:10 *358:40 0.000336354
37 *315:18 *358:40 0.000111567
38 *326:26 *358:20 0.00240437
39 *326:32 *358:20 0.000608388
40 *331:16 *358:40 0
41 *335:23 *358:26 0
42 *335:38 *358:26 0.000321363
43 *339:8 *358:20 0
44 *340:22 *358:26 0
45 *347:30 *358:40 0.000494704
46 *348:28 *358:20 0.000342629
47 *356:22 *358:20 0
48 *356:22 *358:26 0
*RES
1 *1224:X *358:8 40.7519 
2 *358:8 *358:20 43.4119 
3 *358:20 *358:26 12.3647 
4 *358:26 *358:40 47.3439 
5 *358:40 *1189:A 20 
6 *358:26 *1040:A2 20 
*END

*D_NET *359 0.0114569
*CONN
*I *1188:A I *D sg13g2_buf_1
*I *1050:A2 I *D sg13g2_o21ai_1
*I *1225:X O *D sg13g2_buf_1
*CAP
1 *1188:A 0.000178778
2 *1050:A2 0.000142359
3 *1225:X 0.000375831
4 *359:12 0.00136775
5 *359:10 0.00142244
6 *1188:A *1049:A 0.000272897
7 *359:12 *363:10 0
8 *359:12 *392:28 0
9 *1175:A *359:10 0
10 *1176:A *359:10 0.000175886
11 *186:13 *359:12 0
12 *189:9 *359:10 0
13 *189:9 *359:12 0
14 *295:24 *1050:A2 0
15 *318:10 *1188:A 0.000272897
16 *320:8 *359:10 0.00020815
17 *322:12 *1050:A2 0.000337255
18 *322:12 *359:12 0.00378906
19 *346:72 *1050:A2 0
20 *346:72 *359:12 0
21 *354:10 *359:12 0.00278889
22 *354:20 *359:12 0.000124702
*RES
1 *1225:X *359:10 43.6977 
2 *359:10 *359:12 19.3846 
3 *359:12 *1050:A2 41.5862 
4 *359:12 *1188:A 42.1527 
*END

*D_NET *360 0.019029
*CONN
*I *1060:A2 I *D sg13g2_o21ai_1
*I *1187:A I *D sg13g2_buf_1
*I *1227:X O *D sg13g2_buf_1
*CAP
1 *1060:A2 2.92855e-05
2 *1187:A 0.000111554
3 *1227:X 0.00159326
4 *360:10 0.00187726
5 *360:8 0.00173642
6 *360:6 0.00159326
7 *360:6 *364:8 0
8 *360:10 *416:10 0.00520034
9 *1056:A *360:10 0.00044727
10 *1060:B1 *1060:A2 1.54008e-05
11 *1060:A1 *1060:A2 1.54008e-05
12 *1151:A *1060:A2 0
13 *1151:A *1187:A 0
14 *1175:A *360:6 0
15 *7:21 *360:10 0
16 *213:21 *360:6 0
17 *269:14 *360:10 0
18 *276:10 *360:10 0
19 *311:12 *1187:A 0.000289504
20 *311:12 *360:10 0.00068892
21 *313:10 *360:6 4.75166e-05
22 *320:8 *360:6 0
23 *330:6 *360:6 0
24 *342:10 *1187:A 0
25 *342:10 *360:10 0
26 *355:14 *360:10 0.00538366
*RES
1 *1227:X *360:6 30.2544 
2 *360:6 *360:8 20 
3 *360:8 *360:10 32.9806 
4 *360:10 *1187:A 41.339 
5 *360:10 *1060:A2 40.3193 
*END

*D_NET *361 0.014231
*CONN
*I *1070:A2 I *D sg13g2_o21ai_1
*I *1186:A I *D sg13g2_buf_1
*I *1228:X O *D sg13g2_buf_1
*CAP
1 *1070:A2 3.10612e-05
2 *1186:A 3.08544e-05
3 *1228:X 0.000236943
4 *361:47 6.23887e-05
5 *361:32 0.000255271
6 *361:26 0.00182792
7 *361:22 0.00252702
8 *361:14 0.00119179
9 *361:22 *402:14 0.00150288
10 *361:26 *382:14 0.00399016
11 *361:47 *412:36 4.63914e-05
12 *1064:A0 *1186:A 4.77425e-05
13 *1064:S1 *1070:A2 3.23417e-05
14 *1070:A1 *1070:A2 1.54008e-05
15 *145:16 *361:47 4.63914e-05
16 *195:11 *361:22 0
17 *200:9 *361:14 0
18 *203:11 *361:14 2.20966e-05
19 *204:11 *361:14 0.000341534
20 *207:11 *361:14 0.000396398
21 *229:27 *1070:A2 1.54008e-05
22 *247:22 *361:26 0
23 *304:14 *361:26 0
24 *305:14 *361:26 0
25 *305:14 *361:32 0
26 *322:18 *361:26 0.00103854
27 *322:18 *361:32 0.000556967
28 *327:10 *361:22 0
29 *352:14 *361:26 0
30 *358:8 *361:14 1.55212e-05
31 *358:20 *361:22 0
*RES
1 *1228:X *361:14 43.5638 
2 *361:14 *361:22 30.7532 
3 *361:22 *361:26 43.587 
4 *361:26 *361:32 42.575 
5 *361:32 *1186:A 40.3193 
6 *361:26 *361:47 40.3193 
7 *361:47 *1070:A2 40.3193 
*END

*D_NET *362 0.0169973
*CONN
*I *1039:A I *D sg13g2_nor2b_1
*I *1185:A I *D sg13g2_buf_1
*I *1229:X O *D sg13g2_buf_1
*CAP
1 *1039:A 0
2 *1185:A 0
3 *1229:X 0.000886679
4 *362:28 0.000164607
5 *362:22 0.000722117
6 *362:12 0.00153141
7 *362:8 0.00186058
8 *362:8 *363:8 0
9 *362:8 *364:8 0
10 *362:12 *381:10 0
11 *362:12 *381:12 0.004505
12 *362:22 *369:20 0
13 *362:22 *381:10 7.30101e-05
14 *1039:B_N *362:22 0
15 *1042:B1 *362:22 7.98582e-05
16 *7:19 *362:22 0
17 *10:21 *362:12 0.00519504
18 *211:13 *362:8 0.000208227
19 *214:11 *362:8 0.000240569
20 *221:20 *362:22 0
21 *232:8 *362:12 0.000446968
22 *236:10 *362:22 0.000120527
23 *297:16 *362:22 0
24 *330:6 *362:8 0.000855507
25 *344:14 *362:22 0
26 *346:45 *362:12 7.48209e-05
27 *346:72 *362:22 3.23417e-05
28 *349:22 *362:28 0
*RES
1 *1229:X *362:8 49.1223 
2 *362:8 *362:12 44.0814 
3 *362:12 *362:22 45.0985 
4 *362:22 *362:28 40.6616 
5 *362:28 *1185:A 20 
6 *362:12 *1039:A 20 
*END

*D_NET *363 0.00697509
*CONN
*I *1184:A I *D sg13g2_buf_1
*I *1049:A I *D sg13g2_nor2b_1
*I *1230:X O *D sg13g2_buf_1
*CAP
1 *1184:A 0
2 *1049:A 0.000312274
3 *1230:X 0.000500818
4 *363:10 0.00225716
5 *363:8 0.0024457
6 *363:8 *414:10 0.00079007
7 *363:10 *392:20 0
8 *1046:B_N *1049:A 0
9 *1047:A *363:10 0
10 *1188:A *1049:A 0.000272897
11 *165:23 *363:10 0
12 *181:13 *363:10 0
13 *186:13 *363:10 0
14 *214:11 *363:8 0
15 *248:12 *1049:A 0.000237211
16 *248:12 *363:10 0.00015896
17 *295:12 *363:10 0
18 *330:6 *363:8 0
19 *330:14 *363:10 0
20 *334:20 *363:10 0
21 *340:16 *363:10 0
22 *354:10 *363:10 0
23 *359:12 *363:10 0
24 *362:8 *363:8 0
*RES
1 *1230:X *363:8 45.2942 
2 *363:8 *363:10 22.351 
3 *363:10 *1049:A 43.1415 
4 *363:10 *1184:A 40 
*END

*D_NET *364 0.0172224
*CONN
*I *1183:A I *D sg13g2_buf_1
*I *1059:A I *D sg13g2_nor2b_1
*I *1231:X O *D sg13g2_buf_1
*CAP
1 *1183:A 0.000272408
2 *1059:A 0
3 *1231:X 0.000645789
4 *364:20 0.000841353
5 *364:14 0.00294834
6 *364:8 0.00302518
7 *364:14 *384:20 0.000125963
8 *364:14 *418:12 0
9 *1058:C *1183:A 0.00014391
10 *1061:A2 *364:20 0
11 *1062:A1 *1183:A 0
12 *1062:A1 *364:20 0.000176252
13 *1072:B1 *364:20 0
14 *213:21 *364:8 1.54008e-05
15 *251:12 *364:20 4.77425e-05
16 *256:10 *364:20 8.00842e-05
17 *299:12 *1183:A 0.000143351
18 *320:14 *364:14 0.00604362
19 *329:12 *1183:A 0.000112426
20 *329:20 *364:20 0
21 *338:20 *364:14 0.00260062
22 *346:31 *364:20 0
23 *360:6 *364:8 0
24 *362:8 *364:8 0
*RES
1 *1231:X *364:8 46.3757 
2 *364:8 *364:14 32.9085 
3 *364:14 *364:20 25.2118 
4 *364:20 *1059:A 20 
5 *364:20 *1183:A 23.1003 
*END

*D_NET *365 0.0200406
*CONN
*I *1069:A I *D sg13g2_nor2b_1
*I *1182:A I *D sg13g2_buf_1
*I *1232:X O *D sg13g2_buf_1
*CAP
1 *1069:A 7.85441e-05
2 *1182:A 0.0005125
3 *1232:X 2.65157e-05
4 *365:24 0.0014866
5 *365:18 0.00223307
6 *365:14 0.00223419
7 *365:8 0.000923183
8 *365:24 *412:36 0
9 *1283:A *1182:A 4.77425e-05
10 *131:12 *1182:A 0.000235345
11 *141:8 *1182:A 0.000553344
12 *141:16 *365:24 0
13 *145:16 *1182:A 0
14 *145:16 *365:24 0
15 *180:13 *365:18 0
16 *182:15 *365:18 0.00319172
17 *185:9 *365:14 0.000232421
18 *188:17 *365:14 0
19 *196:21 *365:14 0
20 *201:11 *365:14 0.00140126
21 *202:11 *365:8 4.75425e-05
22 *203:11 *365:8 4.75425e-05
23 *206:13 *365:14 0
24 *208:13 *365:14 0
25 *211:13 *365:14 0.000234726
26 *316:18 *1182:A 0.000182121
27 *317:10 *1069:A 0
28 *321:18 *365:18 0.00602694
29 *329:20 *1069:A 0.000112426
30 *334:32 *1182:A 0.000232864
31 *348:44 *1182:A 0
*RES
1 *1232:X *365:8 40.3193 
2 *365:8 *365:14 30.9283 
3 *365:14 *365:18 47.7894 
4 *365:18 *365:24 46.3757 
5 *365:24 *1182:A 45.974 
6 *365:24 *1069:A 40.7519 
*END

*D_NET *366 0.00114032
*CONN
*I *1293:A I *D sg13g2_buf_1
*I *1086:X O *D sg13g2_buf_1
*CAP
1 *1293:A 0
2 *1086:X 0.000337894
3 *366:10 0.000337894
4 *366:10 *391:10 0
5 *366:10 *397:14 0.000128247
6 *366:10 *420:8 0.000208035
7 FrameData_O[2] *366:10 0
8 FrameData_O[3] *366:10 0.000128248
*RES
1 *1086:X *366:10 43.4814 
2 *366:10 *1293:A 40 
*END

*D_NET *367 0.000354355
*CONN
*I *1294:A I *D sg13g2_buf_1
*I *1096:X O *D sg13g2_buf_1
*CAP
1 *1294:A 0
2 *1096:X 0.000177177
3 *367:12 0.000177177
4 *367:12 *386:20 0
5 *367:12 *398:10 0
6 FrameData_O[11] *367:12 0
7 FrameData_O[9] *367:12 0
8 *424:A *367:12 0
*RES
1 *1096:X *367:12 42.0085 
2 *367:12 *1294:A 40 
*END

*D_NET *368 0.0155043
*CONN
*I *1075:D I *D sg13g2_dlhq_1
*I *1107:A I *D sg13g2_buf_1
*I *1215:X O *D sg13g2_buf_1
*CAP
1 *1075:D 8.9024e-05
2 *1107:A 2.50764e-05
3 *1215:X 0.000520838
4 *368:14 0.00033613
5 *368:10 0.00331395
6 *368:8 0.00361276
7 *368:14 *380:8 0
8 *1055:A *368:10 0.000531565
9 *1055:A *368:14 4.77425e-05
10 *1061:B1 *368:10 0.000286948
11 *1081:D *368:10 0.000212076
12 *1100:A *368:10 0.000128528
13 *1101:A *368:8 0
14 *1101:A *368:10 0
15 *1104:A *368:8 0
16 *1191:A *1075:D 0
17 *67:17 *1075:D 0
18 *67:17 *1107:A 0
19 *67:17 *368:14 0
20 *226:8 *368:10 0
21 *256:10 *368:10 0.000181192
22 *279:10 *368:10 0.00552472
23 *285:8 *368:14 0
24 *285:14 *368:10 0
25 *290:8 *368:8 0.000693746
26 *290:12 *368:10 0
27 *312:12 *368:8 0
28 *315:18 *368:10 0
29 *319:28 *1107:A 0
30 *319:28 *368:14 0
31 *323:8 *368:8 0
32 *333:24 *368:10 0
33 *346:16 *368:10 0
*RES
1 *1215:X *368:8 45.5105 
2 *368:8 *368:10 39.655 
3 *368:10 *368:14 21.7681 
4 *368:14 *1107:A 20.3193 
5 *368:14 *1075:D 21.0918 
*END

*D_NET *369 0.0330097
*CONN
*I *1295:A I *D sg13g2_buf_1
*I *1097:X O *D sg13g2_buf_1
*CAP
1 *1295:A 0
2 *1097:X 0
3 *369:28 0.0020679
4 *369:24 0.00534379
5 *369:20 0.00385009
6 *369:14 0.00365191
7 *369:12 0.00350915
8 *369:6 0.000431433
9 *369:24 *386:20 0
10 *369:24 *421:20 0
11 *369:28 *370:10 0.000338634
12 *369:28 *386:20 0
13 *1036:A *369:24 2.14736e-05
14 *1098:A *369:28 0
15 *6:21 *369:24 0
16 *6:21 *369:28 0
17 *13:9 *369:12 0
18 *13:13 *369:14 0.0100432
19 *32:11 *369:14 0
20 *32:17 *369:20 0
21 *34:11 *369:12 0
22 *336:14 *369:24 0.00113977
23 *353:10 *369:24 0.00261233
24 *362:22 *369:20 0
*RES
1 *1097:X *369:6 40 
2 *369:6 *369:12 44.8616 
3 *369:12 *369:14 46.3294 
4 *369:14 *369:20 45.2942 
5 *369:20 *369:24 33.3617 
6 *369:24 *369:28 43.278 
7 *369:28 *1295:A 20 
*END

*D_NET *370 0.00084775
*CONN
*I *1296:A I *D sg13g2_buf_1
*I *1098:X O *D sg13g2_buf_1
*CAP
1 *1296:A 0
2 *1098:X 0.000254558
3 *370:10 0.000254558
4 *370:10 *380:14 0
5 FrameData_O[11] *370:10 0
6 FrameData_O[13] *370:10 0
7 *369:28 *370:10 0.000338634
*RES
1 *1098:X *370:10 42.8943 
2 *370:10 *1296:A 40 
*END

*D_NET *371 0.000388594
*CONN
*I *1297:A I *D sg13g2_buf_1
*I *1099:X O *D sg13g2_buf_1
*CAP
1 *1297:A 0.000194297
2 *1099:X 0.000194297
3 *1297:A *386:26 0
4 *1297:A *420:8 0
*RES
1 *1099:X *1297:A 41.9982 
*END

*D_NET *372 0.0178479
*CONN
*I *1298:A I *D sg13g2_buf_1
*I *1100:X O *D sg13g2_buf_1
*CAP
1 *1298:A 0
2 *1100:X 0
3 *372:18 0.000200013
4 *372:12 0.0087371
5 *372:10 0.00853709
6 *372:6 0
7 *372:12 *373:12 0
8 *372:18 *385:18 0.000373674
9 *4:11 *372:12 0
10 *7:13 *372:12 0
11 *34:13 *372:12 0
*RES
1 *1100:X *372:6 40 
2 *372:6 *372:10 40 
3 *372:10 *372:12 104.421 
4 *372:12 *372:18 42.4823 
5 *372:18 *1298:A 40 
*END

*D_NET *373 0.0205445
*CONN
*I *1299:A I *D sg13g2_buf_1
*I *1101:X O *D sg13g2_buf_1
*CAP
1 *1299:A 0.000150035
2 *1101:X 0
3 *373:18 0.000221954
4 *373:12 0.00830275
5 *373:10 0.00823083
6 *373:6 0
7 *1299:A *1305:A 0.000241535
8 *1299:A *386:26 0.000274134
9 *1299:A *420:8 0
10 *373:12 *375:12 0
11 *373:12 *386:16 0.00312326
12 *373:12 *387:18 0
13 *373:18 *385:18 0
14 *7:13 *373:12 0
15 *10:13 *373:12 0
16 *13:17 *373:18 0
17 *372:12 *373:12 0
*RES
1 *1101:X *373:6 40 
2 *373:6 *373:10 40 
3 *373:10 *373:12 102.938 
4 *373:12 *373:18 40.7519 
5 *373:18 *1299:A 41.8334 
*END

*D_NET *374 0.000561223
*CONN
*I *1300:A I *D sg13g2_buf_1
*I *1102:X O *D sg13g2_buf_1
*CAP
1 *1300:A 0
2 *1102:X 0.000217981
3 *374:12 0.000217981
4 *374:12 *381:12 0
5 *374:12 *384:56 0
6 FrameData_O[15] *374:12 0
7 FrameData_O[17] *374:12 0.000125261
*RES
1 *1102:X *374:12 42.0085 
2 *374:12 *1300:A 40 
*END

*D_NET *375 0.0207396
*CONN
*I *1301:A I *D sg13g2_buf_1
*I *1103:X O *D sg13g2_buf_1
*CAP
1 *1301:A 0
2 *1103:X 0
3 *375:18 0.000277357
4 *375:12 0.0103622
5 *375:10 0.0100849
6 *375:6 0
7 *375:12 *376:18 0
8 *375:12 *376:22 0
9 *375:12 *376:24 0
10 *375:12 *387:22 0
11 *375:12 *388:14 0
12 *375:18 *384:72 1.5203e-05
13 *375:18 *385:18 0
14 *375:18 *387:28 0
15 *10:13 *375:12 0
16 *13:17 *375:18 0
17 *373:12 *375:12 0
*RES
1 *1103:X *375:6 40 
2 *375:6 *375:10 40 
3 *375:10 *375:12 102.197 
4 *375:12 *375:18 42.4823 
5 *375:18 *1301:A 40 
*END

*D_NET *376 0.0204568
*CONN
*I *1302:A I *D sg13g2_buf_1
*I *1104:X O *D sg13g2_buf_1
*CAP
1 *1302:A 0
2 *1104:X 0
3 *376:30 4.55912e-05
4 *376:24 0.006724
5 *376:22 0.00871228
6 *376:18 0.00223381
7 *376:6 0.000199932
8 *376:22 *389:16 0
9 *376:24 *383:12 0
10 *376:24 *384:12 0.00207358
11 *376:24 *384:32 0
12 *376:24 *384:50 6.25982e-05
13 *376:24 *387:22 0
14 *376:24 *388:14 0
15 *376:30 *385:18 7.95308e-05
16 *303:20 *376:22 0.000325428
17 *303:20 *376:24 0
18 *375:12 *376:18 0
19 *375:12 *376:22 0
20 *375:12 *376:24 0
*RES
1 *1104:X *376:6 40 
2 *376:6 *376:18 43.0488 
3 *376:18 *376:22 26.4813 
4 *376:22 *376:24 76.0758 
5 *376:24 *376:30 40.5356 
6 *376:30 *1302:A 40 
*END

*D_NET *377 0.0012102
*CONN
*I *1303:A I *D sg13g2_buf_1
*I *1105:X O *D sg13g2_buf_1
*CAP
1 *1303:A 0
2 *1105:X 0.000419703
3 *377:10 0.000419703
4 *377:10 *1305:A 0.00037079
5 FrameData_O[20] *377:10 0
6 FrameData_O[22] *377:10 0
7 *1105:A *377:10 0
*RES
1 *1105:X *377:10 44.0685 
2 *377:10 *1303:A 40 
*END

*D_NET *378 0.0396018
*CONN
*I *1304:A I *D sg13g2_buf_1
*I *1087:X O *D sg13g2_buf_1
*CAP
1 *1304:A 0
2 *1087:X 0.000630798
3 *378:24 4.84929e-05
4 *378:18 0.00643049
5 *378:16 0.00645871
6 *378:10 0.000707511
7 *378:18 *385:14 0.0140475
8 *378:18 *395:14 0
9 *378:18 *396:14 0.0112783
10 *378:18 *396:18 0
11 *378:18 *399:22 0
12 *378:24 *395:20 0
13 *1087:A *378:10 0
14 *1091:A *378:10 0
15 *28:11 *378:10 0
16 *28:13 *378:18 0
17 *31:5 *378:10 0
18 *346:12 *378:10 0
*RES
1 *1087:X *378:10 46.2315 
2 *378:10 *378:16 40.7519 
3 *378:16 *378:18 94.039 
4 *378:18 *378:24 40.5356 
5 *378:24 *1304:A 40 
*END

*D_NET *379 0.0155356
*CONN
*I *1076:D I *D sg13g2_dlhq_1
*I *1108:A I *D sg13g2_buf_1
*I *1226:X O *D sg13g2_buf_1
*CAP
1 *1076:D 0.000276243
2 *1108:A 0
3 *1226:X 0.000101197
4 *379:22 0.000619689
5 *379:16 0.00143485
6 *379:12 0.00253459
7 *379:8 0.00154438
8 *379:8 *401:10 0.000144815
9 *379:12 *390:12 0.00493801
10 *379:16 *389:16 0
11 *379:16 *390:16 0.00355299
12 *379:16 *393:16 0
13 *379:22 *382:12 0
14 *379:22 *390:22 7.90769e-05
15 *1215:A *379:12 0
16 *1226:A *379:8 0
17 *67:34 *1076:D 0.00023464
18 *181:13 *1076:D 0
19 *181:19 *379:22 0
20 *267:12 *1076:D 0
21 *274:16 *379:12 0
22 *275:14 *379:12 0
23 *288:16 *379:12 7.51285e-05
*RES
1 *1226:X *379:8 40.9682 
2 *379:8 *379:12 43.8342 
3 *379:12 *379:16 36.9126 
4 *379:16 *379:22 42.6986 
5 *379:22 *1108:A 40 
6 *379:22 *1076:D 42.6471 
*END

*D_NET *380 0.0148989
*CONN
*I *1305:A I *D sg13g2_buf_1
*I *1106:X O *D sg13g2_buf_1
*CAP
1 *1305:A 0.000586515
2 *1106:X 8.26027e-05
3 *380:14 0.00543957
4 *380:12 0.00601041
5 *380:8 0.00123996
6 *1305:A *386:26 0
7 *1305:A *420:8 0
8 *380:12 *381:10 0
9 *380:14 *381:12 0
10 *380:14 *415:26 0
11 *380:14 *421:20 0
12 *1034:S0 *380:12 0
13 *1037:A *380:12 0
14 *1037:A *380:14 1.93345e-05
15 *1055:A *380:12 0
16 *1299:A *1305:A 0.000241535
17 *219:23 *380:12 0
18 *219:34 *380:12 0
19 *219:47 *380:12 0
20 *221:28 *380:12 0.000124826
21 *236:10 *380:12 0.000333522
22 *285:14 *380:12 0.000338869
23 *315:18 *380:12 0
24 *315:28 *380:12 0
25 *319:28 *380:8 0.000110997
26 *346:39 *380:12 0
27 *349:12 *380:14 0
28 *368:14 *380:8 0
29 *370:10 *380:14 0
30 *377:10 *1305:A 0.00037079
*RES
1 *1106:X *380:8 40.7519 
2 *380:8 *380:12 10.3103 
3 *380:12 *380:14 55.4758 
4 *380:14 *1305:A 45.8607 
*END

*D_NET *381 0.0214667
*CONN
*I *1306:A I *D sg13g2_buf_1
*I *1107:X O *D sg13g2_buf_1
*CAP
1 *1306:A 0.000672392
2 *1107:X 0.000785697
3 *381:12 0.00530076
4 *381:10 0.00541407
5 *1306:A *386:26 0
6 *381:12 *384:56 0
7 *381:12 *419:20 0.00263909
8 FrameData_O[15] *381:12 0
9 FrameData_O[17] *1306:A 0.000176921
10 FrameData_O[19] *1306:A 0
11 FrameData_O[20] *1306:A 7.90673e-05
12 FrameData_O[21] *1306:A 0
13 FrameData_O[22] *1306:A 0.000111828
14 FrameData_O[23] *1306:A 0
15 *1102:A *381:12 0
16 *10:21 *381:10 0
17 *10:21 *381:12 0
18 *232:8 *381:10 0.000446968
19 *236:10 *381:10 0
20 *267:91 *381:10 0
21 *297:22 *381:10 0
22 *346:39 *381:10 0.00108364
23 *346:45 *381:10 0.000178206
24 *362:12 *381:10 0
25 *362:12 *381:12 0.004505
26 *362:22 *381:10 7.30101e-05
27 *374:12 *381:12 0
28 *380:12 *381:10 0
29 *380:14 *381:12 0
*RES
1 *1107:X *381:10 49.0743 
2 *381:10 *381:12 56.4646 
3 *381:12 *1306:A 46.5096 
*END

*D_NET *382 0.016164
*CONN
*I *1307:A I *D sg13g2_buf_1
*I *1108:X O *D sg13g2_buf_1
*CAP
1 *1307:A 0
2 *1108:X 0
3 *382:18 0
4 *382:14 0.00435929
5 *382:12 0.0047856
6 *382:6 0.00042631
7 *382:14 *389:16 0
8 *382:14 *393:16 0
9 *295:30 *382:12 0
10 *305:14 *382:14 0.00260261
11 *361:26 *382:14 0.00399016
12 *379:22 *382:12 0
*RES
1 *1108:X *382:6 40 
2 *382:6 *382:12 43.1627 
3 *382:12 *382:14 64.375 
4 *382:14 *382:18 40 
5 *382:18 *1307:A 40 
*END

*D_NET *383 0.0172822
*CONN
*I *1308:A I *D sg13g2_buf_1
*I *1109:X O *D sg13g2_buf_1
*CAP
1 *1308:A 0
2 *1109:X 0
3 *383:18 0.000366691
4 *383:12 0.00498721
5 *383:10 0.00462052
6 *383:6 0
7 *383:12 *384:32 0
8 *383:12 *384:50 0
9 *383:12 *389:16 0.00660582
10 *383:12 *392:16 0
11 *383:18 *385:18 0.000702008
12 *303:16 *383:12 0
13 *303:20 *383:12 0
14 *376:24 *383:12 0
*RES
1 *1109:X *383:6 40 
2 *383:6 *383:10 40 
3 *383:10 *383:12 65.611 
4 *383:12 *383:18 44.6453 
5 *383:18 *1308:A 40 
*END

*D_NET *384 0.0181595
*CONN
*I *1309:A I *D sg13g2_buf_1
*I *1110:X O *D sg13g2_buf_1
*CAP
1 *1309:A 0
2 *1110:X 0
3 *384:72 0.000604937
4 *384:64 0.000715646
5 *384:56 0.00208779
6 *384:50 0.00209624
7 *384:38 0.00104239
8 *384:32 0.00321657
9 *384:26 0.00240239
10 *384:20 0.000222826
11 *384:12 0.00047788
12 *384:6 0.000364105
13 *384:38 *418:12 0
14 *384:38 *420:12 0
15 *384:56 *420:12 0
16 *384:64 *387:28 0
17 *384:72 *385:18 0
18 *384:72 *387:28 0
19 FrameData_O[27] *384:72 0
20 *10:21 *384:38 0
21 *303:16 *384:32 0.000449463
22 *303:20 *384:12 0.00207333
23 *338:20 *384:20 0.000128628
24 *364:14 *384:20 0.000125963
25 *374:12 *384:56 0
26 *375:18 *384:72 1.5203e-05
27 *376:24 *384:12 0.00207358
28 *376:24 *384:32 0
29 *376:24 *384:50 6.25982e-05
30 *381:12 *384:56 0
31 *383:12 *384:32 0
32 *383:12 *384:50 0
*RES
1 *1110:X *384:6 40 
2 *384:6 *384:12 49.4966 
3 *384:12 *384:20 41.5656 
4 *384:20 *384:26 41.1845 
5 *384:26 *384:32 42.8866 
6 *384:32 *384:38 49.991 
7 *384:38 *384:50 41.3081 
8 *384:50 *384:56 42.9175 
9 *384:56 *384:64 40.8858 
10 *384:64 *384:72 46.5096 
11 *384:72 *1309:A 40 
*END

*D_NET *385 0.0332776
*CONN
*I *1310:A I *D sg13g2_buf_1
*I *1111:X O *D sg13g2_buf_1
*CAP
1 *1310:A 0
2 *1111:X 0
3 *385:24 2.94393e-05
4 *385:18 0.00189795
5 *385:14 0.00618787
6 *385:12 0.00431936
7 *385:10 0.0017112
8 *385:6 0.0017112
9 *385:10 *388:12 0
10 *385:14 *395:14 0
11 *385:14 *399:22 0.00214296
12 *385:18 *387:28 0
13 FrameData_O[27] *385:24 0
14 FrameData_O[28] *385:24 7.4933e-05
15 *13:17 *385:18 0
16 *34:19 *385:18 0
17 *372:18 *385:18 0.000373674
18 *373:18 *385:18 0
19 *375:18 *385:18 0
20 *376:30 *385:18 7.95308e-05
21 *378:18 *385:14 0.0140475
22 *383:18 *385:18 0.000702008
23 *384:72 *385:18 0
*RES
1 *1111:X *385:6 40 
2 *385:6 *385:10 35.6766 
3 *385:10 *385:12 20 
4 *385:12 *385:14 69.5662 
5 *385:14 *385:18 41.9493 
6 *385:18 *385:24 40.3502 
7 *385:24 *1310:A 20 
*END

*D_NET *386 0.0319579
*CONN
*I *1311:A I *D sg13g2_buf_1
*I *1112:X O *D sg13g2_buf_1
*CAP
1 *1311:A 0
2 *1112:X 0
3 *386:26 0.00145949
4 *386:20 0.00581006
5 *386:18 0.00435057
6 *386:16 0.00118063
7 *386:10 0.00118063
8 *386:6 0
9 *386:26 *420:8 0
10 FrameData_O[11] *386:26 7.96655e-05
11 FrameData_O[12] *386:26 0
12 FrameData_O[13] *386:26 0.000112528
13 FrameData_O[15] *386:26 0.000144958
14 FrameData_O[17] *386:26 0.000177036
15 FrameData_O[20] *386:26 7.9806e-05
16 FrameData_O[22] *386:26 0.000112528
17 FrameData_O[23] *386:26 0
18 FrameData_O[24] *386:26 0.000144985
19 FrameData_O[25] *386:26 0
20 FrameData_O[26] *386:26 0.000176654
21 FrameData_O[29] *386:26 0
22 FrameData_O[31] *386:26 0
23 *1098:A *386:20 0
24 *1099:A *386:26 0
25 *1297:A *386:26 0
26 *1299:A *386:26 0.000274134
27 *1305:A *386:26 0
28 *1306:A *386:26 0
29 *6:21 *386:20 0
30 *7:13 *386:16 0
31 *7:21 *386:20 0.0128731
32 *270:12 *386:16 0
33 *289:12 *386:20 0.000234883
34 *315:10 *386:20 0.000443036
35 *336:14 *386:20 0
36 *347:30 *386:20 0
37 *349:22 *386:20 0
38 *358:40 *386:20 0
39 *367:12 *386:20 0
40 *369:24 *386:20 0
41 *369:28 *386:20 0
42 *373:12 *386:16 0.00312326
*RES
1 *1112:X *386:6 40 
2 *386:6 *386:10 40 
3 *386:10 *386:16 37.1392 
4 *386:16 *386:18 20 
5 *386:18 *386:20 62.3974 
6 *386:20 *386:26 35.1616 
7 *386:26 *1311:A 20 
*END

*D_NET *387 0.0267759
*CONN
*I *1312:A I *D sg13g2_buf_1
*I *1113:X O *D sg13g2_buf_1
*CAP
1 *1312:A 0
2 *1113:X 0
3 *387:28 0.000879193
4 *387:22 0.0047248
5 *387:20 0.00384561
6 *387:18 0.00157591
7 *387:12 0.00164522
8 *387:6 6.93061e-05
9 *387:22 *388:14 0.0137277
10 *387:28 *388:20 0
11 *10:13 *387:18 0
12 *13:17 *387:28 0.000308197
13 *302:18 *387:12 0
14 *373:12 *387:18 0
15 *375:12 *387:22 0
16 *375:18 *387:28 0
17 *376:24 *387:22 0
18 *384:64 *387:28 0
19 *384:72 *387:28 0
20 *385:18 *387:28 0
*RES
1 *1113:X *387:6 40 
2 *387:6 *387:12 40.5356 
3 *387:12 *387:18 32.2879 
4 *387:18 *387:20 20 
5 *387:20 *387:22 64.375 
6 *387:22 *387:28 49.6202 
7 *387:28 *1312:A 40 
*END

*D_NET *388 0.0277582
*CONN
*I *1313:A I *D sg13g2_buf_1
*I *1114:X O *D sg13g2_buf_1
*CAP
1 *1313:A 0
2 *1114:X 0
3 *388:20 0.000889595
4 *388:14 0.00673991
5 *388:12 0.00612566
6 *388:6 0.000275339
7 *13:17 *388:20 0
8 *375:12 *388:14 0
9 *376:24 *388:14 0
10 *385:10 *388:12 0
11 *387:22 *388:14 0.0137277
12 *387:28 *388:20 0
*RES
1 *1114:X *388:6 40 
2 *388:6 *388:12 42.266 
3 *388:12 *388:14 68.3302 
4 *388:14 *388:20 49.8365 
5 *388:20 *1313:A 40 
*END

*D_NET *389 0.0295964
*CONN
*I *1314:A I *D sg13g2_buf_1
*I *1115:X O *D sg13g2_buf_1
*CAP
1 *1314:A 0
2 *1115:X 0
3 *389:28 0.00265235
4 *389:22 0.0030233
5 *389:16 0.00277501
6 *389:10 0.00240405
7 *389:6 0
8 *389:16 *392:16 0
9 *389:16 *393:16 0.00581312
10 *389:28 *393:22 0.00237541
11 *389:28 *402:14 0
12 *389:28 *405:16 0
13 *389:28 *407:28 7.52158e-05
14 *389:28 *411:8 0.00194495
15 *389:28 *422:12 0.00119221
16 FrameData_O[28] *389:28 0
17 *94:10 *389:28 0.000181192
18 *205:11 *389:28 0.000553758
19 *303:20 *389:16 0
20 *376:22 *389:16 0
21 *379:16 *389:16 0
22 *382:14 *389:16 0
23 *383:12 *389:16 0.00660582
*RES
1 *1115:X *389:6 40 
2 *389:6 *389:10 40 
3 *389:10 *389:16 43.5381 
4 *389:16 *389:22 44.2127 
5 *389:22 *389:28 33.6501 
6 *389:28 *1314:A 40 
*END

*D_NET *390 0.0189255
*CONN
*I *1077:D I *D sg13g2_dlhq_1
*I *1109:A I *D sg13g2_buf_1
*I *1233:X O *D sg13g2_buf_1
*CAP
1 *1077:D 0.00017793
2 *1109:A 0
3 *1233:X 7.1992e-05
4 *390:22 0.000253542
5 *390:16 0.000731225
6 *390:12 0.00181094
7 *390:8 0.00122732
8 *181:19 *390:22 0.000110621
9 *181:25 *390:16 0.00349973
10 *280:14 *390:12 0.00231542
11 *282:14 *390:12 2.21839e-05
12 *288:16 *1077:D 2.19989e-05
13 *288:16 *390:12 0
14 *290:8 *390:8 0.000112501
15 *314:12 *1077:D 0
16 *319:28 *1077:D 0
17 *323:8 *390:8 0
18 *345:26 *1077:D 0
19 *379:12 *390:12 0.00493801
20 *379:16 *390:16 0.00355299
21 *379:22 *390:22 7.90769e-05
*RES
1 *1233:X *390:8 40.7519 
2 *390:8 *390:12 43.0926 
3 *390:12 *390:16 36.4182 
4 *390:16 *390:22 40.7519 
5 *390:22 *1109:A 40 
6 *390:22 *1077:D 41.4111 
*END

*D_NET *391 0.00235145
*CONN
*I *1315:A I *D sg13g2_buf_1
*I *1088:X O *D sg13g2_buf_1
*CAP
1 *1315:A 5.27495e-05
2 *1088:X 0.000458829
3 *391:10 0.000511578
4 *391:10 *397:14 0.000241407
5 *391:10 *399:30 0
6 FrameData_O[2] *391:10 0
7 FrameData_O[4] *1315:A 0
8 FrameData_O[4] *391:10 0.00108689
9 FrameData_O[6] *391:10 0
10 *76:13 *1315:A 0
11 *77:13 *1315:A 0
12 *366:10 *391:10 0
*RES
1 *1088:X *391:10 46.0152 
2 *391:10 *1315:A 40.5356 
*END

*D_NET *392 0.0176821
*CONN
*I *1316:A I *D sg13g2_buf_1
*I *1116:X O *D sg13g2_buf_1
*CAP
1 *1316:A 0.00031203
2 *1116:X 0
3 *392:28 0.00388753
4 *392:26 0.00402429
5 *392:20 0.00166325
6 *392:16 0.00285636
7 *392:10 0.00164189
8 *392:6 0
9 *392:28 *393:22 0
10 *392:28 *403:12 0
11 *392:28 *407:14 0
12 *392:28 *408:18 0
13 *392:28 *413:8 0
14 FrameData_O[28] *1316:A 0
15 FrameData_O[31] *1316:A 0
16 *181:13 *392:20 0
17 *189:9 *392:28 0.00065789
18 *198:13 *392:28 0
19 *213:21 *392:28 0
20 *303:20 *392:16 0
21 *313:10 *392:28 0
22 *320:14 *392:20 0
23 *321:10 *392:28 0.000234834
24 *330:14 *392:28 0
25 *335:8 *392:20 0.000128293
26 *340:16 *392:20 0.00194141
27 *340:22 *392:20 0.000287572
28 *344:14 *392:16 4.669e-05
29 *351:6 *392:26 0
30 *355:10 *392:26 0
31 *359:12 *392:28 0
32 *363:10 *392:20 0
33 *383:12 *392:16 0
34 *389:16 *392:16 0
*RES
1 *1116:X *392:6 40 
2 *392:6 *392:10 40 
3 *392:10 *392:16 36.4903 
4 *392:16 *392:20 36.4182 
5 *392:20 *392:26 44.429 
6 *392:26 *392:28 39.655 
7 *392:28 *1316:A 43.1312 
*END

*D_NET *393 0.0229761
*CONN
*I *1317:A I *D sg13g2_buf_1
*I *1117:X O *D sg13g2_buf_1
*CAP
1 *1317:A 5.68535e-05
2 *1117:X 0
3 *393:22 0.00332523
4 *393:20 0.00361222
5 *393:16 0.00232101
6 *393:12 0.00205625
7 *393:6 7.90774e-05
8 *393:22 *413:8 0.000929045
9 *94:10 *393:22 0.000181608
10 *205:11 *393:22 0
11 *213:21 *393:22 0.000921075
12 *214:11 *393:22 0.00119007
13 *296:16 *393:16 0
14 *305:14 *393:16 0
15 *321:16 *393:20 0.000115102
16 *379:16 *393:16 0
17 *382:14 *393:16 0
18 *389:16 *393:16 0.00581312
19 *389:28 *393:22 0.00237541
20 *392:28 *393:22 0
*RES
1 *1117:X *393:6 40 
2 *393:6 *393:12 40.5356 
3 *393:12 *393:16 49.767 
4 *393:16 *393:20 23.7801 
5 *393:20 *393:22 38.1718 
6 *393:22 *1317:A 40.5356 
*END

*D_NET *394 0.000443464
*CONN
*I *1318:A I *D sg13g2_buf_1
*I *1089:X O *D sg13g2_buf_1
*CAP
1 *1318:A 0.000221732
2 *1089:X 0.000221732
3 *77:13 *1318:A 0
*RES
1 *1089:X *1318:A 41.9982 
*END

*D_NET *395 0.027879
*CONN
*I *1319:A I *D sg13g2_buf_1
*I *1090:X O *D sg13g2_buf_1
*CAP
1 *1319:A 0
2 *1090:X 0
3 *395:20 0.000164993
4 *395:14 0.00734004
5 *395:12 0.00741663
6 *395:6 0.000241581
7 *395:12 *396:12 0
8 *395:14 *396:14 0
9 *395:14 *399:22 0
10 *25:11 *395:12 0
11 *25:13 *395:14 0.0127158
12 *378:18 *395:14 0
13 *378:24 *395:20 0
14 *385:14 *395:14 0
*RES
1 *1090:X *395:6 40 
2 *395:6 *395:12 42.9149 
3 *395:12 *395:14 97.9942 
4 *395:14 *395:20 41.6171 
5 *395:20 *1319:A 40 
*END

*D_NET *396 0.0263142
*CONN
*I *1320:A I *D sg13g2_buf_1
*I *1091:X O *D sg13g2_buf_1
*CAP
1 *1320:A 0
2 *1091:X 0
3 *396:22 0
4 *396:18 0.00402167
5 *396:14 0.00736931
6 *396:12 0.00349626
7 *396:6 0.000148623
8 *6:13 *396:14 0
9 *28:11 *396:12 0
10 *28:13 *396:14 0
11 *28:13 *396:18 0
12 *378:18 *396:14 0.0112783
13 *378:18 *396:18 0
14 *395:12 *396:12 0
15 *395:14 *396:14 0
*RES
1 *1091:X *396:6 40 
2 *396:6 *396:12 41.6171 
3 *396:12 *396:14 56.0629 
4 *396:14 *396:18 39.3872 
5 *396:18 *396:22 40 
6 *396:22 *1320:A 40 
*END

*D_NET *397 0.00119644
*CONN
*I *1321:A I *D sg13g2_buf_1
*I *1092:X O *D sg13g2_buf_1
*CAP
1 *1321:A 0
2 *1092:X 0.00026453
3 *397:14 0.00026453
4 *397:14 *420:8 0.000175693
5 FrameData_O[3] *397:14 0.000122034
6 *366:10 *397:14 0.000128247
7 *391:10 *397:14 0.000241407
*RES
1 *1092:X *397:14 43.193 
2 *397:14 *1321:A 40 
*END

*D_NET *398 0.000701097
*CONN
*I *1322:A I *D sg13g2_buf_1
*I *1093:X O *D sg13g2_buf_1
*CAP
1 *1322:A 0
2 *1093:X 0.000232924
3 *398:10 0.000232924
4 FrameData_O[9] *398:10 0
5 *424:A *398:10 0.000235249
6 *1088:A *398:10 0
7 *1096:A *398:10 0
8 *367:12 *398:10 0
*RES
1 *1093:X *398:10 42.6471 
2 *398:10 *1322:A 40 
*END

*D_NET *399 0.0251032
*CONN
*I *1323:A I *D sg13g2_buf_1
*I *1094:X O *D sg13g2_buf_1
*CAP
1 *1323:A 0.000158603
2 *1094:X 0.00026131
3 *399:30 0.00640261
4 *399:28 0.00630035
5 *399:22 0.00214958
6 *399:18 0.00416269
7 *399:12 0.00233077
8 FrameData_O[1] *399:30 0
9 FrameData_O[2] *399:30 0.00119428
10 FrameData_O[4] *399:30 0
11 FrameData_O[5] *399:30 0
12 *1125:A *1323:A 0
13 *31:5 *399:12 0
14 *31:5 *399:18 0
15 *73:15 *399:30 0
16 *74:13 *399:30 0
17 *75:11 *399:30 0
18 *78:9 *399:30 0
19 *81:9 *399:30 0
20 *82:11 *399:30 0
21 *84:11 *399:30 0
22 *84:13 *399:30 0
23 *85:11 *399:30 0
24 *86:9 *399:30 0
25 *269:14 *399:18 0
26 *346:12 *399:12 0
27 *378:18 *399:22 0
28 *385:14 *399:22 0.00214296
29 *391:10 *399:30 0
30 *395:14 *399:22 0
*RES
1 *1094:X *399:12 42.9664 
2 *399:12 *399:18 44.7097 
3 *399:18 *399:22 42.1038 
4 *399:22 *399:28 40.5356 
5 *399:28 *399:30 60.1726 
6 *399:30 *1323:A 41.4008 
*END

*D_NET *400 0.000373263
*CONN
*I *1324:A I *D sg13g2_buf_1
*I *1095:X O *D sg13g2_buf_1
*CAP
1 *1324:A 0.000186632
2 *1095:X 0.000186632
3 *1324:A *420:8 0
4 FrameData_O[10] *1324:A 0
5 *1096:A *1324:A 0
*RES
1 *1095:X *1324:A 41.9164 
*END

*D_NET *401 0.0152794
*CONN
*I *1110:A I *D sg13g2_buf_1
*I *1078:D I *D sg13g2_dlhq_1
*I *1234:X O *D sg13g2_buf_1
*CAP
1 *1110:A 4.9881e-05
2 *1078:D 0
3 *1234:X 0.000856217
4 *401:26 0.000695639
5 *401:16 0.00101739
6 *401:12 0.00437174
7 *401:10 0.00495609
8 *1072:B1 *401:26 0
9 *1074:D *401:16 8.00842e-05
10 *1085:GATE *401:16 0
11 *1085:GATE *401:26 0
12 *1103:A *401:12 0
13 *1140:A *401:26 0.00020799
14 *1204:A *401:10 0
15 *1226:A *401:10 0
16 *1234:A *401:10 0
17 *1235:A *401:10 1.54008e-05
18 *10:11 *401:12 0.000178392
19 *230:10 *401:26 7.90662e-05
20 *241:12 *401:26 0.000112236
21 *267:18 *401:12 0.000159511
22 *267:22 *401:12 0.00086923
23 *268:40 *401:12 0.000288174
24 *285:14 *401:12 0
25 *290:8 *401:10 0
26 *290:12 *401:12 0
27 *316:18 *401:26 0.000446402
28 *318:16 *401:26 0
29 *319:28 *1110:A 0
30 *319:28 *401:16 0
31 *319:28 *401:26 0.000240377
32 *319:36 *401:26 7.51285e-05
33 *334:32 *401:26 0
34 *346:39 *401:12 0
35 *356:26 *401:26 0
36 *357:12 *401:10 0.000435638
37 *357:12 *401:12 0
38 *357:14 *401:12 0
39 *358:26 *401:26 0
40 *379:8 *401:10 0.000144815
*RES
1 *1234:X *401:10 48.0237 
2 *401:10 *401:12 38.9134 
3 *401:12 *401:16 22.266 
4 *401:16 *401:26 47.3851 
5 *401:26 *1078:D 20 
6 *401:16 *1110:A 20.5974 
*END

*D_NET *402 0.0138146
*CONN
*I *1325:A I *D sg13g2_buf_1
*I *1118:X O *D sg13g2_buf_1
*CAP
1 *1325:A 9.24289e-05
2 *1118:X 0
3 *402:14 0.00223354
4 *402:12 0.00260816
5 *402:6 0.000467046
6 *402:14 *414:16 0
7 *402:14 *422:12 0
8 FrameStrobe_O[3] *1325:A 0.000144217
9 *188:31 *402:14 0.000126307
10 *197:9 *402:14 0.00172039
11 *202:11 *402:14 0
12 *203:11 *402:14 0.00124667
13 *205:11 *402:14 0
14 *214:11 *402:14 0
15 *330:14 *1325:A 0
16 *343:22 *402:14 0.00294201
17 *344:10 *402:14 7.33256e-05
18 *344:14 *402:12 0.000657651
19 *345:12 *402:14 0
20 *348:10 *402:14 0
21 *350:14 *402:14 0
22 *361:22 *402:14 0.00150288
23 *389:28 *402:14 0
*RES
1 *1118:X *402:6 40 
2 *402:6 *402:12 44.6453 
3 *402:12 *402:14 30.0142 
4 *402:14 *1325:A 40.9682 
*END

*D_NET *403 0.00717222
*CONN
*I *1326:A I *D sg13g2_buf_1
*I *1128:X O *D sg13g2_buf_1
*CAP
1 *1326:A 0.000441194
2 *1128:X 0.0015271
3 *403:12 0.00116683
4 *403:6 0.00225273
5 *1326:A *1327:A 0
6 *1326:A *1343:A 0
7 *1326:A *406:12 0.00033845
8 *403:6 *404:6 0
9 *403:6 *414:10 0.000177415
10 *403:6 *422:6 0
11 *403:12 *404:12 0
12 *403:12 *417:16 0.000713588
13 FrameStrobe_O[13] *1326:A 0
14 FrameStrobe_O[15] *1326:A 0
15 FrameStrobe_O[16] *1326:A 0
16 *330:14 *403:12 0.000554906
17 *392:28 *403:12 0
*RES
1 *1128:X *403:6 35.0277 
2 *403:6 *403:12 49.2494 
3 *403:12 *1326:A 24.2498 
*END

*D_NET *404 0.00533586
*CONN
*I *1327:A I *D sg13g2_buf_1
*I *1129:X O *D sg13g2_buf_1
*CAP
1 *1327:A 0.000298815
2 *1129:X 0.00141224
3 *404:12 0.00102205
4 *404:6 0.00213548
5 *1327:A *1343:A 0.000467267
6 *1327:A *406:12 0
7 *404:6 *422:6 0
8 *404:12 *417:16 0
9 *1326:A *1327:A 0
10 *330:14 *404:12 0
11 *403:6 *404:6 0
12 *403:12 *404:12 0
*RES
1 *1129:X *404:6 34.1625 
2 *404:6 *404:12 47.519 
3 *404:12 *1327:A 23.1312 
*END

*D_NET *405 0.00717138
*CONN
*I *1328:A I *D sg13g2_buf_1
*I *1130:X O *D sg13g2_buf_1
*CAP
1 *1328:A 0
2 *1130:X 0.00174424
3 *405:16 0.000671607
4 *405:8 0.00241585
5 *405:8 *416:14 0.00211522
6 *405:8 *417:6 0
7 *405:16 *422:12 0
8 FrameStrobe_O[16] *405:16 0.000112228
9 FrameStrobe_O[18] *405:16 0.000112228
10 FrameStrobe_O[3] *405:8 0
11 FrameStrobe_O[5] *405:8 0
12 *90:10 *405:16 0
13 *93:8 *405:16 0
14 *330:14 *405:8 0
15 *389:28 *405:16 0
*RES
1 *1130:X *405:8 38.6224 
2 *405:8 *405:16 47.0349 
3 *405:16 *1328:A 20 
*END

*D_NET *406 0.00671596
*CONN
*I *1329:A I *D sg13g2_buf_1
*I *1131:X O *D sg13g2_buf_1
*CAP
1 *1329:A 0
2 *1131:X 0.00013683
3 *406:12 0.00174203
4 *406:8 0.00187886
5 *406:12 *407:6 0.0021165
6 *406:12 *408:8 0
7 *1133:A *406:12 0
8 *1326:A *406:12 0.00033845
9 *1327:A *406:12 0
10 *31:9 *406:8 0.000503291
11 *32:19 *406:8 0
12 *77:17 *406:12 0
*RES
1 *1131:X *406:8 42.3278 
2 *406:8 *406:12 37.1907 
3 *406:12 *1329:A 20 
*END

*D_NET *407 0.00641947
*CONN
*I *1330:A I *D sg13g2_buf_1
*I *1132:X O *D sg13g2_buf_1
*CAP
1 *1330:A 0
2 *1132:X 0.00127008
3 *407:28 0.00024835
4 *407:14 0.000747836
5 *407:6 0.00176957
6 *407:6 *1343:A 0
7 *407:14 *408:8 0.00011183
8 *407:14 *409:16 0
9 *407:28 *408:18 0
10 FrameStrobe_O[16] *407:14 0
11 FrameStrobe_O[18] *407:28 0
12 *77:17 *407:14 0
13 *93:8 *407:28 0
14 *94:10 *407:14 8.00842e-05
15 *389:28 *407:28 7.52158e-05
16 *392:28 *407:14 0
17 *406:12 *407:6 0.0021165
*RES
1 *1132:X *407:6 34.1625 
2 *407:6 *407:14 44.9337 
3 *407:14 *407:28 42.7707 
4 *407:28 *1330:A 20 
*END

*D_NET *408 0.0040062
*CONN
*I *1331:A I *D sg13g2_buf_1
*I *1133:X O *D sg13g2_buf_1
*CAP
1 *1331:A 0
2 *1133:X 0.00129509
3 *408:18 0.000628222
4 *408:8 0.00192331
5 *408:8 *409:16 0
6 *408:18 *1333:A 0
7 *408:18 *1334:A 4.77425e-05
8 *408:18 *409:16 0
9 FrameStrobe_O[18] *408:18 0
10 *77:17 *408:8 0
11 *392:28 *408:18 0
12 *406:12 *408:8 0
13 *407:14 *408:8 0.00011183
14 *407:28 *408:18 0
*RES
1 *1133:X *408:8 23.4205 
2 *408:8 *408:18 46.3963 
3 *408:18 *1331:A 20 
*END

*D_NET *409 0.00408985
*CONN
*I *1332:A I *D sg13g2_buf_1
*I *1134:X O *D sg13g2_buf_1
*CAP
1 *1332:A 0
2 *1134:X 8.04351e-05
3 *409:16 0.00181885
4 *409:8 0.00189928
5 *1133:A *409:16 0
6 *31:9 *409:8 0.000291291
7 *407:14 *409:16 0
8 *408:8 *409:16 0
9 *408:18 *409:16 0
*RES
1 *1134:X *409:8 41.339 
2 *409:8 *409:16 38.3855 
3 *409:16 *1332:A 20 
*END

*D_NET *410 0.000494669
*CONN
*I *1333:A I *D sg13g2_buf_1
*I *1135:X O *D sg13g2_buf_1
*CAP
1 *1333:A 0.000247335
2 *1135:X 0.000247335
3 *1333:A *1335:A 0
4 *408:18 *1333:A 0
*RES
1 *1135:X *1333:A 42.5956 
*END

*D_NET *411 0.00311484
*CONN
*I *1334:A I *D sg13g2_buf_1
*I *1136:X O *D sg13g2_buf_1
*CAP
1 *1334:A 3.09083e-05
2 *1136:X 0.000530164
3 *411:8 0.000561072
4 FrameStrobe_O[18] *1334:A 0
5 *389:28 *411:8 0.00194495
6 *408:18 *1334:A 4.77425e-05
*RES
1 *1136:X *411:8 49.0022 
2 *411:8 *1334:A 40.3193 
*END

*D_NET *412 0.018721
*CONN
*I *1079:D I *D sg13g2_dlhq_1
*I *1111:A I *D sg13g2_buf_1
*I *1235:X O *D sg13g2_buf_1
*CAP
1 *1079:D 0.000547623
2 *1111:A 6.34193e-05
3 *1235:X 8.71536e-05
4 *412:36 0.000668375
5 *412:30 0.00151675
6 *412:22 0.00306422
7 *412:18 0.00343918
8 *412:8 0.000826288
9 N2BEGb[5] *412:22 0
10 N2BEGb[6] *412:22 0.00176488
11 N4BEG[15] *1079:D 0.000711871
12 N4BEG[15] *412:30 0.000179079
13 N4BEG[6] *412:30 0.000208174
14 N4BEG[9] *412:22 0.00150226
15 NN4BEG[4] *412:22 0
16 NN4BEG[6] *1079:D 0
17 NN4BEG[7] *412:22 0
18 *1196:A *412:18 0.00050146
19 *1197:A *412:18 0
20 *1199:A *1079:D 0
21 *1236:A *412:18 0
22 *123:10 *412:22 0.00181795
23 *134:16 *1079:D 0.000371288
24 *134:16 *412:30 0.000179494
25 *145:16 *412:36 0
26 *162:8 *412:30 0.000175833
27 *179:19 *412:22 0
28 *180:25 *412:22 0
29 *290:8 *412:18 0
30 *301:16 *412:18 0
31 *301:16 *412:22 0
32 *314:22 *412:36 0
33 *329:20 *412:30 0.000175693
34 *343:22 *1079:D 0.000873601
35 *356:22 *1079:D 0
36 *361:47 *412:36 4.63914e-05
37 *365:24 *412:36 0
*RES
1 *1235:X *412:8 40.8446 
2 *412:8 *412:18 48.2194 
3 *412:18 *412:22 31.5077 
4 *412:22 *412:30 43.9758 
5 *412:30 *412:36 43.6583 
6 *412:36 *1111:A 40.5356 
7 *412:30 *1079:D 47.4366 
*END

*D_NET *413 0.00214733
*CONN
*I *1335:A I *D sg13g2_buf_1
*I *1137:X O *D sg13g2_buf_1
*CAP
1 *1335:A 0.000297091
2 *1137:X 0.000312051
3 *413:8 0.000609142
4 *1333:A *1335:A 0
5 *392:28 *413:8 0
6 *393:22 *413:8 0.000929045
*RES
1 *1137:X *413:8 44.3054 
2 *413:8 *1335:A 42.8325 
*END

*D_NET *414 0.00663834
*CONN
*I *1336:A I *D sg13g2_buf_1
*I *1119:X O *D sg13g2_buf_1
*CAP
1 *1336:A 0
2 *1119:X 0.00217194
3 *414:16 0.000535596
4 *414:10 0.00270754
5 *414:16 *422:12 0
6 *1127:A *414:10 0
7 *1128:A *414:10 0.000240377
8 *98:10 *414:16 0
9 *99:8 *414:16 0
10 *202:11 *414:10 0
11 *209:13 *414:10 0
12 *210:13 *414:10 1.54008e-05
13 *214:11 *414:10 0
14 *330:6 *414:10 0
15 *363:8 *414:10 0.00079007
16 *402:14 *414:16 0
17 *403:6 *414:10 0.000177415
*RES
1 *1119:X *414:10 41.7845 
2 *414:10 *414:16 45.2942 
3 *414:16 *1336:A 20 
*END

*D_NET *415 0.0167649
*CONN
*I *1337:A I *D sg13g2_buf_1
*I *1120:X O *D sg13g2_buf_1
*CAP
1 *1337:A 0.00134797
2 *1120:X 0.000622942
3 *415:26 0.0035314
4 *415:22 0.00285174
5 *415:10 0.00129126
6 *1337:A *1340:A 0.00111411
7 *1337:A *416:14 0
8 *415:26 *421:20 0.003594
9 FrameStrobe_O[5] *1337:A 0
10 FrameStrobe_O[7] *1337:A 0
11 *31:5 *415:10 0.00199914
12 *234:10 *415:22 0
13 *234:10 *415:26 7.51285e-05
14 *269:12 *415:22 0.000337176
15 *271:8 *415:10 0
16 *349:12 *415:26 0
17 *351:10 *415:10 0
18 *353:10 *415:26 0
19 *380:14 *415:26 0
*RES
1 *1120:X *415:10 49.5687 
2 *415:10 *415:22 46.5302 
3 *415:22 *415:26 48.0366 
4 *415:26 *1337:A 33.4312 
*END

*D_NET *416 0.0152962
*CONN
*I *1338:A I *D sg13g2_buf_1
*I *1121:X O *D sg13g2_buf_1
*CAP
1 *1338:A 0
2 *1121:X 0.000346523
3 *416:14 0.00133288
4 *416:10 0.00364379
5 *416:8 0.00265743
6 *1337:A *416:14 0
7 *7:21 *416:10 0
8 *32:19 *416:10 0
9 *269:14 *416:10 0
10 *294:8 *416:8 0
11 *351:10 *416:10 0
12 *360:10 *416:10 0.00520034
13 *405:8 *416:14 0.00211522
*RES
1 *1121:X *416:8 43.1312 
2 *416:8 *416:10 32.4862 
3 *416:10 *416:14 34.1625 
4 *416:14 *1338:A 20 
*END

*D_NET *417 0.00549997
*CONN
*I *1339:A I *D sg13g2_buf_1
*I *1122:X O *D sg13g2_buf_1
*CAP
1 *1339:A 0
2 *1122:X 0.00148244
3 *417:16 0.000725371
4 *417:6 0.00220781
5 *417:6 *422:6 0
6 *417:16 *1340:A 0
7 *417:16 *1342:A 0.000370764
8 FrameStrobe_O[7] *417:16 0
9 FrameStrobe_O[9] *417:16 0
10 *403:12 *417:16 0.000713588
11 *404:12 *417:16 0
12 *405:8 *417:6 0
*RES
1 *1122:X *417:6 22.245 
2 *417:6 *417:16 47.8795 
3 *417:16 *1339:A 20 
*END

*D_NET *418 0.0111393
*CONN
*I *1340:A I *D sg13g2_buf_1
*I *1123:X O *D sg13g2_buf_1
*CAP
1 *1340:A 0.000683672
2 *1123:X 0.000973526
3 *418:12 0.00347791
4 *418:8 0.00376777
5 *1340:A *1342:A 0
6 *1337:A *1340:A 0.00111411
7 *10:21 *418:12 0
8 *336:10 *418:8 0.000726442
9 *338:20 *418:12 0.000395897
10 *364:14 *418:12 0
11 *384:38 *418:12 0
12 *417:16 *1340:A 0
*RES
1 *1123:X *418:8 49.8365 
2 *418:8 *418:12 43.3398 
3 *418:12 *1340:A 27.4572 
*END

*D_NET *419 0.0103638
*CONN
*I *1341:A I *D sg13g2_buf_1
*I *1124:X O *D sg13g2_buf_1
*CAP
1 *1341:A 0
2 *1124:X 0.000909894
3 *419:20 0.00163314
4 *419:8 0.00254304
5 *419:20 *1342:A 0
6 *419:20 *1343:A 0
7 FrameStrobe_O[11] *419:20 0
8 FrameStrobe_O[9] *419:20 0
9 *10:21 *419:20 0.00263859
10 *76:17 *419:8 0
11 *381:12 *419:20 0.00263909
*RES
1 *1124:X *419:8 49.1876 
2 *419:8 *419:20 43.0061 
3 *419:20 *1341:A 20 
*END

*D_NET *420 0.0108411
*CONN
*I *1342:A I *D sg13g2_buf_1
*I *1125:X O *D sg13g2_buf_1
*CAP
1 *1342:A 0.000744293
2 *1125:X 0.0012726
3 *420:12 0.00356263
4 *420:8 0.00409094
5 FrameData_O[3] *420:8 7.98484e-05
6 FrameData_O[6] *420:8 0
7 *1086:A *420:8 0
8 *1092:A *420:8 0
9 *1095:A *420:8 4.77702e-05
10 *1096:A *420:8 4.77699e-05
11 *1098:A *420:8 0
12 *1099:A *420:8 0.000240786
13 *1102:A *420:12 0
14 *1125:A *420:8 0
15 *1297:A *420:8 0
16 *1299:A *420:8 0
17 *1305:A *420:8 0
18 *1324:A *420:8 0
19 *1340:A *1342:A 0
20 *10:21 *420:12 0
21 *77:13 *420:8 0
22 *366:10 *420:8 0.000208035
23 *384:38 *420:12 0
24 *384:56 *420:12 0
25 *386:26 *420:8 0
26 *397:14 *420:8 0.000175693
27 *417:16 *1342:A 0.000370764
28 *419:20 *1342:A 0
*RES
1 *1125:X *420:8 33.2149 
2 *420:8 *420:12 45.3174 
3 *420:12 *1342:A 47.4572 
*END

*D_NET *421 0.0143331
*CONN
*I *1343:A I *D sg13g2_buf_1
*I *1126:X O *D sg13g2_buf_1
*CAP
1 *1343:A 0.0013827
2 *1126:X 0.000630542
3 *421:20 0.00307922
4 *421:16 0.00231923
5 *421:10 0.00125325
6 FrameStrobe_O[11] *1343:A 0
7 FrameStrobe_O[13] *1343:A 0
8 *1326:A *1343:A 0
9 *1327:A *1343:A 0.000467267
10 *31:5 *421:10 0.00148405
11 *31:9 *421:10 0
12 *351:6 *421:16 0
13 *351:10 *421:10 0
14 *353:6 *421:16 4.77425e-05
15 *353:10 *421:20 7.51285e-05
16 *369:24 *421:20 0
17 *380:14 *421:20 0
18 *407:6 *1343:A 0
19 *415:26 *421:20 0.003594
20 *419:20 *1343:A 0
*RES
1 *1126:X *421:10 48.8271 
2 *421:10 *421:16 45.5105 
3 *421:16 *421:20 39.6318 
4 *421:20 *1343:A 30.9635 
*END

*D_NET *422 0.00545951
*CONN
*I *1344:A I *D sg13g2_buf_1
*I *1127:X O *D sg13g2_buf_1
*CAP
1 *1344:A 0
2 *1127:X 0.00176294
3 *422:12 0.000370717
4 *422:6 0.00213365
5 *330:14 *422:6 0
6 *389:28 *422:12 0.00119221
7 *402:14 *422:12 0
8 *403:6 *422:6 0
9 *404:6 *422:6 0
10 *405:16 *422:12 0
11 *414:16 *422:12 0
12 *417:6 *422:6 0
*RES
1 *1127:X *422:6 25.0907 
2 *422:6 *422:12 45.5414 
3 *422:12 *1344:A 20 
*END
