*SPEF "ieee 1481-1999"
*DESIGN "N_term_DSP"
*DATE "20:48:23 Monday August 25, 2025"
*VENDOR "The OpenROAD Project"
*PROGRAM "OpenROAD"
*VERSION "341650e72dad0dc8571822ff8c5d9c5e365327f7"
*DESIGN_FLOW "NAME_SCOPE LOCAL" "PIN_CAP NONE"
*DIVIDER /
*DELIMITER :
*BUS_DELIMITER []
*T_UNIT 1 NS
*C_UNIT 1 PF
*R_UNIT 1 OHM
*L_UNIT 1 HENRY

*NAME_MAP
*1 FrameData[0]
*2 FrameData[10]
*3 FrameData[11]
*4 FrameData[12]
*5 FrameData[13]
*6 FrameData[14]
*7 FrameData[15]
*8 FrameData[16]
*9 FrameData[17]
*10 FrameData[18]
*11 FrameData[19]
*12 FrameData[1]
*13 FrameData[20]
*14 FrameData[21]
*15 FrameData[22]
*16 FrameData[23]
*17 FrameData[24]
*18 FrameData[25]
*19 FrameData[26]
*20 FrameData[27]
*21 FrameData[28]
*22 FrameData[29]
*23 FrameData[2]
*24 FrameData[30]
*25 FrameData[31]
*26 FrameData[3]
*27 FrameData[4]
*28 FrameData[5]
*29 FrameData[6]
*30 FrameData[7]
*31 FrameData[8]
*32 FrameData[9]
*33 FrameData_O[0]
*34 FrameData_O[10]
*35 FrameData_O[11]
*36 FrameData_O[12]
*37 FrameData_O[13]
*38 FrameData_O[14]
*39 FrameData_O[15]
*40 FrameData_O[16]
*41 FrameData_O[17]
*42 FrameData_O[18]
*43 FrameData_O[19]
*44 FrameData_O[1]
*45 FrameData_O[20]
*46 FrameData_O[21]
*47 FrameData_O[22]
*48 FrameData_O[23]
*49 FrameData_O[24]
*50 FrameData_O[25]
*51 FrameData_O[26]
*52 FrameData_O[27]
*53 FrameData_O[28]
*54 FrameData_O[29]
*55 FrameData_O[2]
*56 FrameData_O[30]
*57 FrameData_O[31]
*58 FrameData_O[3]
*59 FrameData_O[4]
*60 FrameData_O[5]
*61 FrameData_O[6]
*62 FrameData_O[7]
*63 FrameData_O[8]
*64 FrameData_O[9]
*65 FrameStrobe[0]
*66 FrameStrobe[10]
*67 FrameStrobe[11]
*68 FrameStrobe[12]
*69 FrameStrobe[13]
*70 FrameStrobe[14]
*71 FrameStrobe[15]
*72 FrameStrobe[16]
*73 FrameStrobe[17]
*74 FrameStrobe[18]
*75 FrameStrobe[19]
*76 FrameStrobe[1]
*77 FrameStrobe[2]
*78 FrameStrobe[3]
*79 FrameStrobe[4]
*80 FrameStrobe[5]
*81 FrameStrobe[6]
*82 FrameStrobe[7]
*83 FrameStrobe[8]
*84 FrameStrobe[9]
*85 FrameStrobe_O[0]
*86 FrameStrobe_O[10]
*87 FrameStrobe_O[11]
*88 FrameStrobe_O[12]
*89 FrameStrobe_O[13]
*90 FrameStrobe_O[14]
*91 FrameStrobe_O[15]
*92 FrameStrobe_O[16]
*93 FrameStrobe_O[17]
*94 FrameStrobe_O[18]
*95 FrameStrobe_O[19]
*96 FrameStrobe_O[1]
*97 FrameStrobe_O[2]
*98 FrameStrobe_O[3]
*99 FrameStrobe_O[4]
*100 FrameStrobe_O[5]
*101 FrameStrobe_O[6]
*102 FrameStrobe_O[7]
*103 FrameStrobe_O[8]
*104 FrameStrobe_O[9]
*105 N1END[0]
*106 N1END[1]
*107 N1END[2]
*108 N1END[3]
*109 N2END[0]
*110 N2END[1]
*111 N2END[2]
*112 N2END[3]
*113 N2END[4]
*114 N2END[5]
*115 N2END[6]
*116 N2END[7]
*117 N2MID[0]
*118 N2MID[1]
*119 N2MID[2]
*120 N2MID[3]
*121 N2MID[4]
*122 N2MID[5]
*123 N2MID[6]
*124 N2MID[7]
*125 N4END[0]
*126 N4END[10]
*127 N4END[11]
*128 N4END[12]
*129 N4END[13]
*130 N4END[14]
*131 N4END[15]
*132 N4END[1]
*133 N4END[2]
*134 N4END[3]
*135 N4END[4]
*136 N4END[5]
*137 N4END[6]
*138 N4END[7]
*139 N4END[8]
*140 N4END[9]
*141 NN4END[0]
*142 NN4END[10]
*143 NN4END[11]
*144 NN4END[12]
*145 NN4END[13]
*146 NN4END[14]
*147 NN4END[15]
*148 NN4END[1]
*149 NN4END[2]
*150 NN4END[3]
*151 NN4END[4]
*152 NN4END[5]
*153 NN4END[6]
*154 NN4END[7]
*155 NN4END[8]
*156 NN4END[9]
*157 S1BEG[0]
*158 S1BEG[1]
*159 S1BEG[2]
*160 S1BEG[3]
*161 S2BEG[0]
*162 S2BEG[1]
*163 S2BEG[2]
*164 S2BEG[3]
*165 S2BEG[4]
*166 S2BEG[5]
*167 S2BEG[6]
*168 S2BEG[7]
*169 S2BEGb[0]
*170 S2BEGb[1]
*171 S2BEGb[2]
*172 S2BEGb[3]
*173 S2BEGb[4]
*174 S2BEGb[5]
*175 S2BEGb[6]
*176 S2BEGb[7]
*177 S4BEG[0]
*178 S4BEG[10]
*179 S4BEG[11]
*180 S4BEG[12]
*181 S4BEG[13]
*182 S4BEG[14]
*183 S4BEG[15]
*184 S4BEG[1]
*185 S4BEG[2]
*186 S4BEG[3]
*187 S4BEG[4]
*188 S4BEG[5]
*189 S4BEG[6]
*190 S4BEG[7]
*191 S4BEG[8]
*192 S4BEG[9]
*193 SS4BEG[0]
*194 SS4BEG[10]
*195 SS4BEG[11]
*196 SS4BEG[12]
*197 SS4BEG[13]
*198 SS4BEG[14]
*199 SS4BEG[15]
*200 SS4BEG[1]
*201 SS4BEG[2]
*202 SS4BEG[3]
*203 SS4BEG[4]
*204 SS4BEG[5]
*205 SS4BEG[6]
*206 SS4BEG[7]
*207 SS4BEG[8]
*208 SS4BEG[9]
*209 UserCLK
*210 UserCLKo
*213 net1
*214 net10
*215 net100
*216 net101
*217 net102
*218 net103
*219 net104
*220 net105
*221 net11
*222 net12
*223 net13
*224 net14
*225 net15
*226 net16
*227 net17
*228 net18
*229 net19
*230 net2
*231 net20
*232 net21
*233 net22
*234 net23
*235 net24
*236 net25
*237 net26
*238 net27
*239 net28
*240 net29
*241 net3
*242 net30
*243 net31
*244 net32
*245 net33
*246 net34
*247 net35
*248 net36
*249 net37
*250 net38
*251 net39
*252 net4
*253 net40
*254 net41
*255 net42
*256 net43
*257 net44
*258 net45
*259 net46
*260 net47
*261 net48
*262 net49
*263 net5
*264 net50
*265 net51
*266 net52
*267 net53
*268 net54
*269 net55
*270 net56
*271 net57
*272 net58
*273 net59
*274 net6
*275 net60
*276 net61
*277 net62
*278 net63
*279 net64
*280 net65
*281 net66
*282 net67
*283 net68
*284 net69
*285 net7
*286 net70
*287 net71
*288 net72
*289 net73
*290 net74
*291 net75
*292 net76
*293 net77
*294 net78
*295 net79
*296 net8
*297 net80
*298 net81
*299 net82
*300 net83
*301 net84
*302 net85
*303 net86
*304 net87
*305 net88
*306 net89
*307 net9
*308 net90
*309 net91
*310 net92
*311 net93
*312 net94
*313 net95
*314 net96
*315 net97
*316 net98
*317 net99
*318 FILLER_0_0
*319 FILLER_0_105
*320 FILLER_0_109
*321 FILLER_0_14
*322 FILLER_0_146
*323 FILLER_0_21
*324 FILLER_0_28
*325 FILLER_0_287
*326 FILLER_0_294
*327 FILLER_0_301
*328 FILLER_0_308
*329 FILLER_0_315
*330 FILLER_0_322
*331 FILLER_0_329
*332 FILLER_0_336
*333 FILLER_0_343
*334 FILLER_0_35
*335 FILLER_0_350
*336 FILLER_0_42
*337 FILLER_0_49
*338 FILLER_0_56
*339 FILLER_0_63
*340 FILLER_0_7
*341 FILLER_0_70
*342 FILLER_0_77
*343 FILLER_0_84
*344 FILLER_0_91
*345 FILLER_0_98
*346 FILLER_10_0
*347 FILLER_10_105
*348 FILLER_10_112
*349 FILLER_10_119
*350 FILLER_10_126
*351 FILLER_10_133
*352 FILLER_10_14
*353 FILLER_10_140
*354 FILLER_10_147
*355 FILLER_10_154
*356 FILLER_10_161
*357 FILLER_10_168
*358 FILLER_10_175
*359 FILLER_10_182
*360 FILLER_10_184
*361 FILLER_10_189
*362 FILLER_10_198
*363 FILLER_10_205
*364 FILLER_10_21
*365 FILLER_10_212
*366 FILLER_10_219
*367 FILLER_10_226
*368 FILLER_10_233
*369 FILLER_10_240
*370 FILLER_10_247
*371 FILLER_10_254
*372 FILLER_10_261
*373 FILLER_10_268
*374 FILLER_10_275
*375 FILLER_10_28
*376 FILLER_10_282
*377 FILLER_10_289
*378 FILLER_10_296
*379 FILLER_10_303
*380 FILLER_10_310
*381 FILLER_10_317
*382 FILLER_10_324
*383 FILLER_10_331
*384 FILLER_10_338
*385 FILLER_10_345
*386 FILLER_10_35
*387 FILLER_10_352
*388 FILLER_10_356
*389 FILLER_10_42
*390 FILLER_10_49
*391 FILLER_10_56
*392 FILLER_10_63
*393 FILLER_10_7
*394 FILLER_10_70
*395 FILLER_10_77
*396 FILLER_10_84
*397 FILLER_10_91
*398 FILLER_10_98
*399 FILLER_11_0
*400 FILLER_11_106
*401 FILLER_11_117
*402 FILLER_11_124
*403 FILLER_11_135
*404 FILLER_11_142
*405 FILLER_11_153
*406 FILLER_11_16
*407 FILLER_11_160
*408 FILLER_11_171
*409 FILLER_11_178
*410 FILLER_11_195
*411 FILLER_11_202
*412 FILLER_11_207
*413 FILLER_11_214
*414 FILLER_11_225
*415 FILLER_11_232
*416 FILLER_11_243
*417 FILLER_11_250
*418 FILLER_11_261
*419 FILLER_11_268
*420 FILLER_11_27
*421 FILLER_11_279
*422 FILLER_11_286
*423 FILLER_11_297
*424 FILLER_11_304
*425 FILLER_11_315
*426 FILLER_11_322
*427 FILLER_11_333
*428 FILLER_11_34
*429 FILLER_11_340
*430 FILLER_11_351
*431 FILLER_11_4
*432 FILLER_11_45
*433 FILLER_11_52
*434 FILLER_11_63
*435 FILLER_11_70
*436 FILLER_11_81
*437 FILLER_11_88
*438 FILLER_11_9
*439 FILLER_11_99
*440 FILLER_1_0
*441 FILLER_1_105
*442 FILLER_1_112
*443 FILLER_1_118
*444 FILLER_1_127
*445 FILLER_1_14
*446 FILLER_1_21
*447 FILLER_1_277
*448 FILLER_1_28
*449 FILLER_1_284
*450 FILLER_1_291
*451 FILLER_1_298
*452 FILLER_1_305
*453 FILLER_1_312
*454 FILLER_1_319
*455 FILLER_1_326
*456 FILLER_1_333
*457 FILLER_1_340
*458 FILLER_1_347
*459 FILLER_1_35
*460 FILLER_1_354
*461 FILLER_1_42
*462 FILLER_1_49
*463 FILLER_1_56
*464 FILLER_1_63
*465 FILLER_1_7
*466 FILLER_1_70
*467 FILLER_1_77
*468 FILLER_1_84
*469 FILLER_1_91
*470 FILLER_1_98
*471 FILLER_2_0
*472 FILLER_2_105
*473 FILLER_2_112
*474 FILLER_2_119
*475 FILLER_2_126
*476 FILLER_2_133
*477 FILLER_2_14
*478 FILLER_2_140
*479 FILLER_2_171
*480 FILLER_2_193
*481 FILLER_2_200
*482 FILLER_2_21
*483 FILLER_2_269
*484 FILLER_2_276
*485 FILLER_2_28
*486 FILLER_2_283
*487 FILLER_2_290
*488 FILLER_2_297
*489 FILLER_2_304
*490 FILLER_2_311
*491 FILLER_2_318
*492 FILLER_2_325
*493 FILLER_2_332
*494 FILLER_2_339
*495 FILLER_2_346
*496 FILLER_2_35
*497 FILLER_2_353
*498 FILLER_2_360
*499 FILLER_2_364
*500 FILLER_2_42
*501 FILLER_2_49
*502 FILLER_2_56
*503 FILLER_2_63
*504 FILLER_2_7
*505 FILLER_2_70
*506 FILLER_2_77
*507 FILLER_2_84
*508 FILLER_2_91
*509 FILLER_2_98
*510 FILLER_3_0
*511 FILLER_3_105
*512 FILLER_3_112
*513 FILLER_3_119
*514 FILLER_3_126
*515 FILLER_3_133
*516 FILLER_3_14
*517 FILLER_3_140
*518 FILLER_3_147
*519 FILLER_3_154
*520 FILLER_3_161
*521 FILLER_3_168
*522 FILLER_3_175
*523 FILLER_3_177
*524 FILLER_3_194
*525 FILLER_3_200
*526 FILLER_3_207
*527 FILLER_3_21
*528 FILLER_3_214
*529 FILLER_3_221
*530 FILLER_3_228
*531 FILLER_3_235
*532 FILLER_3_242
*533 FILLER_3_249
*534 FILLER_3_256
*535 FILLER_3_263
*536 FILLER_3_270
*537 FILLER_3_277
*538 FILLER_3_28
*539 FILLER_3_284
*540 FILLER_3_291
*541 FILLER_3_298
*542 FILLER_3_305
*543 FILLER_3_312
*544 FILLER_3_319
*545 FILLER_3_326
*546 FILLER_3_333
*547 FILLER_3_340
*548 FILLER_3_347
*549 FILLER_3_35
*550 FILLER_3_354
*551 FILLER_3_361
*552 FILLER_3_42
*553 FILLER_3_49
*554 FILLER_3_56
*555 FILLER_3_63
*556 FILLER_3_7
*557 FILLER_3_70
*558 FILLER_3_77
*559 FILLER_3_84
*560 FILLER_3_91
*561 FILLER_3_98
*562 FILLER_4_0
*563 FILLER_4_105
*564 FILLER_4_112
*565 FILLER_4_119
*566 FILLER_4_126
*567 FILLER_4_133
*568 FILLER_4_139
*569 FILLER_4_14
*570 FILLER_4_146
*571 FILLER_4_153
*572 FILLER_4_160
*573 FILLER_4_167
*574 FILLER_4_174
*575 FILLER_4_181
*576 FILLER_4_185
*577 FILLER_4_191
*578 FILLER_4_195
*579 FILLER_4_204
*580 FILLER_4_21
*581 FILLER_4_211
*582 FILLER_4_218
*583 FILLER_4_225
*584 FILLER_4_232
*585 FILLER_4_236
*586 FILLER_4_242
*587 FILLER_4_249
*588 FILLER_4_256
*589 FILLER_4_263
*590 FILLER_4_270
*591 FILLER_4_277
*592 FILLER_4_28
*593 FILLER_4_284
*594 FILLER_4_286
*595 FILLER_4_291
*596 FILLER_4_298
*597 FILLER_4_305
*598 FILLER_4_312
*599 FILLER_4_316
*600 FILLER_4_322
*601 FILLER_4_329
*602 FILLER_4_336
*603 FILLER_4_344
*604 FILLER_4_35
*605 FILLER_4_351
*606 FILLER_4_358
*607 FILLER_4_42
*608 FILLER_4_49
*609 FILLER_4_56
*610 FILLER_4_63
*611 FILLER_4_7
*612 FILLER_4_70
*613 FILLER_4_77
*614 FILLER_4_84
*615 FILLER_4_91
*616 FILLER_4_98
*617 FILLER_5_0
*618 FILLER_5_105
*619 FILLER_5_112
*620 FILLER_5_119
*621 FILLER_5_126
*622 FILLER_5_133
*623 FILLER_5_14
*624 FILLER_5_140
*625 FILLER_5_147
*626 FILLER_5_154
*627 FILLER_5_161
*628 FILLER_5_168
*629 FILLER_5_175
*630 FILLER_5_182
*631 FILLER_5_186
*632 FILLER_5_192
*633 FILLER_5_198
*634 FILLER_5_206
*635 FILLER_5_21
*636 FILLER_5_217
*637 FILLER_5_224
*638 FILLER_5_231
*639 FILLER_5_238
*640 FILLER_5_245
*641 FILLER_5_252
*642 FILLER_5_259
*643 FILLER_5_266
*644 FILLER_5_28
*645 FILLER_5_281
*646 FILLER_5_288
*647 FILLER_5_295
*648 FILLER_5_302
*649 FILLER_5_309
*650 FILLER_5_316
*651 FILLER_5_323
*652 FILLER_5_330
*653 FILLER_5_337
*654 FILLER_5_344
*655 FILLER_5_35
*656 FILLER_5_351
*657 FILLER_5_358
*658 FILLER_5_42
*659 FILLER_5_49
*660 FILLER_5_56
*661 FILLER_5_63
*662 FILLER_5_7
*663 FILLER_5_70
*664 FILLER_5_77
*665 FILLER_5_84
*666 FILLER_5_91
*667 FILLER_5_98
*668 FILLER_6_0
*669 FILLER_6_105
*670 FILLER_6_112
*671 FILLER_6_119
*672 FILLER_6_126
*673 FILLER_6_133
*674 FILLER_6_14
*675 FILLER_6_140
*676 FILLER_6_147
*677 FILLER_6_154
*678 FILLER_6_160
*679 FILLER_6_175
*680 FILLER_6_179
*681 FILLER_6_193
*682 FILLER_6_200
*683 FILLER_6_205
*684 FILLER_6_21
*685 FILLER_6_212
*686 FILLER_6_219
*687 FILLER_6_226
*688 FILLER_6_233
*689 FILLER_6_240
*690 FILLER_6_247
*691 FILLER_6_254
*692 FILLER_6_261
*693 FILLER_6_268
*694 FILLER_6_275
*695 FILLER_6_28
*696 FILLER_6_282
*697 FILLER_6_289
*698 FILLER_6_296
*699 FILLER_6_298
*700 FILLER_6_303
*701 FILLER_6_310
*702 FILLER_6_316
*703 FILLER_6_323
*704 FILLER_6_327
*705 FILLER_6_333
*706 FILLER_6_340
*707 FILLER_6_347
*708 FILLER_6_35
*709 FILLER_6_354
*710 FILLER_6_361
*711 FILLER_6_42
*712 FILLER_6_49
*713 FILLER_6_56
*714 FILLER_6_63
*715 FILLER_6_7
*716 FILLER_6_70
*717 FILLER_6_77
*718 FILLER_6_84
*719 FILLER_6_91
*720 FILLER_6_98
*721 FILLER_7_0
*722 FILLER_7_105
*723 FILLER_7_112
*724 FILLER_7_119
*725 FILLER_7_126
*726 FILLER_7_133
*727 FILLER_7_14
*728 FILLER_7_140
*729 FILLER_7_147
*730 FILLER_7_154
*731 FILLER_7_161
*732 FILLER_7_168
*733 FILLER_7_175
*734 FILLER_7_179
*735 FILLER_7_196
*736 FILLER_7_200
*737 FILLER_7_205
*738 FILLER_7_21
*739 FILLER_7_212
*740 FILLER_7_219
*741 FILLER_7_226
*742 FILLER_7_233
*743 FILLER_7_240
*744 FILLER_7_247
*745 FILLER_7_254
*746 FILLER_7_261
*747 FILLER_7_268
*748 FILLER_7_275
*749 FILLER_7_28
*750 FILLER_7_282
*751 FILLER_7_289
*752 FILLER_7_296
*753 FILLER_7_303
*754 FILLER_7_310
*755 FILLER_7_317
*756 FILLER_7_324
*757 FILLER_7_331
*758 FILLER_7_338
*759 FILLER_7_345
*760 FILLER_7_35
*761 FILLER_7_352
*762 FILLER_7_359
*763 FILLER_7_363
*764 FILLER_7_42
*765 FILLER_7_49
*766 FILLER_7_56
*767 FILLER_7_63
*768 FILLER_7_7
*769 FILLER_7_70
*770 FILLER_7_77
*771 FILLER_7_84
*772 FILLER_7_91
*773 FILLER_7_98
*774 FILLER_8_0
*775 FILLER_8_105
*776 FILLER_8_112
*777 FILLER_8_119
*778 FILLER_8_126
*779 FILLER_8_133
*780 FILLER_8_14
*781 FILLER_8_140
*782 FILLER_8_147
*783 FILLER_8_154
*784 FILLER_8_161
*785 FILLER_8_168
*786 FILLER_8_175
*787 FILLER_8_182
*788 FILLER_8_192
*789 FILLER_8_199
*790 FILLER_8_206
*791 FILLER_8_21
*792 FILLER_8_213
*793 FILLER_8_220
*794 FILLER_8_227
*795 FILLER_8_234
*796 FILLER_8_241
*797 FILLER_8_248
*798 FILLER_8_255
*799 FILLER_8_262
*800 FILLER_8_269
*801 FILLER_8_276
*802 FILLER_8_28
*803 FILLER_8_283
*804 FILLER_8_290
*805 FILLER_8_297
*806 FILLER_8_304
*807 FILLER_8_311
*808 FILLER_8_318
*809 FILLER_8_325
*810 FILLER_8_332
*811 FILLER_8_339
*812 FILLER_8_346
*813 FILLER_8_35
*814 FILLER_8_353
*815 FILLER_8_360
*816 FILLER_8_364
*817 FILLER_8_42
*818 FILLER_8_49
*819 FILLER_8_56
*820 FILLER_8_63
*821 FILLER_8_7
*822 FILLER_8_70
*823 FILLER_8_77
*824 FILLER_8_84
*825 FILLER_8_91
*826 FILLER_8_98
*827 FILLER_9_0
*828 FILLER_9_105
*829 FILLER_9_112
*830 FILLER_9_119
*831 FILLER_9_126
*832 FILLER_9_133
*833 FILLER_9_14
*834 FILLER_9_140
*835 FILLER_9_147
*836 FILLER_9_154
*837 FILLER_9_161
*838 FILLER_9_168
*839 FILLER_9_175
*840 FILLER_9_182
*841 FILLER_9_186
*842 FILLER_9_200
*843 FILLER_9_207
*844 FILLER_9_21
*845 FILLER_9_214
*846 FILLER_9_221
*847 FILLER_9_228
*848 FILLER_9_235
*849 FILLER_9_242
*850 FILLER_9_249
*851 FILLER_9_256
*852 FILLER_9_263
*853 FILLER_9_270
*854 FILLER_9_277
*855 FILLER_9_28
*856 FILLER_9_284
*857 FILLER_9_291
*858 FILLER_9_298
*859 FILLER_9_305
*860 FILLER_9_312
*861 FILLER_9_319
*862 FILLER_9_326
*863 FILLER_9_333
*864 FILLER_9_340
*865 FILLER_9_347
*866 FILLER_9_35
*867 FILLER_9_354
*868 FILLER_9_42
*869 FILLER_9_49
*870 FILLER_9_56
*871 FILLER_9_63
*872 FILLER_9_7
*873 FILLER_9_70
*874 FILLER_9_77
*875 FILLER_9_84
*876 FILLER_9_91
*877 FILLER_9_98
*878 _000_
*879 _001_
*880 _002_
*881 _003_
*882 _004_
*883 _005_
*884 _006_
*885 _007_
*886 _008_
*887 _009_
*888 _010_
*889 _011_
*890 _012_
*891 _013_
*892 _014_
*893 _015_
*894 _016_
*895 _017_
*896 _018_
*897 _019_
*898 _020_
*899 _021_
*900 _022_
*901 _023_
*902 _024_
*903 _025_
*904 _026_
*905 _027_
*906 _028_
*907 _029_
*908 _030_
*909 _031_
*910 _032_
*911 _033_
*912 _034_
*913 _035_
*914 _036_
*915 _037_
*916 _038_
*917 _039_
*918 _040_
*919 _041_
*920 _042_
*921 _043_
*922 _044_
*923 _045_
*924 _046_
*925 _047_
*926 _048_
*927 _049_
*928 _050_
*929 _051_
*930 _052_
*931 _053_
*932 _054_
*933 _055_
*934 _056_
*935 _057_
*936 _058_
*937 _059_
*938 _060_
*939 _061_
*940 _062_
*941 _063_
*942 _064_
*943 _065_
*944 _066_
*945 _067_
*946 _068_
*947 _069_
*948 _070_
*949 _071_
*950 _072_
*951 _073_
*952 _074_
*953 _075_
*954 _076_
*955 _077_
*956 _078_
*957 _079_
*958 _080_
*959 _081_
*960 _082_
*961 _083_
*962 _084_
*963 _085_
*964 _086_
*965 _087_
*966 _088_
*967 _089_
*968 _090_
*969 _091_
*970 _092_
*971 _093_
*972 _094_
*973 _095_
*974 _096_
*975 _097_
*976 _098_
*977 _099_
*978 _100_
*979 _101_
*980 _102_
*981 _103_
*982 _104_
*983 output1
*984 output10
*985 output100
*986 output101
*987 output102
*988 output103
*989 output104
*990 output105
*991 output11
*992 output12
*993 output13
*994 output14
*995 output15
*996 output16
*997 output17
*998 output18
*999 output19
*1000 output2
*1001 output20
*1002 output21
*1003 output22
*1004 output23
*1005 output24
*1006 output25
*1007 output26
*1008 output27
*1009 output28
*1010 output29
*1011 output3
*1012 output30
*1013 output31
*1014 output32
*1015 output33
*1016 output34
*1017 output35
*1018 output36
*1019 output37
*1020 output38
*1021 output39
*1022 output4
*1023 output40
*1024 output41
*1025 output42
*1026 output43
*1027 output44
*1028 output45
*1029 output46
*1030 output47
*1031 output48
*1032 output49
*1033 output5
*1034 output50
*1035 output51
*1036 output52
*1037 output53
*1038 output54
*1039 output55
*1040 output56
*1041 output57
*1042 output58
*1043 output59
*1044 output6
*1045 output60
*1046 output61
*1047 output62
*1048 output63
*1049 output64
*1050 output65
*1051 output66
*1052 output67
*1053 output68
*1054 output69
*1055 output7
*1056 output70
*1057 output71
*1058 output72
*1059 output73
*1060 output74
*1061 output75
*1062 output76
*1063 output77
*1064 output78
*1065 output79
*1066 output8
*1067 output80
*1068 output81
*1069 output82
*1070 output83
*1071 output84
*1072 output85
*1073 output86
*1074 output87
*1075 output88
*1076 output89
*1077 output9
*1078 output90
*1079 output91
*1080 output92
*1081 output93
*1082 output94
*1083 output95
*1084 output96
*1085 output97
*1086 output98
*1087 output99

*PORTS
FrameData[0] I
FrameData[10] I
FrameData[11] I
FrameData[12] I
FrameData[13] I
FrameData[14] I
FrameData[15] I
FrameData[16] I
FrameData[17] I
FrameData[18] I
FrameData[19] I
FrameData[1] I
FrameData[20] I
FrameData[21] I
FrameData[22] I
FrameData[23] I
FrameData[24] I
FrameData[25] I
FrameData[26] I
FrameData[27] I
FrameData[28] I
FrameData[29] I
FrameData[2] I
FrameData[30] I
FrameData[31] I
FrameData[3] I
FrameData[4] I
FrameData[5] I
FrameData[6] I
FrameData[7] I
FrameData[8] I
FrameData[9] I
FrameData_O[0] O
FrameData_O[10] O
FrameData_O[11] O
FrameData_O[12] O
FrameData_O[13] O
FrameData_O[14] O
FrameData_O[15] O
FrameData_O[16] O
FrameData_O[17] O
FrameData_O[18] O
FrameData_O[19] O
FrameData_O[1] O
FrameData_O[20] O
FrameData_O[21] O
FrameData_O[22] O
FrameData_O[23] O
FrameData_O[24] O
FrameData_O[25] O
FrameData_O[26] O
FrameData_O[27] O
FrameData_O[28] O
FrameData_O[29] O
FrameData_O[2] O
FrameData_O[30] O
FrameData_O[31] O
FrameData_O[3] O
FrameData_O[4] O
FrameData_O[5] O
FrameData_O[6] O
FrameData_O[7] O
FrameData_O[8] O
FrameData_O[9] O
FrameStrobe[0] I
FrameStrobe[10] I
FrameStrobe[11] I
FrameStrobe[12] I
FrameStrobe[13] I
FrameStrobe[14] I
FrameStrobe[15] I
FrameStrobe[16] I
FrameStrobe[17] I
FrameStrobe[18] I
FrameStrobe[19] I
FrameStrobe[1] I
FrameStrobe[2] I
FrameStrobe[3] I
FrameStrobe[4] I
FrameStrobe[5] I
FrameStrobe[6] I
FrameStrobe[7] I
FrameStrobe[8] I
FrameStrobe[9] I
FrameStrobe_O[0] O
FrameStrobe_O[10] O
FrameStrobe_O[11] O
FrameStrobe_O[12] O
FrameStrobe_O[13] O
FrameStrobe_O[14] O
FrameStrobe_O[15] O
FrameStrobe_O[16] O
FrameStrobe_O[17] O
FrameStrobe_O[18] O
FrameStrobe_O[19] O
FrameStrobe_O[1] O
FrameStrobe_O[2] O
FrameStrobe_O[3] O
FrameStrobe_O[4] O
FrameStrobe_O[5] O
FrameStrobe_O[6] O
FrameStrobe_O[7] O
FrameStrobe_O[8] O
FrameStrobe_O[9] O
N1END[0] I
N1END[1] I
N1END[2] I
N1END[3] I
N2END[0] I
N2END[1] I
N2END[2] I
N2END[3] I
N2END[4] I
N2END[5] I
N2END[6] I
N2END[7] I
N2MID[0] I
N2MID[1] I
N2MID[2] I
N2MID[3] I
N2MID[4] I
N2MID[5] I
N2MID[6] I
N2MID[7] I
N4END[0] I
N4END[10] I
N4END[11] I
N4END[12] I
N4END[13] I
N4END[14] I
N4END[15] I
N4END[1] I
N4END[2] I
N4END[3] I
N4END[4] I
N4END[5] I
N4END[6] I
N4END[7] I
N4END[8] I
N4END[9] I
NN4END[0] I
NN4END[10] I
NN4END[11] I
NN4END[12] I
NN4END[13] I
NN4END[14] I
NN4END[15] I
NN4END[1] I
NN4END[2] I
NN4END[3] I
NN4END[4] I
NN4END[5] I
NN4END[6] I
NN4END[7] I
NN4END[8] I
NN4END[9] I
S1BEG[0] O
S1BEG[1] O
S1BEG[2] O
S1BEG[3] O
S2BEG[0] O
S2BEG[1] O
S2BEG[2] O
S2BEG[3] O
S2BEG[4] O
S2BEG[5] O
S2BEG[6] O
S2BEG[7] O
S2BEGb[0] O
S2BEGb[1] O
S2BEGb[2] O
S2BEGb[3] O
S2BEGb[4] O
S2BEGb[5] O
S2BEGb[6] O
S2BEGb[7] O
S4BEG[0] O
S4BEG[10] O
S4BEG[11] O
S4BEG[12] O
S4BEG[13] O
S4BEG[14] O
S4BEG[15] O
S4BEG[1] O
S4BEG[2] O
S4BEG[3] O
S4BEG[4] O
S4BEG[5] O
S4BEG[6] O
S4BEG[7] O
S4BEG[8] O
S4BEG[9] O
SS4BEG[0] O
SS4BEG[10] O
SS4BEG[11] O
SS4BEG[12] O
SS4BEG[13] O
SS4BEG[14] O
SS4BEG[15] O
SS4BEG[1] O
SS4BEG[2] O
SS4BEG[3] O
SS4BEG[4] O
SS4BEG[5] O
SS4BEG[6] O
SS4BEG[7] O
SS4BEG[8] O
SS4BEG[9] O
UserCLK I
UserCLKo O

*D_NET *1 0.0113588
*CONN
*P FrameData[0] I
*I *878:A I *D sg13g2_buf_1
*CAP
1 FrameData[0] 0.00333032
2 *878:A 0
3 *1:23 0
4 *1:19 0.00175869
5 *1:13 0.00175869
6 *1:9 0.00333032
7 *1:9 *12:9 0
8 *1:9 *106:13 0.000234224
9 *1:9 *138:17 0.000552831
10 *1:9 *152:15 0.000393736
11 *1:19 *213:14 0
12 *1:19 *313:14 0
*RES
1 FrameData[0] *1:9 32.9703 
2 *1:9 *1:13 40 
3 *1:13 *1:19 38.1589 
4 *1:19 *1:23 40 
5 *1:23 *878:A 20 
*END

*D_NET *2 0.0147551
*CONN
*P FrameData[10] I
*I *888:A I *D sg13g2_buf_1
*CAP
1 FrameData[10] 0.0027585
2 *888:A 0
3 *2:21 0
4 *2:17 0.000931359
5 *2:9 0.000931359
6 *2:5 0.0027585
7 *2:5 *3:11 0
8 *2:5 *4:5 0
9 *2:5 *32:5 0
10 *2:5 *110:11 0.00135938
11 *2:5 *110:23 0
12 *2:5 *120:9 0.00337322
13 *2:17 *3:17 0.0024269
14 *2:17 *29:13 0
15 *2:17 *81:27 0
16 *2:17 *311:18 0.000215928
*RES
1 FrameData[10] *2:5 35.5453 
2 *2:5 *2:9 40 
3 *2:9 *2:17 33.6269 
4 *2:17 *2:21 40 
5 *2:21 *888:A 20 
*END

*D_NET *3 0.0125086
*CONN
*P FrameData[11] I
*I *889:A I *D sg13g2_buf_1
*CAP
1 FrameData[11] 0.000385341
2 *889:A 0
3 *3:21 0
4 *3:17 0.002908
5 *3:11 0.00329334
6 *3:11 *4:5 0
7 *3:17 *29:13 0
8 *3:17 *311:18 0.003495
9 *2:5 *3:11 0
10 *2:17 *3:17 0.0024269
*RES
1 FrameData[11] *3:11 44.1303 
2 *3:11 *3:17 44.0325 
3 *3:17 *3:21 40 
4 *3:21 *889:A 40 
*END

*D_NET *4 0.012326
*CONN
*P FrameData[12] I
*I *890:A I *D sg13g2_buf_1
*CAP
1 FrameData[12] 0.00428736
2 *890:A 0.000236456
3 *4:5 0.00452382
4 *890:A *913:A 0
5 *4:5 *5:5 0
6 *4:5 *119:13 0
7 *4:5 *126:33 0
8 *4:5 *128:19 0.00327835
9 *4:5 *133:9 0
10 *2:5 *4:5 0
11 *3:11 *4:5 0
*RES
1 FrameData[12] *4:5 47.6581 
2 *4:5 *890:A 42.0497 
*END

*D_NET *5 0.0125206
*CONN
*P FrameData[13] I
*I *891:A I *D sg13g2_buf_1
*CAP
1 FrameData[13] 0.00404366
2 *891:A 0.000150071
3 *5:5 0.00419373
4 *891:A *258:14 0
5 *891:A *259:10 0
6 *5:5 *6:9 0
7 *5:5 *7:9 0
8 *5:5 *133:9 0
9 *5:5 *134:13 0
10 *5:5 *136:13 0.00413314
11 *5:5 *139:15 0
12 *5:5 *308:10 0
13 *4:5 *5:5 0
*RES
1 FrameData[13] *5:5 48.1525 
2 *5:5 *891:A 41.1845 
*END

*D_NET *6 0.0162342
*CONN
*P FrameData[14] I
*I *892:A I *D sg13g2_buf_1
*CAP
1 FrameData[14] 0.000280695
2 *892:A 0
3 *6:17 0.000292436
4 *6:11 0.00317078
5 *6:9 0.00315903
6 *6:9 *7:9 0
7 *6:11 *30:13 0
8 *6:11 *220:12 0.00933121
9 *6:17 *274:12 0
10 *5:5 *6:9 0
*RES
1 FrameData[14] *6:9 43.1621 
2 *6:9 *6:11 43.363 
3 *6:11 *6:17 42.4823 
4 *6:17 *892:A 40 
*END

*D_NET *7 0.0157218
*CONN
*P FrameData[15] I
*I *893:A I *D sg13g2_buf_1
*CAP
1 FrameData[15] 0.000909907
2 *893:A 5.65199e-05
3 *7:13 0.00260564
4 *7:11 0.00254912
5 *7:9 0.000909907
6 *893:A *894:A 0
7 *7:9 *8:9 0
8 *7:13 *8:9 0
9 *7:13 *9:9 0.0010941
10 *7:13 *10:13 0
11 *7:13 *80:43 0.000664707
12 *7:13 *132:9 0
13 *7:13 *259:14 0
14 *7:13 *260:22 0.0039204
15 *7:13 *261:14 0.00301148
16 *5:5 *7:9 0
17 *6:9 *7:9 0
*RES
1 FrameData[15] *7:9 30.1558 
2 *7:9 *7:11 20 
3 *7:11 *7:13 39.4078 
4 *7:13 *893:A 40.5356 
*END

*D_NET *8 0.0137417
*CONN
*P FrameData[16] I
*I *894:A I *D sg13g2_buf_1
*CAP
1 FrameData[16] 0.00405713
2 *894:A 5.26499e-05
3 *8:9 0.00410978
4 *894:A *258:14 0
5 *8:9 *9:9 0
6 *8:9 *80:43 0
7 *8:9 *125:9 0
8 *8:9 *259:14 0.00552218
9 *893:A *894:A 0
10 *7:9 *8:9 0
11 *7:13 *8:9 0
*RES
1 FrameData[16] *8:9 48.822 
2 *8:9 *894:A 40.4476 
*END

*D_NET *9 0.022092
*CONN
*P FrameData[17] I
*I *895:A I *D sg13g2_buf_1
*CAP
1 FrameData[17] 0.00124998
2 *895:A 4.37077e-05
3 *9:13 0.00146099
4 *9:11 0.00141728
5 *9:9 0.00124998
6 *895:A *223:14 8.00842e-05
7 *895:A *258:14 8.00842e-05
8 *9:9 *10:13 0
9 *9:13 *11:7 0.00760641
10 *9:13 *13:9 0.00739238
11 *9:13 *221:10 0.00012816
12 *9:13 *223:8 0.000288818
13 *7:13 *9:9 0.0010941
14 *8:9 *9:9 0
*RES
1 FrameData[17] *9:9 35.0998 
2 *9:9 *9:11 20 
3 *9:11 *9:13 36.1942 
4 *9:13 *895:A 40.5356 
*END

*D_NET *10 0.0121395
*CONN
*P FrameData[18] I
*I *896:A I *D sg13g2_buf_1
*CAP
1 FrameData[18] 0.0039629
2 *896:A 0
3 *10:13 0.0039629
4 *10:13 *11:7 0.00369992
5 *10:13 *132:9 0.000513752
6 *7:13 *10:13 0
7 *9:9 *10:13 0
*RES
1 FrameData[18] *10:13 47.2358 
2 *10:13 *896:A 40 
*END

*D_NET *11 0.0181111
*CONN
*P FrameData[19] I
*I *897:A I *D sg13g2_buf_1
*CAP
1 FrameData[19] 0.00340237
2 *897:A 0
3 *11:7 0.00340237
4 *11:7 *13:9 0
5 *11:7 *214:10 0
6 *9:13 *11:7 0.00760641
7 *10:13 *11:7 0.00369992
*RES
1 FrameData[19] *11:7 48.4718 
2 *11:7 *897:A 40 
*END

*D_NET *12 0.0145249
*CONN
*P FrameData[1] I
*I *879:A I *D sg13g2_buf_1
*CAP
1 FrameData[1] 0.00207265
2 *879:A 0
3 *12:19 8.03629e-05
4 *12:13 0.00253562
5 *12:11 0.00245526
6 *12:9 0.00207265
7 *12:9 *23:13 0.000209036
8 *12:9 *26:9 0
9 *12:9 *106:13 0.000181192
10 *12:13 *26:13 0
11 *12:13 *135:13 0.00490311
12 *12:19 *23:25 1.4965e-05
13 *1:9 *12:9 0
*RES
1 FrameData[1] *12:9 40.2292 
2 *12:9 *12:11 20 
3 *12:11 *12:13 33.2278 
4 *12:13 *12:19 40.5356 
5 *12:19 *879:A 40 
*END

*D_NET *13 0.0156767
*CONN
*P FrameData[20] I
*I *898:A I *D sg13g2_buf_1
*CAP
1 FrameData[20] 0.00406144
2 *898:A 8.06957e-05
3 *13:9 0.00414214
4 *13:9 *14:5 0
5 *13:9 *245:18 0
6 *9:13 *13:9 0.00739238
7 *11:7 *13:9 0
*RES
1 FrameData[20] *13:9 47.8023 
2 *13:9 *898:A 40.7519 
*END

*D_NET *14 0.0208279
*CONN
*P FrameData[21] I
*I *899:A I *D sg13g2_buf_1
*CAP
1 FrameData[21] 0.0023137
2 *899:A 6.3626e-05
3 *14:5 0.00237732
4 *14:5 *15:11 0
5 *14:5 *16:13 0.00953426
6 *14:5 *245:18 0
7 *14:5 *258:16 0.00653895
8 *13:9 *14:5 0
*RES
1 FrameData[21] *14:5 46.9165 
2 *14:5 *899:A 40.6695 
*END

*D_NET *15 0.0098149
*CONN
*P FrameData[22] I
*I *900:A I *D sg13g2_buf_1
*CAP
1 FrameData[22] 0.00040084
2 *900:A 0
3 *15:13 0.00417073
4 *15:11 0.00457157
5 *15:11 *16:11 0.000144142
6 *15:11 *16:13 0
7 *15:13 *16:13 0
8 *15:13 *17:5 0
9 *15:13 *228:10 0.000344174
10 *15:13 *236:14 0.000183436
11 *15:13 *258:16 0
12 *15:13 *266:10 0
13 *14:5 *15:11 0
*RES
1 FrameData[22] *15:11 44.3466 
2 *15:11 *15:13 47.071 
3 *15:13 *900:A 40 
*END

*D_NET *16 0.0159189
*CONN
*P FrameData[23] I
*I *901:A I *D sg13g2_buf_1
*CAP
1 FrameData[23] 0.00042175
2 *901:A 0
3 *16:13 0.00269852
4 *16:11 0.00312027
5 *16:11 *17:5 0
6 *16:13 *258:16 0
7 *14:5 *16:13 0.00953426
8 *15:11 *16:11 0.000144142
9 *15:11 *16:13 0
10 *15:13 *16:13 0
*RES
1 FrameData[23] *16:11 44.532 
2 *16:11 *16:13 45.3406 
3 *16:13 *901:A 40 
*END

*D_NET *17 0.0159101
*CONN
*P FrameData[24] I
*I *902:A I *D sg13g2_buf_1
*CAP
1 FrameData[24] 0.00370777
2 *902:A 7.26471e-05
3 *17:5 0.00378042
4 *902:A *236:8 8.00842e-05
5 *17:5 *18:5 0
6 *17:5 *20:13 0
7 *17:5 *257:14 0.00798126
8 *17:5 *266:10 0.000287923
9 *15:13 *17:5 0
10 *16:11 *17:5 0
*RES
1 FrameData[24] *17:5 49.1413 
2 *17:5 *902:A 40.7519 
*END

*D_NET *18 0.0225732
*CONN
*P FrameData[25] I
*I *903:A I *D sg13g2_buf_1
*CAP
1 FrameData[25] 0.00264822
2 *903:A 0.000172411
3 *18:5 0.00282063
4 *903:A *1036:A 0.000175693
5 *18:5 *19:11 0
6 *18:5 *19:17 0.00693238
7 *18:5 *20:13 0.00982388
8 *17:5 *18:5 0
*RES
1 FrameData[25] *18:5 48.1525 
2 *18:5 *903:A 41.6171 
*END

*D_NET *19 0.0149592
*CONN
*P FrameData[26] I
*I *904:A I *D sg13g2_buf_1
*CAP
1 FrameData[26] 7.56738e-05
2 *904:A 5.08741e-05
3 *19:17 0.00372727
4 *19:11 0.00375207
5 *904:A *236:8 8.00842e-05
6 *19:17 *20:11 0
7 *19:17 *21:9 0
8 *19:17 *233:8 0
9 *19:17 *235:12 0.000340826
10 *19:17 *257:14 0
11 *18:5 *19:11 0
12 *18:5 *19:17 0.00693238
*RES
1 FrameData[26] *19:11 40.7313 
2 *19:11 *19:17 49.9653 
3 *19:17 *904:A 40.5356 
*END

*D_NET *20 0.0184577
*CONN
*P FrameData[27] I
*I *905:A I *D sg13g2_buf_1
*CAP
1 FrameData[27] 0.000493862
2 *905:A 0.000110817
3 *20:13 0.00381536
4 *20:11 0.0041984
5 *905:A *232:8 1.54008e-05
6 *20:11 *21:9 0
7 *20:13 *257:14 0
8 *17:5 *20:13 0
9 *18:5 *20:13 0.00982388
10 *19:17 *20:11 0
*RES
1 FrameData[27] *20:11 45.2118 
2 *20:11 *20:13 45.5878 
3 *20:13 *905:A 40.9682 
*END

*D_NET *21 0.00835051
*CONN
*P FrameData[28] I
*I *906:A I *D sg13g2_buf_1
*CAP
1 FrameData[28] 0.00417525
2 *906:A 0
3 *21:9 0.00417525
4 *21:9 *22:9 0
5 *19:17 *21:9 0
6 *20:11 *21:9 0
*RES
1 FrameData[28] *21:9 48.3276 
2 *21:9 *906:A 40 
*END

*D_NET *22 0.00841066
*CONN
*P FrameData[29] I
*I *907:A I *D sg13g2_buf_1
*CAP
1 FrameData[29] 0.00410933
2 *907:A 9.60012e-05
3 *22:9 0.00420533
4 *907:A *908:A 0
5 *22:9 *24:5 0
6 *21:9 *22:9 0
*RES
1 FrameData[29] *22:9 46.35 
2 *22:9 *907:A 40.9682 
*END

*D_NET *23 0.0163259
*CONN
*P FrameData[2] I
*I *880:A I *D sg13g2_buf_1
*CAP
1 FrameData[2] 0.00199344
2 *880:A 0
3 *23:39 0.000190057
4 *23:25 0.00199413
5 *23:19 0.00247256
6 *23:13 0.00266193
7 *23:13 *26:9 0
8 *23:13 *105:9 0
9 *23:13 *106:13 0
10 *23:19 *27:17 0.0024359
11 *23:25 *26:19 7.86667e-05
12 *23:25 *27:17 0.000107052
13 *23:25 *27:31 0
14 *23:25 *28:11 0
15 *23:25 *31:15 0
16 *23:25 *129:27 0.00201518
17 *23:25 *138:51 0
18 *23:25 *147:15 0.00196321
19 *23:25 *217:14 0
20 *23:39 S2BEGb[3] 0
21 *23:39 S2BEGb[7] 0
22 *23:39 *174:12 4.35073e-05
23 *23:39 *176:16 0
24 *23:39 *283:16 7.30101e-05
25 *23:39 *284:8 7.3287e-05
26 *12:9 *23:13 0.000209036
27 *12:19 *23:25 1.4965e-05
*RES
1 FrameData[2] *23:13 41.3313 
2 *23:13 *23:19 31.5772 
3 *23:19 *23:25 43.4119 
4 *23:25 *23:39 42.1553 
5 *23:39 *880:A 20 
*END

*D_NET *24 0.00893974
*CONN
*P FrameData[30] I
*I *908:A I *D sg13g2_buf_1
*CAP
1 FrameData[30] 0.00413292
2 *908:A 0.000184543
3 *24:5 0.00431746
4 *908:A FrameStrobe_O[9] 0.000304822
5 *24:5 *25:5 0
6 *907:A *908:A 0
7 *22:9 *24:5 0
*RES
1 FrameData[30] *24:5 46.9165 
2 *24:5 *908:A 42.0497 
*END

*D_NET *25 0.00876696
*CONN
*P FrameData[31] I
*I *909:A I *D sg13g2_buf_1
*CAP
1 FrameData[31] 0.0041208
2 *909:A 0.000262675
3 *25:5 0.00438348
4 *909:A FrameStrobe_O[9] 0
5 *909:A *235:10 0
6 *24:5 *25:5 0
*RES
1 FrameData[31] *25:5 48.8941 
2 *25:5 *909:A 42.9149 
*END

*D_NET *26 0.0146583
*CONN
*P FrameData[3] I
*I *881:A I *D sg13g2_buf_1
*CAP
1 FrameData[3] 0.00166965
2 *881:A 0
3 *26:19 5.92004e-05
4 *26:13 0.00253355
5 *26:11 0.00247435
6 *26:9 0.00166965
7 *26:9 *27:11 0
8 *26:9 *28:9 0
9 *26:9 *105:9 0
10 *26:13 *28:11 0.00617322
11 *26:13 *147:15 0
12 *26:13 *240:14 0
13 *12:9 *26:9 0
14 *12:13 *26:13 0
15 *23:13 *26:9 0
16 *23:25 *26:19 7.86667e-05
*RES
1 FrameData[3] *26:9 38.6224 
2 *26:9 *26:11 20 
3 *26:11 *26:13 33.475 
4 *26:13 *26:19 40.5356 
5 *26:19 *881:A 40 
*END

*D_NET *27 0.0209939
*CONN
*P FrameData[4] I
*I *882:A I *D sg13g2_buf_1
*CAP
1 FrameData[4] 0.000374545
2 *882:A 0
3 *27:35 0
4 *27:31 0.000793074
5 *27:25 0.00102867
6 *27:17 0.00241114
7 *27:11 0.00255009
8 *27:11 *28:9 0
9 *27:17 *28:11 0.00765537
10 *27:25 *1037:A 0.00049856
11 *27:25 *113:21 0
12 *27:25 *309:14 0
13 *27:31 *113:21 0.00107566
14 *27:31 *138:41 0.000769672
15 *27:31 *278:8 0
16 *27:31 *289:14 0.0012942
17 *27:31 *309:14 0
18 *27:31 *314:16 0
19 *23:19 *27:17 0.0024359
20 *23:25 *27:17 0.000107052
21 *23:25 *27:31 0
22 *26:9 *27:11 0
*RES
1 FrameData[4] *27:11 44.0994 
2 *27:11 *27:17 36.3693 
3 *27:17 *27:25 42.8943 
4 *27:25 *27:31 30.933 
5 *27:31 *27:35 40 
6 *27:35 *882:A 20 
*END

*D_NET *28 0.0217919
*CONN
*P FrameData[5] I
*I *883:A I *D sg13g2_buf_1
*CAP
1 FrameData[5] 0.000285342
2 *883:A 0.000278965
3 *28:19 0.000939627
4 *28:11 0.00289597
5 *28:9 0.00252065
6 *883:A *912:A 0
7 *883:A *982:A 0
8 *883:A *130:25 0
9 *883:A *147:23 0
10 *28:9 *29:7 0
11 *28:11 *147:15 0
12 *28:19 *137:33 0
13 *28:19 *215:18 0.00104275
14 *28:19 *240:12 0
15 *23:25 *28:11 0
16 *26:9 *28:9 0
17 *26:13 *28:11 0.00617322
18 *27:11 *28:9 0
19 *27:17 *28:11 0.00765537
*RES
1 FrameData[5] *28:9 43.1621 
2 *28:9 *28:11 42.3742 
3 *28:11 *28:19 46.6332 
4 *28:19 *883:A 42.4823 
*END

*D_NET *29 0.0105126
*CONN
*P FrameData[6] I
*I *884:A I *D sg13g2_buf_1
*CAP
1 FrameData[6] 0.00265386
2 *884:A 0
3 *29:19 0.000146324
4 *29:13 0.00206088
5 *29:7 0.00456841
6 *29:7 *30:9 0
7 *29:7 *31:9 0
8 *29:7 *105:9 0
9 *29:7 *107:13 0
10 *29:7 *113:21 0.00108312
11 *29:7 *121:9 0
12 *29:7 *123:11 0
13 *29:13 *81:27 0
14 *29:13 *127:13 0
15 *29:13 *311:16 0
16 *29:19 *241:12 0
17 *2:17 *29:13 0
18 *3:17 *29:13 0
19 *28:9 *29:7 0
*RES
1 FrameData[6] *29:7 49.3653 
2 *29:7 *29:13 40.8472 
3 *29:13 *29:19 41.1845 
4 *29:19 *884:A 40 
*END

*D_NET *30 0.0113392
*CONN
*P FrameData[7] I
*I *885:A I *D sg13g2_buf_1
*CAP
1 FrameData[7] 0.00212566
2 *885:A 0
3 *30:19 0.000699028
4 *30:13 0.00343952
5 *30:11 0.00274049
6 *30:9 0.00212566
7 *30:9 *31:9 0
8 *30:13 *274:14 0
9 *30:19 *240:12 0
10 *30:19 *252:12 0.000208808
11 *6:11 *30:13 0
12 *29:7 *30:9 0
*RES
1 FrameData[7] *30:9 44.5552 
2 *30:9 *30:11 20 
3 *30:11 *30:13 30.7558 
4 *30:13 *30:19 46.1594 
5 *30:19 *885:A 40 
*END

*D_NET *31 0.0125384
*CONN
*P FrameData[8] I
*I *886:A I *D sg13g2_buf_1
*CAP
1 FrameData[8] 0.00355918
2 *886:A 0
3 *31:23 0.000355388
4 *31:15 0.000971106
5 *31:9 0.0041749
6 *31:9 *32:5 0
7 *31:9 *117:15 0
8 *31:9 *118:9 0
9 *31:9 *122:13 0
10 *31:15 *32:13 0
11 *31:15 *217:14 0.00162452
12 *31:15 *311:18 0
13 *31:23 *130:17 0
14 *31:23 *137:33 0.00108856
15 *31:23 *273:8 0.000764793
16 *23:25 *31:15 0
17 *29:7 *31:9 0
18 *30:9 *31:9 0
*RES
1 FrameData[8] *31:9 34.2372 
2 *31:9 *31:15 48.755 
3 *31:15 *31:23 45.5826 
4 *31:23 *886:A 40 
*END

*D_NET *32 0.0141252
*CONN
*P FrameData[9] I
*I *887:A I *D sg13g2_buf_1
*CAP
1 FrameData[9] 0.00269298
2 *887:A 0
3 *32:19 0.000140064
4 *32:13 0.00141308
5 *32:9 0.00127302
6 *32:5 0.00269298
7 *32:5 *110:11 0
8 *32:5 *115:9 0.00220575
9 *32:5 *117:15 0.00370735
10 *32:13 *217:14 0
11 *32:13 *217:20 0
12 *32:13 *311:18 0
13 *32:19 *943:A 0
14 *2:5 *32:5 0
15 *31:9 *32:5 0
16 *31:15 *32:13 0
*RES
1 FrameData[9] *32:5 35.5453 
2 *32:5 *32:9 40 
3 *32:9 *32:13 30.9798 
4 *32:13 *32:19 40.9997 
5 *32:19 *887:A 20 
*END

*D_NET *33 0.00113956
*CONN
*P FrameData_O[0] O
*I *983:X O *D sg13g2_buf_1
*CAP
1 FrameData_O[0] 0.000529757
2 *983:X 0.000529757
3 FrameData_O[0] FrameData_O[1] 0
4 FrameData_O[0] FrameData_O[2] 8.00444e-05
*RES
1 *983:X FrameData_O[0] 45.9225 
*END

*D_NET *34 0.000403892
*CONN
*P FrameData_O[10] O
*I *1000:X O *D sg13g2_buf_1
*CAP
1 FrameData_O[10] 0.000201946
2 *1000:X 0.000201946
3 FrameData_O[10] FrameData_O[11] 0
4 FrameData_O[10] FrameData_O[9] 0
*RES
1 *1000:X FrameData_O[10] 42.2145 
*END

*D_NET *35 0.0005896
*CONN
*P FrameData_O[11] O
*I *1011:X O *D sg13g2_buf_1
*CAP
1 FrameData_O[11] 0.0002948
2 *1011:X 0.0002948
3 FrameData_O[11] FrameData_O[12] 0
4 FrameData_O[11] FrameData_O[13] 0
5 FrameData_O[11] *230:26 0
6 FrameData_O[10] FrameData_O[11] 0
*RES
1 *1011:X FrameData_O[11] 43.2033 
*END

*D_NET *36 0.000404623
*CONN
*P FrameData_O[12] O
*I *1022:X O *D sg13g2_buf_1
*CAP
1 FrameData_O[12] 0.000202312
2 *1022:X 0.000202312
3 FrameData_O[12] FrameData_O[13] 0
4 FrameData_O[11] FrameData_O[12] 0
*RES
1 *1022:X FrameData_O[12] 42.2145 
*END

*D_NET *37 0.000650608
*CONN
*P FrameData_O[13] O
*I *1033:X O *D sg13g2_buf_1
*CAP
1 FrameData_O[13] 0.000325304
2 *1033:X 0.000325304
3 FrameData_O[13] FrameData_O[14] 0
4 FrameData_O[13] FrameData_O[15] 0
5 FrameData_O[13] *1033:A 0
6 FrameData_O[11] FrameData_O[13] 0
7 FrameData_O[12] FrameData_O[13] 0
*RES
1 *1033:X FrameData_O[13] 43.4196 
*END

*D_NET *38 0.000297607
*CONN
*P FrameData_O[14] O
*I *1044:X O *D sg13g2_buf_1
*CAP
1 FrameData_O[14] 0.000148804
2 *1044:X 0.000148804
3 FrameData_O[14] FrameData_O[15] 0
4 FrameData_O[13] FrameData_O[14] 0
*RES
1 *1044:X FrameData_O[14] 41.6789 
*END

*D_NET *39 0.000681645
*CONN
*P FrameData_O[15] O
*I *1055:X O *D sg13g2_buf_1
*CAP
1 FrameData_O[15] 0.000340823
2 *1055:X 0.000340823
3 FrameData_O[15] FrameData_O[16] 0
4 FrameData_O[15] FrameData_O[17] 0
5 FrameData_O[15] *296:8 0
6 FrameData_O[13] FrameData_O[15] 0
7 FrameData_O[14] FrameData_O[15] 0
*RES
1 *1055:X FrameData_O[15] 43.6359 
*END

*D_NET *40 0.000297607
*CONN
*P FrameData_O[16] O
*I *1066:X O *D sg13g2_buf_1
*CAP
1 FrameData_O[16] 0.000148804
2 *1066:X 0.000148804
3 FrameData_O[16] FrameData_O[17] 0
4 FrameData_O[15] FrameData_O[16] 0
*RES
1 *1066:X FrameData_O[16] 41.6789 
*END

*D_NET *41 0.000722251
*CONN
*P FrameData_O[17] O
*I *1077:X O *D sg13g2_buf_1
*CAP
1 FrameData_O[17] 0.000361126
2 *1077:X 0.000361126
3 FrameData_O[17] FrameData_O[18] 0
4 FrameData_O[17] *1055:A 0
5 FrameData_O[17] *214:14 0
6 FrameData_O[15] FrameData_O[17] 0
7 FrameData_O[16] FrameData_O[17] 0
*RES
1 *1077:X FrameData_O[17] 43.8522 
*END

*D_NET *42 0.000352109
*CONN
*P FrameData_O[18] O
*I *984:X O *D sg13g2_buf_1
*CAP
1 FrameData_O[18] 0.000176055
2 *984:X 0.000176055
3 FrameData_O[18] FrameData_O[19] 0
4 FrameData_O[18] *214:14 0
5 FrameData_O[17] FrameData_O[18] 0
*RES
1 *984:X FrameData_O[18] 41.9982 
*END

*D_NET *43 0.000629944
*CONN
*P FrameData_O[19] O
*I *991:X O *D sg13g2_buf_1
*CAP
1 FrameData_O[19] 0.000307272
2 *991:X 0.000307272
3 FrameData_O[19] FrameData_O[20] 0
4 FrameData_O[19] *991:A 0
5 FrameData_O[19] *994:A 1.54008e-05
6 FrameData_O[18] FrameData_O[19] 0
*RES
1 *991:X FrameData_O[19] 43.0797 
*END

*D_NET *44 0.00116082
*CONN
*P FrameData_O[1] O
*I *992:X O *D sg13g2_buf_1
*CAP
1 FrameData_O[1] 0.000580411
2 *992:X 0.000580411
3 FrameData_O[1] FrameData_O[2] 0
4 FrameData_O[1] *238:22 0
5 FrameData_O[0] FrameData_O[1] 0
*RES
1 *992:X FrameData_O[1] 46.0461 
*END

*D_NET *45 0.000705519
*CONN
*P FrameData_O[20] O
*I *993:X O *D sg13g2_buf_1
*CAP
1 FrameData_O[20] 0.000313146
2 *993:X 0.000313146
3 FrameData_O[20] FrameData_O[21] 0
4 FrameData_O[20] *991:A 7.92265e-05
5 FrameData_O[20] *993:A 0
6 FrameData_O[20] *214:14 0
7 FrameData_O[20] *221:10 0
8 FrameData_O[20] *224:8 0
9 FrameData_O[19] FrameData_O[20] 0
*RES
1 *993:X FrameData_O[20] 43.2033 
*END

*D_NET *46 0.0008456
*CONN
*P FrameData_O[21] O
*I *994:X O *D sg13g2_buf_1
*CAP
1 FrameData_O[21] 0.00030203
2 *994:X 0.00030203
3 FrameData_O[21] FrameData_O[22] 0
4 FrameData_O[21] *994:A 0.00024154
5 FrameData_O[20] FrameData_O[21] 0
*RES
1 *994:X FrameData_O[21] 43.296 
*END

*D_NET *47 0.000772633
*CONN
*P FrameData_O[22] O
*I *995:X O *D sg13g2_buf_1
*CAP
1 FrameData_O[22] 0.000330416
2 *995:X 0.000330416
3 FrameData_O[22] FrameData_O[23] 0
4 FrameData_O[22] *996:A 0.0001118
5 FrameData_O[21] FrameData_O[22] 0
*RES
1 *995:X FrameData_O[22] 43.4196 
*END

*D_NET *48 0.000902954
*CONN
*P FrameData_O[23] O
*I *996:X O *D sg13g2_buf_1
*CAP
1 FrameData_O[23] 0.000323486
2 *996:X 0.000323486
3 FrameData_O[23] FrameData_O[24] 0
4 FrameData_O[23] FrameData_O[25] 1.54556e-05
5 FrameData_O[23] *994:A 1.54285e-05
6 FrameData_O[23] *996:A 0
7 FrameData_O[23] *998:A 0.000177212
8 FrameData_O[23] *228:10 4.78867e-05
9 FrameData_O[22] FrameData_O[23] 0
*RES
1 *996:X FrameData_O[23] 43.6153 
*END

*D_NET *49 0.00091813
*CONN
*P FrameData_O[24] O
*I *997:X O *D sg13g2_buf_1
*CAP
1 FrameData_O[24] 0.00033073
2 *997:X 0.00033073
3 FrameData_O[24] FrameData_O[25] 0
4 FrameData_O[24] FrameData_O[31] 0.000111828
5 FrameData_O[24] *996:A 0.000144843
6 FrameData_O[24] *997:A 0
7 FrameData_O[24] *228:10 0
8 FrameData_O[23] FrameData_O[24] 0
*RES
1 *997:X FrameData_O[24] 43.6359 
*END

*D_NET *50 0.000797261
*CONN
*P FrameData_O[25] O
*I *998:X O *D sg13g2_buf_1
*CAP
1 FrameData_O[25] 0.000390903
2 *998:X 0.000390903
3 FrameData_O[25] FrameData_O[26] 0
4 FrameData_O[25] *998:A 0
5 FrameData_O[23] FrameData_O[25] 1.54556e-05
6 FrameData_O[24] FrameData_O[25] 0
*RES
1 *998:X FrameData_O[25] 43.8316 
*END

*D_NET *51 0.00141405
*CONN
*P FrameData_O[26] O
*I *999:X O *D sg13g2_buf_1
*CAP
1 FrameData_O[26] 0.000413458
2 *999:X 0.000413458
3 FrameData_O[26] FrameData_O[27] 0
4 FrameData_O[26] FrameData_O[28] 0.000176396
5 FrameData_O[26] *999:A 0.000176424
6 FrameData_O[26] *256:16 0.000234311
7 FrameData_O[25] FrameData_O[26] 0
*RES
1 *999:X FrameData_O[26] 44.841 
*END

*D_NET *52 0.000967769
*CONN
*P FrameData_O[27] O
*I *1001:X O *D sg13g2_buf_1
*CAP
1 FrameData_O[27] 0.000483884
2 *1001:X 0.000483884
3 FrameData_O[27] FrameData_O[28] 0
4 FrameData_O[27] FrameData_O[29] 0
5 FrameData_O[27] *256:16 0
6 FrameData_O[26] FrameData_O[27] 0
*RES
1 *1001:X FrameData_O[27] 44.9646 
*END

*D_NET *53 0.00160147
*CONN
*P FrameData_O[28] O
*I *1002:X O *D sg13g2_buf_1
*CAP
1 FrameData_O[28] 0.000656137
2 *1002:X 0.000656137
3 FrameData_O[28] FrameData_O[29] 0
4 FrameData_O[28] FrameData_O[30] 0
5 FrameData_O[28] FrameData_O[31] 0
6 FrameData_O[28] *997:A 0.000112799
7 FrameData_O[28] *999:A 0
8 FrameData_O[26] FrameData_O[28] 0.000176396
9 FrameData_O[27] FrameData_O[28] 0
*RES
1 *1002:X FrameData_O[28] 46.4581 
*END

*D_NET *54 0.00113957
*CONN
*P FrameData_O[29] O
*I *1003:X O *D sg13g2_buf_1
*CAP
1 FrameData_O[29] 0.000569785
2 *1003:X 0.000569785
3 FrameData_O[29] FrameData_O[30] 0
4 FrameData_O[29] *256:16 0
5 FrameData_O[27] FrameData_O[29] 0
6 FrameData_O[28] FrameData_O[29] 0
*RES
1 *1003:X FrameData_O[29] 46.2727 
*END

*D_NET *55 0.00169262
*CONN
*P FrameData_O[2] O
*I *1004:X O *D sg13g2_buf_1
*CAP
1 FrameData_O[2] 0.000556953
2 *1004:X 0.000556953
3 FrameData_O[2] FrameData_O[3] 0
4 FrameData_O[2] *1004:A 0
5 FrameData_O[2] *1007:A 0.000209756
6 FrameData_O[2] *1008:A 0
7 FrameData_O[2] *1009:A 0
8 FrameData_O[2] *238:22 0.000288917
9 FrameData_O[0] FrameData_O[2] 8.00444e-05
10 FrameData_O[1] FrameData_O[2] 0
*RES
1 *1004:X FrameData_O[2] 46.2418 
*END

*D_NET *56 0.00162278
*CONN
*P FrameData_O[30] O
*I *1005:X O *D sg13g2_buf_1
*CAP
1 FrameData_O[30] 0.000811389
2 *1005:X 0.000811389
3 FrameData_O[30] FrameData_O[31] 0
4 FrameData_O[30] FrameStrobe_O[19] 0
5 FrameData_O[30] *999:A 0
6 FrameData_O[30] *1003:A 0
7 FrameData_O[28] FrameData_O[30] 0
8 FrameData_O[29] FrameData_O[30] 0
*RES
1 *1005:X FrameData_O[30] 48.3121 
*END

*D_NET *57 0.0025045
*CONN
*P FrameData_O[31] O
*I *1006:X O *D sg13g2_buf_1
*CAP
1 FrameData_O[31] 0.000868052
2 *1006:X 0.000119227
3 *57:10 0.000987279
4 FrameData_O[31] FrameStrobe_O[19] 0
5 FrameData_O[31] *996:A 0
6 FrameData_O[31] *997:A 0.000209171
7 FrameData_O[31] *256:16 0.000208941
8 *57:10 *997:A 0
9 *57:10 *228:10 0
10 FrameData_O[24] FrameData_O[31] 0.000111828
11 FrameData_O[28] FrameData_O[31] 0
12 FrameData_O[30] FrameData_O[31] 0
*RES
1 *1006:X *57:10 41.1639 
2 *57:10 FrameData_O[31] 48.858 
*END

*D_NET *58 0.000602603
*CONN
*P FrameData_O[3] O
*I *1007:X O *D sg13g2_buf_1
*CAP
1 FrameData_O[3] 0.000301301
2 *1007:X 0.000301301
3 FrameData_O[3] FrameData_O[4] 0
4 FrameData_O[3] FrameData_O[5] 0
5 FrameData_O[3] *1008:A 0
6 FrameData_O[2] FrameData_O[3] 0
*RES
1 *1007:X FrameData_O[3] 43.2033 
*END

*D_NET *59 0.000398447
*CONN
*P FrameData_O[4] O
*I *1008:X O *D sg13g2_buf_1
*CAP
1 FrameData_O[4] 0.000199224
2 *1008:X 0.000199224
3 FrameData_O[4] FrameData_O[5] 0
4 FrameData_O[4] *1007:A 0
5 FrameData_O[3] FrameData_O[4] 0
*RES
1 *1008:X FrameData_O[4] 42.2145 
*END

*D_NET *60 0.000466467
*CONN
*P FrameData_O[5] O
*I *1009:X O *D sg13g2_buf_1
*CAP
1 FrameData_O[5] 0.000233233
2 *1009:X 0.000233233
3 FrameData_O[5] FrameData_O[6] 0
4 FrameData_O[5] FrameData_O[7] 0
5 FrameData_O[3] FrameData_O[5] 0
6 FrameData_O[4] FrameData_O[5] 0
*RES
1 *1009:X FrameData_O[5] 42.6677 
*END

*D_NET *61 0.000297607
*CONN
*P FrameData_O[6] O
*I *1010:X O *D sg13g2_buf_1
*CAP
1 FrameData_O[6] 0.000148804
2 *1010:X 0.000148804
3 FrameData_O[6] FrameData_O[7] 0
4 FrameData_O[5] FrameData_O[6] 0
*RES
1 *1010:X FrameData_O[6] 41.6789 
*END

*D_NET *62 0.000461045
*CONN
*P FrameData_O[7] O
*I *1012:X O *D sg13g2_buf_1
*CAP
1 FrameData_O[7] 0.000230522
2 *1012:X 0.000230522
3 FrameData_O[7] FrameData_O[8] 0
4 FrameData_O[7] FrameData_O[9] 0
5 FrameData_O[7] *1013:A 0
6 FrameData_O[5] FrameData_O[7] 0
7 FrameData_O[6] FrameData_O[7] 0
*RES
1 *1012:X FrameData_O[7] 42.6677 
*END

*D_NET *63 0.000297607
*CONN
*P FrameData_O[8] O
*I *1013:X O *D sg13g2_buf_1
*CAP
1 FrameData_O[8] 0.000148804
2 *1013:X 0.000148804
3 FrameData_O[8] FrameData_O[9] 0
4 FrameData_O[7] FrameData_O[8] 0
*RES
1 *1013:X FrameData_O[8] 41.6789 
*END

*D_NET *64 0.000535856
*CONN
*P FrameData_O[9] O
*I *1014:X O *D sg13g2_buf_1
*CAP
1 FrameData_O[9] 0.000267928
2 *1014:X 0.000267928
3 FrameData_O[9] *1013:A 0
4 FrameData_O[10] FrameData_O[9] 0
5 FrameData_O[7] FrameData_O[9] 0
6 FrameData_O[8] FrameData_O[9] 0
*RES
1 *1014:X FrameData_O[9] 42.987 
*END

*D_NET *65 0.0111563
*CONN
*P FrameStrobe[0] I
*I *910:A I *D sg13g2_buf_1
*CAP
1 FrameStrobe[0] 0.00184971
2 *910:A 0.000223086
3 *65:9 0.0020728
4 *910:A *912:A 0.00030487
5 *910:A *982:A 0
6 *65:9 *913:A 0.000873302
7 *65:9 *1081:A 0
8 *65:9 *67:9 0.00161763
9 *65:9 *76:7 0
10 *65:9 *77:9 0.00363996
11 *65:9 *83:21 0
12 *65:9 *128:19 0
13 *65:9 *133:9 0
14 *65:9 *195:16 0.000143544
15 *65:9 *205:10 0.000143351
16 *65:9 *209:9 0
17 *65:9 *309:42 0.000143674
18 *65:9 *317:32 0.000144352
*RES
1 FrameStrobe[0] *65:9 45.7294 
2 *65:9 *910:A 42.0497 
*END

*D_NET *66 0.00838587
*CONN
*P FrameStrobe[10] I
*I *920:A I *D sg13g2_buf_1
*CAP
1 FrameStrobe[10] 0.00139217
2 *920:A 0
3 *66:11 0.00211166
4 *66:7 0.00350383
5 *66:7 *924:A 0.000821971
6 *66:7 *925:A 0
7 *66:7 *67:9 0
8 *66:7 *84:7 0
9 *66:11 *79:17 0
10 *66:11 *139:15 0.000556237
11 *66:11 *219:22 0
12 *66:11 *247:10 0
13 *66:11 *248:8 0
14 *66:11 *250:10 0
15 *66:11 *263:10 0
16 *66:11 *308:10 0
*RES
1 FrameStrobe[10] *66:7 32.4939 
2 *66:7 *66:11 38.643 
3 *66:11 *920:A 20 
*END

*D_NET *67 0.00614011
*CONN
*P FrameStrobe[11] I
*I *921:A I *D sg13g2_buf_1
*CAP
1 FrameStrobe[11] 0.00208237
2 *921:A 0.000178867
3 *67:9 0.00226124
4 *921:A *960:A 0
5 *67:9 *925:A 0
6 *67:9 *68:9 0
7 *67:9 *133:9 0
8 *67:9 *230:26 0
9 *65:9 *67:9 0.00161763
10 *66:7 *67:9 0
*RES
1 FrameStrobe[11] *67:9 41.9905 
2 *67:9 *921:A 41.8334 
*END

*D_NET *68 0.00431121
*CONN
*P FrameStrobe[12] I
*I *922:A I *D sg13g2_buf_1
*CAP
1 FrameStrobe[12] 0.00118156
2 *922:A 0.000645277
3 *68:9 0.00182684
4 *922:A *76:7 0
5 *922:A *77:9 0.000369366
6 *922:A *78:9 0.000112236
7 *922:A *219:28 0
8 *922:A *249:12 4.77699e-05
9 *68:9 *925:A 0
10 *68:9 *69:11 0
11 *68:9 *70:11 0
12 *68:9 *80:25 0.00012816
13 *68:9 *83:9 0
14 *68:9 *230:26 0
15 *67:9 *68:9 0
*RES
1 FrameStrobe[12] *68:9 31.021 
2 *68:9 *922:A 46.3757 
*END

*D_NET *69 0.00606685
*CONN
*P FrameStrobe[13] I
*I *923:A I *D sg13g2_buf_1
*CAP
1 FrameStrobe[13] 0.00084999
2 *923:A 0.000772729
3 *69:11 0.00162272
4 *923:A *79:11 0.00127284
5 *923:A *82:7 0
6 *923:A *219:28 0.00140192
7 *69:11 *70:11 0
8 *69:11 *80:19 7.33225e-05
9 *69:11 *83:9 0
10 *69:11 *213:24 7.33256e-05
11 *69:11 *234:16 0
12 *68:9 *69:11 0
*RES
1 FrameStrobe[13] *69:11 47.4984 
2 *69:11 *923:A 29.4039 
*END

*D_NET *70 0.00424717
*CONN
*P FrameStrobe[14] I
*I *924:A I *D sg13g2_buf_1
*CAP
1 FrameStrobe[14] 0.000856541
2 *924:A 0.000445
3 *70:11 0.00130154
4 *924:A *84:7 0.000822114
5 *70:11 *925:A 0
6 *66:7 *924:A 0.000821971
7 *68:9 *70:11 0
8 *69:11 *70:11 0
*RES
1 FrameStrobe[14] *70:11 47.6838 
2 *70:11 *924:A 25.5105 
*END

*D_NET *71 0.00343823
*CONN
*P FrameStrobe[15] I
*I *925:A I *D sg13g2_buf_1
*CAP
1 FrameStrobe[15] 0.00171911
2 *925:A 0.00171911
3 *925:A *72:9 0
4 *66:7 *925:A 0
5 *67:9 *925:A 0
6 *68:9 *925:A 0
7 *70:11 *925:A 0
*RES
1 FrameStrobe[15] *925:A 35.0071 
*END

*D_NET *72 0.0040735
*CONN
*P FrameStrobe[16] I
*I *926:A I *D sg13g2_buf_1
*CAP
1 FrameStrobe[16] 0.00203675
2 *926:A 0
3 *72:9 0.00203675
4 *72:9 *73:9 0
5 *72:9 *214:14 0
6 *72:9 *296:8 0
7 *925:A *72:9 0
*RES
1 FrameStrobe[16] *72:9 37.7263 
2 *72:9 *926:A 40 
*END

*D_NET *73 0.00329999
*CONN
*P FrameStrobe[17] I
*I *927:A I *D sg13g2_buf_1
*CAP
1 FrameStrobe[17] 0.00164999
2 *927:A 0
3 *73:9 0.00164999
4 *73:9 *74:9 0
5 *73:9 *263:10 0
6 *72:9 *73:9 0
*RES
1 FrameStrobe[17] *73:9 34.3273 
2 *73:9 *927:A 40 
*END

*D_NET *74 0.00432961
*CONN
*P FrameStrobe[18] I
*I *928:A I *D sg13g2_buf_1
*CAP
1 FrameStrobe[18] 0.00168112
2 *928:A 0.00048369
3 *74:9 0.00216481
4 *928:A *254:6 0
5 *74:9 *75:9 0
6 *74:9 *244:24 0
7 *74:9 *263:10 0
8 *73:9 *74:9 0
*RES
1 FrameStrobe[18] *74:9 35.4706 
2 *74:9 *928:A 45.0779 
*END

*D_NET *75 0.00540075
*CONN
*P FrameStrobe[19] I
*I *929:A I *D sg13g2_buf_1
*CAP
1 FrameStrobe[19] 0.00146466
2 *929:A 0.000232149
3 *75:9 0.00169681
4 *75:9 *230:26 0.00032974
5 *75:9 *244:24 0.00167739
6 *74:9 *75:9 0
*RES
1 FrameStrobe[19] *75:9 36.3976 
2 *75:9 *929:A 42.4823 
*END

*D_NET *76 0.00786746
*CONN
*P FrameStrobe[1] I
*I *911:A I *D sg13g2_buf_1
*CAP
1 FrameStrobe[1] 0.00168231
2 *911:A 0
3 *76:11 0.0020199
4 *76:7 0.00370221
5 *76:7 *77:9 0
6 *76:7 *205:10 0.000143351
7 *76:7 *216:30 0.000176015
8 *76:7 *218:24 0
9 *76:7 *249:12 0
10 *76:7 *309:42 0.000143674
11 *76:11 *84:13 0
12 *76:11 *249:12 0
13 *76:11 *296:8 0
14 *922:A *76:7 0
15 *65:9 *76:7 0
*RES
1 FrameStrobe[1] *76:7 34.6569 
2 *76:7 *76:11 37.1598 
3 *76:11 *911:A 20 
*END

*D_NET *77 0.012477
*CONN
*P FrameStrobe[2] I
*I *912:A I *D sg13g2_buf_1
*CAP
1 FrameStrobe[2] 0.00183554
2 *912:A 0.000297302
3 *77:9 0.00213284
4 *77:9 *1082:A 0.000111773
5 *77:9 *78:9 0
6 *77:9 *78:23 0.00183343
7 *77:9 *208:10 0.000241052
8 *77:9 *216:30 0.000176015
9 *77:9 *230:10 0.000874651
10 *77:9 *230:26 0
11 *77:9 *311:24 0.000660249
12 *883:A *912:A 0
13 *910:A *912:A 0.00030487
14 *922:A *77:9 0.000369366
15 *65:9 *77:9 0.00363996
16 *76:7 *77:9 0
*RES
1 FrameStrobe[2] *77:9 46.7491 
2 *77:9 *912:A 43.1106 
*END

*D_NET *78 0.0119241
*CONN
*P FrameStrobe[3] I
*I *913:A I *D sg13g2_buf_1
*CAP
1 FrameStrobe[3] 0.00137713
2 *913:A 0.000924987
3 *78:23 0.00133909
4 *78:15 0.000591414
5 *78:9 0.00155444
6 *913:A *83:21 0
7 *913:A *111:21 0.00012838
8 *913:A *230:10 0
9 *78:9 *1082:A 0.000111773
10 *78:9 *79:11 0
11 *78:9 *80:19 0.000401881
12 *78:9 *206:10 0.000285186
13 *78:9 *208:10 0.000241052
14 *78:9 *209:9 0
15 *78:9 *217:24 0
16 *78:9 *219:28 0
17 *78:9 *230:26 0
18 *78:9 *295:8 7.48178e-05
19 *78:15 *964:A 0.000241052
20 *78:23 *230:26 0.00183393
21 *890:A *913:A 0
22 *922:A *78:9 0.000112236
23 *65:9 *913:A 0.000873302
24 *77:9 *78:9 0
25 *77:9 *78:23 0.00183343
*RES
1 FrameStrobe[3] *78:9 32.9059 
2 *78:9 *78:15 41.6171 
3 *78:15 *78:23 49.2597 
4 *78:23 *913:A 49.1052 
*END

*D_NET *79 0.0141796
*CONN
*P FrameStrobe[4] I
*I *914:A I *D sg13g2_buf_1
*CAP
1 FrameStrobe[4] 0.0011766
2 *914:A 0
3 *79:17 0.00110151
4 *79:11 0.00227811
5 *79:11 *80:11 0
6 *79:11 *81:11 0
7 *79:11 *82:7 0
8 *79:11 *196:10 0.00020871
9 *79:11 *219:28 2.21754e-05
10 *79:17 *245:12 0
11 *79:17 *248:8 0
12 *79:17 *260:10 0
13 *79:17 *263:10 0.00449962
14 *79:17 *308:10 0.00362007
15 *923:A *79:11 0.00127284
16 *66:11 *79:17 0
17 *78:9 *79:11 0
*RES
1 FrameStrobe[4] *79:11 32.0475 
2 *79:11 *79:17 41.836 
3 *79:17 *914:A 20 
*END

*D_NET *80 0.012801
*CONN
*P FrameStrobe[5] I
*I *915:A I *D sg13g2_buf_1
*CAP
1 FrameStrobe[5] 0.000392088
2 *915:A 0
3 *80:43 0.000753348
4 *80:31 0.00275807
5 *80:25 0.00265645
6 *80:19 0.00095568
7 *80:11 0.00069604
8 *80:11 *81:11 0
9 *80:11 *196:10 0.000176369
10 *80:11 *313:20 0
11 *80:19 *83:9 0
12 *80:19 *219:28 0.000401739
13 *80:25 *83:9 0
14 *80:25 *209:9 0
15 *80:31 *84:13 0.00274315
16 *80:31 *132:9 0
17 *80:31 *214:14 0
18 *80:31 *305:16 0
19 *80:43 *132:9 0
20 *80:43 *259:14 0
21 *80:43 *296:8 0
22 *7:13 *80:43 0.000664707
23 *8:9 *80:43 0
24 *68:9 *80:25 0.00012816
25 *69:11 *80:19 7.33225e-05
26 *78:9 *80:19 0.000401881
27 *79:11 *80:11 0
*RES
1 FrameStrobe[5] *80:11 43.5123 
2 *80:11 *80:19 43.5432 
3 *80:19 *80:25 45.7886 
4 *80:25 *80:31 42.1141 
5 *80:31 *80:43 48.4769 
6 *80:43 *915:A 40 
*END

*D_NET *81 0.0128426
*CONN
*P FrameStrobe[6] I
*I *916:A I *D sg13g2_buf_1
*CAP
1 FrameStrobe[6] 0.000544225
2 *916:A 0
3 *81:31 0
4 *81:27 0.0014939
5 *81:21 0.00213903
6 *81:15 0.00175102
7 *81:11 0.00165011
8 *81:11 *82:7 0
9 *81:11 *199:10 0.000176369
10 *81:11 *313:20 0
11 *81:15 *240:14 0.0041465
12 *81:15 *242:22 0
13 *81:21 *111:21 0
14 *81:21 *138:51 0
15 *81:21 *147:23 0
16 *81:27 *220:12 0
17 *81:27 *241:14 0
18 *81:27 *252:18 0.000941425
19 *81:27 *311:18 0
20 *2:17 *81:27 0
21 *29:13 *81:27 0
22 *79:11 *81:11 0
23 *80:11 *81:11 0
*RES
1 FrameStrobe[6] *81:11 45.0264 
2 *81:11 *81:15 39.1374 
3 *81:15 *81:21 44.4017 
4 *81:21 *81:27 37.4482 
5 *81:27 *81:31 40 
6 *81:31 *916:A 20 
*END

*D_NET *82 0.016517
*CONN
*P FrameStrobe[7] I
*I *917:A I *D sg13g2_buf_1
*CAP
1 FrameStrobe[7] 0.00188639
2 *917:A 0.000393237
3 *82:9 0.00262869
4 *82:7 0.00412184
5 *917:A *1035:A 0
6 *917:A *264:8 0
7 *82:7 *83:9 0
8 *82:7 *84:7 0
9 *82:7 *199:10 0.000176369
10 *82:7 *250:10 0
11 *82:7 *250:14 0
12 *82:9 *224:8 0.00529539
13 *82:9 *245:18 0.00201504
14 *82:9 *258:16 0
15 *82:9 *285:14 0
16 *82:9 *285:16 0
17 *923:A *82:7 0
18 *79:11 *82:7 0
19 *81:11 *82:7 0
*RES
1 FrameStrobe[7] *82:7 37.6851 
2 *82:7 *82:9 31.2502 
3 *82:9 *917:A 43.1312 
*END

*D_NET *83 0.0117347
*CONN
*P FrameStrobe[8] I
*I *918:A I *D sg13g2_buf_1
*CAP
1 FrameStrobe[8] 0.00199594
2 *918:A 0
3 *83:21 0.00241243
4 *83:15 0.00287476
5 *83:9 0.00245827
6 *83:9 *956:A 0.00012816
7 *83:9 *84:7 0
8 *83:9 *138:59 0.000657508
9 *83:9 *198:8 0
10 *83:9 *209:9 0
11 *83:9 *215:26 0
12 *83:9 *291:12 0.00103137
13 *83:9 *306:12 0
14 *83:9 *314:32 0
15 *83:21 *111:21 0
16 *83:21 *119:13 0
17 *83:21 *127:17 0
18 *83:21 *128:19 0
19 *83:21 *260:16 0.000176252
20 *913:A *83:21 0
21 *65:9 *83:21 0
22 *68:9 *83:9 0
23 *69:11 *83:9 0
24 *80:19 *83:9 0
25 *80:25 *83:9 0
26 *82:7 *83:9 0
*RES
1 FrameStrobe[8] *83:9 40.0438 
2 *83:9 *83:15 44.2127 
3 *83:15 *83:21 39.7348 
4 *83:21 *918:A 20 
*END

*D_NET *84 0.0112179
*CONN
*P FrameStrobe[9] I
*I *919:A I *D sg13g2_buf_1
*CAP
1 FrameStrobe[9] 0.00157799
2 *919:A 0
3 *84:13 0.00209527
4 *84:7 0.00367326
5 *84:7 *250:10 0.000306108
6 *84:13 *214:14 0
7 *84:13 *249:12 0
8 *84:13 *257:12 0
9 *84:13 *296:8 0
10 *924:A *84:7 0.000822114
11 *66:7 *84:7 0
12 *76:11 *84:13 0
13 *80:31 *84:13 0.00274315
14 *82:7 *84:7 0
15 *83:9 *84:7 0
*RES
1 FrameStrobe[9] *84:7 35.0895 
2 *84:7 *84:13 42.4875 
3 *84:13 *919:A 20 
*END

*D_NET *85 0.000631358
*CONN
*P FrameStrobe_O[0] O
*I *1015:X O *D sg13g2_buf_1
*CAP
1 FrameStrobe_O[0] 0.000315679
2 *1015:X 0.000315679
*RES
1 *1015:X FrameStrobe_O[0] 23.1106 
*END

*D_NET *86 0.000541263
*CONN
*P FrameStrobe_O[10] O
*I *1016:X O *D sg13g2_buf_1
*CAP
1 FrameStrobe_O[10] 0.000270632
2 *1016:X 0.000270632
*RES
1 *1016:X FrameStrobe_O[10] 23.1106 
*END

*D_NET *87 0.000522747
*CONN
*P FrameStrobe_O[11] O
*I *1017:X O *D sg13g2_buf_1
*CAP
1 FrameStrobe_O[11] 0.000261374
2 *1017:X 0.000261374
*RES
1 *1017:X FrameStrobe_O[11] 23.1106 
*END

*D_NET *88 0.000522747
*CONN
*P FrameStrobe_O[12] O
*I *1018:X O *D sg13g2_buf_1
*CAP
1 FrameStrobe_O[12] 0.000261374
2 *1018:X 0.000261374
*RES
1 *1018:X FrameStrobe_O[12] 23.1106 
*END

*D_NET *89 0.000522747
*CONN
*P FrameStrobe_O[13] O
*I *1019:X O *D sg13g2_buf_1
*CAP
1 FrameStrobe_O[13] 0.000261374
2 *1019:X 0.000261374
*RES
1 *1019:X FrameStrobe_O[13] 23.1106 
*END

*D_NET *90 0.000522747
*CONN
*P FrameStrobe_O[14] O
*I *1020:X O *D sg13g2_buf_1
*CAP
1 FrameStrobe_O[14] 0.000261374
2 *1020:X 0.000261374
*RES
1 *1020:X FrameStrobe_O[14] 23.1106 
*END

*D_NET *91 0.000522747
*CONN
*P FrameStrobe_O[15] O
*I *1021:X O *D sg13g2_buf_1
*CAP
1 FrameStrobe_O[15] 0.000261374
2 *1021:X 0.000261374
*RES
1 *1021:X FrameStrobe_O[15] 23.1106 
*END

*D_NET *92 0.000522747
*CONN
*P FrameStrobe_O[16] O
*I *1023:X O *D sg13g2_buf_1
*CAP
1 FrameStrobe_O[16] 0.000261374
2 *1023:X 0.000261374
*RES
1 *1023:X FrameStrobe_O[16] 23.1106 
*END

*D_NET *93 0.000522747
*CONN
*P FrameStrobe_O[17] O
*I *1024:X O *D sg13g2_buf_1
*CAP
1 FrameStrobe_O[17] 0.000261374
2 *1024:X 0.000261374
*RES
1 *1024:X FrameStrobe_O[17] 23.1106 
*END

*D_NET *94 0.000543482
*CONN
*P FrameStrobe_O[18] O
*I *1025:X O *D sg13g2_buf_1
*CAP
1 FrameStrobe_O[18] 0.000271741
2 *1025:X 0.000271741
*RES
1 *1025:X FrameStrobe_O[18] 23.1106 
*END

*D_NET *95 0.000628018
*CONN
*P FrameStrobe_O[19] O
*I *1026:X O *D sg13g2_buf_1
*CAP
1 FrameStrobe_O[19] 0.000314009
2 *1026:X 0.000314009
3 FrameData_O[30] FrameStrobe_O[19] 0
4 FrameData_O[31] FrameStrobe_O[19] 0
*RES
1 *1026:X FrameStrobe_O[19] 23.1106 
*END

*D_NET *96 0.000762129
*CONN
*P FrameStrobe_O[1] O
*I *1027:X O *D sg13g2_buf_1
*CAP
1 FrameStrobe_O[1] 0.000381064
2 *1027:X 0.000381064
*RES
1 *1027:X FrameStrobe_O[1] 24.3054 
*END

*D_NET *97 0.000602567
*CONN
*P FrameStrobe_O[2] O
*I *1028:X O *D sg13g2_buf_1
*CAP
1 FrameStrobe_O[2] 0.000301284
2 *1028:X 0.000301284
*RES
1 *1028:X FrameStrobe_O[2] 23.1106 
*END

*D_NET *98 0.000602567
*CONN
*P FrameStrobe_O[3] O
*I *1029:X O *D sg13g2_buf_1
*CAP
1 FrameStrobe_O[3] 0.000301284
2 *1029:X 0.000301284
*RES
1 *1029:X FrameStrobe_O[3] 23.1106 
*END

*D_NET *99 0.000602567
*CONN
*P FrameStrobe_O[4] O
*I *1030:X O *D sg13g2_buf_1
*CAP
1 FrameStrobe_O[4] 0.000301284
2 *1030:X 0.000301284
*RES
1 *1030:X FrameStrobe_O[4] 23.1106 
*END

*D_NET *100 0.000602567
*CONN
*P FrameStrobe_O[5] O
*I *1031:X O *D sg13g2_buf_1
*CAP
1 FrameStrobe_O[5] 0.000301284
2 *1031:X 0.000301284
*RES
1 *1031:X FrameStrobe_O[5] 23.1106 
*END

*D_NET *101 0.000602567
*CONN
*P FrameStrobe_O[6] O
*I *1032:X O *D sg13g2_buf_1
*CAP
1 FrameStrobe_O[6] 0.000301284
2 *1032:X 0.000301284
*RES
1 *1032:X FrameStrobe_O[6] 23.1106 
*END

*D_NET *102 0.000602567
*CONN
*P FrameStrobe_O[7] O
*I *1034:X O *D sg13g2_buf_1
*CAP
1 FrameStrobe_O[7] 0.000301284
2 *1034:X 0.000301284
*RES
1 *1034:X FrameStrobe_O[7] 23.1106 
*END

*D_NET *103 0.000604827
*CONN
*P FrameStrobe_O[8] O
*I *1035:X O *D sg13g2_buf_1
*CAP
1 FrameStrobe_O[8] 0.000302413
2 *1035:X 0.000302413
3 FrameStrobe_O[8] *1035:A 0
*RES
1 *1035:X FrameStrobe_O[8] 23.1106 
*END

*D_NET *104 0.00142093
*CONN
*P FrameStrobe_O[9] O
*I *1036:X O *D sg13g2_buf_1
*CAP
1 FrameStrobe_O[9] 0.000558052
2 *1036:X 0.000558052
3 FrameStrobe_O[9] *235:10 0
4 *908:A FrameStrobe_O[9] 0.000304822
5 *909:A FrameStrobe_O[9] 0
*RES
1 *1036:X FrameStrobe_O[9] 26.4684 
*END

*D_NET *105 0.00975629
*CONN
*P N1END[0] I
*I *933:A I *D sg13g2_buf_1
*CAP
1 N1END[0] 0.00161493
2 *933:A 7.09787e-05
3 *105:9 0.00168591
4 *933:A *142:13 0.000111817
5 *933:A *151:19 0
6 *105:9 *106:13 0
7 *105:9 *107:13 0.0025245
8 *105:9 *108:9 0.00319491
9 *105:9 *153:19 0.000553246
10 *105:9 *154:27 0
11 *23:13 *105:9 0
12 *26:9 *105:9 0
13 *29:7 *105:9 0
*RES
1 N1END[0] *105:9 43.0102 
2 *105:9 *933:A 40.7519 
*END

*D_NET *106 0.00679828
*CONN
*P N1END[1] I
*I *932:A I *D sg13g2_buf_1
*CAP
1 N1END[1] 0.00172891
2 *932:A 0
3 *106:19 0.000273747
4 *106:13 0.00200266
5 *106:13 *107:13 0
6 *106:13 *112:11 0
7 *106:13 *138:17 0.00108315
8 *106:13 *148:13 0.00129439
9 *1:9 *106:13 0.000234224
10 *12:9 *106:13 0.000181192
11 *23:13 *106:13 0
12 *105:9 *106:13 0
*RES
1 N1END[1] *106:13 39.1374 
2 *106:13 *106:19 42.0497 
3 *106:19 *932:A 40 
*END

*D_NET *107 0.00719274
*CONN
*P N1END[2] I
*I *931:A I *D sg13g2_buf_1
*CAP
1 N1END[2] 0.00187757
2 *931:A 0.000102743
3 *107:13 0.00198031
4 *931:A *129:15 0.000175648
5 *931:A *130:17 0.000175648
6 *107:13 *108:9 0
7 *107:13 *124:9 0
8 *107:13 *151:19 0
9 *107:13 *153:19 0.00012816
10 *107:13 *309:14 0.000228159
11 *29:7 *107:13 0
12 *105:9 *107:13 0.0025245
13 *106:13 *107:13 0
*RES
1 N1END[2] *107:13 40.4976 
2 *107:13 *931:A 41.1845 
*END

*D_NET *108 0.00677054
*CONN
*P N1END[3] I
*I *930:A I *D sg13g2_buf_1
*CAP
1 N1END[3] 0.00162036
2 *930:A 5.38529e-05
3 *108:9 0.00167421
4 *930:A *130:17 0
5 *930:A *267:10 4.77425e-05
6 *108:9 *109:11 0
7 *108:9 *114:9 0
8 *108:9 *117:7 0
9 *108:9 *154:27 0.000179464
10 *105:9 *108:9 0.00319491
11 *107:13 *108:9 0
*RES
1 N1END[3] *108:9 38.3443 
2 *108:9 *930:A 40.5356 
*END

*D_NET *109 0.0157284
*CONN
*P N2END[0] I
*I *949:A I *D sg13g2_buf_1
*CAP
1 N2END[0] 0.000723792
2 *949:A 0
3 *109:21 7.88706e-05
4 *109:15 0.00151142
5 *109:13 0.00143255
6 *109:11 0.000723792
7 *109:11 *110:11 0
8 *109:11 *124:9 0
9 *109:15 *135:13 0
10 *109:15 *310:18 0.00538864
11 *109:15 *312:12 0.0058693
12 *108:9 *109:11 0
*RES
1 N2END[0] *109:11 46.1079 
2 *109:11 *109:13 20 
3 *109:13 *109:15 30.5086 
4 *109:15 *109:21 40.5356 
5 *109:21 *949:A 40 
*END

*D_NET *110 0.016455
*CONN
*P N2END[1] I
*I *948:A I *D sg13g2_buf_1
*CAP
1 N2END[1] 0.00157781
2 *948:A 0.000417932
3 *110:23 0.00265661
4 *110:11 0.00381649
5 *948:A *951:A 0.00014454
6 *948:A *1070:A 0.00014391
7 *948:A *188:12 0.000207845
8 *948:A *289:14 4.77425e-05
9 *110:11 *111:11 0
10 *110:11 *115:9 0
11 *110:11 *122:13 0
12 *110:11 *124:9 0
13 *110:23 *111:11 0
14 *110:23 *111:21 0.000988031
15 *110:23 *115:9 0.00352754
16 *110:23 *120:9 0
17 *110:23 *188:12 0
18 *110:23 *230:10 0
19 *110:23 *316:18 0.00156713
20 *2:5 *110:11 0.00135938
21 *2:5 *110:23 0
22 *32:5 *110:11 0
23 *109:11 *110:11 0
*RES
1 N2END[1] *110:11 35.2337 
2 *110:11 *110:23 48.6649 
3 *110:23 *948:A 24.2333 
*END

*D_NET *111 0.0145289
*CONN
*P N2END[2] I
*I *947:A I *D sg13g2_buf_1
*CAP
1 N2END[2] 0.00263921
2 *947:A 0
3 *111:27 4.37077e-05
4 *111:21 0.00213956
5 *111:11 0.00473506
6 *111:11 *112:11 0
7 *111:11 *113:21 0
8 *111:11 *115:9 0
9 *111:11 *119:13 0.00369477
10 *111:11 *120:9 0
11 *111:21 *119:13 0
12 *111:21 *127:17 0
13 *111:21 *175:18 0
14 *111:21 *230:10 0
15 *111:27 S4BEG[2] 8.00842e-05
16 *111:27 *140:31 8.00842e-05
17 *913:A *111:21 0.00012838
18 *81:21 *111:21 0
19 *83:21 *111:21 0
20 *110:11 *111:11 0
21 *110:23 *111:11 0
22 *110:23 *111:21 0.000988031
*RES
1 N2END[2] *111:11 47.3774 
2 *111:11 *111:21 39.5391 
3 *111:21 *111:27 40.5356 
4 *111:27 *947:A 20 
*END

*D_NET *112 0.00885189
*CONN
*P N2END[3] I
*I *946:A I *D sg13g2_buf_1
*CAP
1 N2END[3] 0.00107199
2 *946:A 0
3 *112:21 0.00011855
4 *112:15 0.00131023
5 *112:11 0.00226367
6 *112:11 *113:21 0
7 *112:11 *114:9 0
8 *112:11 *137:13 0
9 *112:11 *141:19 0
10 *112:15 *312:12 0.00394678
11 *112:15 *313:14 0
12 *112:21 *314:16 0.000140671
13 *106:13 *112:11 0
14 *111:11 *112:11 0
*RES
1 N2END[3] *112:11 49.1361 
2 *112:11 *112:15 38.1486 
3 *112:15 *112:21 40.9682 
4 *112:21 *946:A 40 
*END

*D_NET *113 0.0121936
*CONN
*P N2END[4] I
*I *945:A I *D sg13g2_buf_1
*CAP
1 N2END[4] 0.00216123
2 *945:A 0.000305083
3 *113:21 0.00246631
4 *945:A S2BEG[2] 0
5 *945:A S2BEG[6] 0
6 *945:A *1048:A 8.00842e-05
7 *945:A *281:10 0.000143676
8 *113:21 *1037:A 0.00113699
9 *113:21 *114:9 0
10 *113:21 *115:9 0
11 *113:21 *116:9 0.00158232
12 *113:21 *121:9 0
13 *113:21 *123:11 0
14 *113:21 *138:41 0.000282336
15 *113:21 *215:12 0.00187681
16 *27:25 *113:21 0
17 *27:31 *113:21 0.00107566
18 *29:7 *113:21 0.00108312
19 *111:11 *113:21 0
20 *112:11 *113:21 0
*RES
1 N2END[4] *113:21 48.6958 
2 *113:21 *945:A 42.8325 
*END

*D_NET *114 0.00930576
*CONN
*P N2END[5] I
*I *944:A I *D sg13g2_buf_1
*CAP
1 N2END[5] 0.00135402
2 *944:A 0
3 *114:21 0
4 *114:17 0.00049952
5 *114:13 0.00049952
6 *114:9 0.00135402
7 *114:9 *115:9 0
8 *114:9 *128:11 2.1786e-05
9 *114:9 *141:19 0
10 *114:9 *154:27 7.51871e-05
11 *114:17 *135:13 0.00275131
12 *114:17 *310:18 0.00275039
13 *108:9 *114:9 0
14 *112:11 *114:9 0
15 *113:21 *114:9 0
*RES
1 N2END[5] *114:9 30.4957 
2 *114:9 *114:13 40 
3 *114:13 *114:17 32.7102 
4 *114:17 *114:21 40 
5 *114:21 *944:A 20 
*END

*D_NET *115 0.0117759
*CONN
*P N2END[6] I
*I *943:A I *D sg13g2_buf_1
*CAP
1 N2END[6] 0.00239455
2 *943:A 0.000455471
3 *115:9 0.00285002
4 *943:A S2BEG[1] 0
5 *943:A S2BEG[2] 0.00017625
6 *943:A *1042:A 0
7 *943:A *119:13 0
8 *943:A *138:41 0.000166352
9 *115:9 *116:9 0
10 *115:9 *117:15 0
11 *115:9 *125:7 0
12 *115:9 *316:18 0
13 *32:5 *115:9 0.00220575
14 *32:19 *943:A 0
15 *110:11 *115:9 0
16 *110:23 *115:9 0.00352754
17 *111:11 *115:9 0
18 *113:21 *115:9 0
19 *114:9 *115:9 0
*RES
1 N2END[6] *115:9 48.2941 
2 *115:9 *943:A 44.4702 
*END

*D_NET *116 0.0108173
*CONN
*P N2END[7] I
*I *942:A I *D sg13g2_buf_1
*CAP
1 N2END[7] 0.00182318
2 *942:A 0.000122904
3 *116:9 0.00194608
4 *942:A S2BEG[1] 0.00017625
5 *116:9 *118:9 0
6 *116:9 *121:9 0.00193633
7 *116:9 *125:7 0
8 *116:9 *215:12 0.00182676
9 *116:9 *272:12 0.00140351
10 *113:21 *116:9 0.00158232
11 *115:9 *116:9 0
*RES
1 N2END[7] *116:9 44.4316 
2 *116:9 *942:A 41.1845 
*END

*D_NET *117 0.0117401
*CONN
*P N2MID[0] I
*I *941:A I *D sg13g2_buf_1
*CAP
1 N2MID[0] 0.000901346
2 *941:A 0
3 *117:15 0.00268505
4 *117:7 0.00358639
5 *117:7 *118:9 0
6 *117:7 *119:7 0
7 *117:15 S1BEG[0] 0
8 *117:15 S1BEG[2] 0
9 *117:15 *119:13 0.000143908
10 *117:15 *130:17 0
11 *117:15 *316:18 0.000716077
12 *31:9 *117:15 0
13 *32:5 *117:15 0.00370735
14 *108:9 *117:7 0
15 *115:9 *117:15 0
*RES
1 N2MID[0] *117:7 27.7353 
2 *117:7 *117:15 47.81 
3 *117:15 *941:A 20 
*END

*D_NET *118 0.0101732
*CONN
*P N2MID[1] I
*I *940:A I *D sg13g2_buf_1
*CAP
1 N2MID[1] 0.00292599
2 *940:A 0.000196712
3 *118:9 0.0031227
4 *940:A *968:A 0
5 *940:A *147:9 4.78128e-05
6 *118:9 *1039:A 0
7 *118:9 *119:7 0
8 *118:9 *121:9 0.00311476
9 *118:9 *122:13 0
10 *118:9 *272:12 0.000765271
11 *31:9 *118:9 0
12 *116:9 *118:9 0
13 *117:7 *118:9 0
*RES
1 N2MID[1] *118:9 48.8194 
2 *118:9 *940:A 41.6171 
*END

*D_NET *119 0.0122505
*CONN
*P N2MID[2] I
*I *939:A I *D sg13g2_buf_1
*CAP
1 N2MID[2] 0.00117937
2 *939:A 0
3 *119:13 0.00180496
4 *119:7 0.00298433
5 *119:7 *120:9 0
6 *119:13 *120:9 0
7 *119:13 *126:33 0
8 *119:13 *127:17 0.00244319
9 *943:A *119:13 0
10 *4:5 *119:13 0
11 *83:21 *119:13 0
12 *111:11 *119:13 0.00369477
13 *111:21 *119:13 0
14 *117:7 *119:7 0
15 *117:15 *119:13 0.000143908
16 *118:9 *119:7 0
*RES
1 N2MID[2] *119:7 29.682 
2 *119:7 *119:13 46.5019 
3 *119:13 *939:A 20 
*END

*D_NET *120 0.0102717
*CONN
*P N2MID[3] I
*I *938:A I *D sg13g2_buf_1
*CAP
1 N2MID[3] 0.00283447
2 *938:A 0.000543271
3 *120:9 0.00337774
4 *938:A *968:A 0
5 *938:A *969:A 9.54402e-05
6 *938:A *316:8 4.75151e-05
7 *120:9 *121:9 0
8 *120:9 *122:13 0
9 *2:5 *120:9 0.00337322
10 *110:23 *120:9 0
11 *111:11 *120:9 0
12 *119:7 *120:9 0
13 *119:13 *120:9 0
*RES
1 N2MID[3] *120:9 48.4177 
2 *120:9 *938:A 44.8822 
*END

*D_NET *121 0.0110935
*CONN
*P N2MID[4] I
*I *937:A I *D sg13g2_buf_1
*CAP
1 N2MID[4] 0.00155614
2 *937:A 0.000312666
3 *121:17 0.000602474
4 *121:9 0.00184594
5 *937:A *143:17 8.00842e-05
6 *937:A *272:12 0.00011101
7 *937:A *317:18 0
8 *121:9 *122:13 0
9 *121:17 *122:13 0.000766858
10 *121:17 *130:17 0.000767273
11 *29:7 *121:9 0
12 *113:21 *121:9 0
13 *116:9 *121:9 0.00193633
14 *118:9 *121:9 0.00311476
15 *120:9 *121:9 0
*RES
1 N2MID[4] *121:9 40.4455 
2 *121:9 *121:17 44.7483 
3 *121:17 *937:A 42.8325 
*END

*D_NET *122 0.00763288
*CONN
*P N2MID[5] I
*I *936:A I *D sg13g2_buf_1
*CAP
1 N2MID[5] 0.0028006
2 *936:A 0
3 *122:13 0.0028006
4 *122:13 *1039:A 0.00103148
5 *122:13 *123:11 0
6 *122:13 *130:17 0
7 *122:13 *137:27 0.000233339
8 *31:9 *122:13 0
9 *110:11 *122:13 0
10 *118:9 *122:13 0
11 *120:9 *122:13 0
12 *121:9 *122:13 0
13 *121:17 *122:13 0.000766858
*RES
1 N2MID[5] *122:13 45.6591 
2 *122:13 *936:A 40 
*END

*D_NET *123 0.00790871
*CONN
*P N2MID[6] I
*I *935:A I *D sg13g2_buf_1
*CAP
1 N2MID[6] 0.00188702
2 *935:A 0
3 *123:11 0.00188702
4 *123:11 *1037:A 0.000981238
5 *123:11 *124:9 0.00315343
6 *123:11 *309:14 0
7 *29:7 *123:11 0
8 *113:21 *123:11 0
9 *122:13 *123:11 0
*RES
1 N2MID[6] *123:11 41.4137 
2 *123:11 *935:A 40 
*END

*D_NET *124 0.00712383
*CONN
*P N2MID[7] I
*I *934:A I *D sg13g2_buf_1
*CAP
1 N2MID[7] 0.00152383
2 *934:A 0
3 *124:9 0.00152383
4 *124:9 *151:19 0.000922744
5 *124:9 *309:14 0
6 *107:13 *124:9 0
7 *109:11 *124:9 0
8 *110:11 *124:9 0
9 *123:11 *124:9 0.00315343
*RES
1 N2MID[7] *124:9 39.3949 
2 *124:9 *934:A 40 
*END

*D_NET *125 0.0198905
*CONN
*P N4END[0] I
*I *965:A I *D sg13g2_buf_1
*CAP
1 N4END[0] 0.00170382
2 *965:A 0.000723712
3 *125:9 0.0040798
4 *125:7 0.00505991
5 *965:A *963:A 0.000628069
6 *965:A *134:21 0
7 *125:7 *132:7 0
8 *125:9 *134:13 0.0029257
9 *125:9 *260:10 0.0013088
10 *125:9 *296:8 0.00346069
11 *8:9 *125:9 0
12 *115:9 *125:7 0
13 *116:9 *125:7 0
*RES
1 N4END[0] *125:7 33.7917 
2 *125:7 *125:9 38.419 
3 *125:9 *965:A 44.807 
*END

*D_NET *126 0.0174988
*CONN
*P N4END[10] I
*I *955:A I *D sg13g2_buf_1
*CAP
1 N4END[10] 0.00130639
2 *955:A 0
3 *126:33 0.00149663
4 *126:27 0.00280301
5 *126:27 *139:11 0
6 *126:27 *150:19 0.00014372
7 *126:27 *152:15 9.0007e-05
8 *126:27 *308:8 1.54008e-05
9 *126:27 *311:10 0.000465162
10 *126:33 *127:17 0.00544779
11 *126:33 *127:25 0.000465953
12 *126:33 *128:19 0.00524933
13 *126:33 *288:18 1.54008e-05
14 *4:5 *126:33 0
15 *119:13 *126:33 0
*RES
1 N4END[10] *126:27 32.1334 
2 *126:27 *126:33 49.4065 
3 *126:33 *955:A 20 
*END

*D_NET *127 0.0163643
*CONN
*P N4END[11] I
*I *954:A I *D sg13g2_buf_1
*CAP
1 N4END[11] 0.000305413
2 *954:A 0
3 *127:25 0.00059538
4 *127:17 0.00225538
5 *127:13 0.00256964
6 *127:9 0.00121505
7 *127:9 *128:11 0
8 *127:13 *128:15 0
9 *127:13 *310:12 0.000237511
10 *127:13 *311:16 0
11 *127:25 *952:A 8.00842e-05
12 *127:25 *957:A 0.000465953
13 *127:25 *140:31 2.20966e-05
14 *127:25 *191:8 0.000181694
15 *127:25 *300:10 7.9225e-05
16 *29:13 *127:13 0
17 *83:21 *127:17 0
18 *111:21 *127:17 0
19 *119:13 *127:17 0.00244319
20 *126:33 *127:17 0.00544779
21 *126:33 *127:25 0.000465953
*RES
1 N4END[11] *127:9 42.3278 
2 *127:9 *127:13 27.6735 
3 *127:13 *127:17 45.3174 
4 *127:17 *127:25 46.1388 
5 *127:25 *954:A 20 
*END

*D_NET *128 0.0162227
*CONN
*P N4END[12] I
*I *953:A I *D sg13g2_buf_1
*CAP
1 N4END[12] 0.000386807
2 *953:A 0.000854361
3 *128:19 0.00232538
4 *128:15 0.0023904
5 *128:11 0.00130619
6 *953:A *957:A 0
7 *953:A *960:A 0
8 *953:A *215:18 0.000175693
9 *953:A *302:10 7.92265e-05
10 *953:A *305:10 8.00842e-05
11 *953:A *314:22 0
12 *128:11 *129:15 0
13 *128:11 *141:19 7.51285e-05
14 *128:15 *217:14 0
15 *128:19 *133:9 0
16 *4:5 *128:19 0.00327835
17 *65:9 *128:19 0
18 *83:21 *128:19 0
19 *114:9 *128:11 2.1786e-05
20 *126:33 *128:19 0.00524933
21 *127:9 *128:11 0
22 *127:13 *128:15 0
*RES
1 N4END[12] *128:11 43.1106 
2 *128:11 *128:15 27.6735 
3 *128:15 *128:19 46.5534 
4 *128:19 *953:A 27.8224 
*END

*D_NET *129 0.0116221
*CONN
*P N4END[13] I
*I *952:A I *D sg13g2_buf_1
*CAP
1 N4END[13] 0.000687807
2 *952:A 4.37077e-05
3 *129:35 0.000413049
4 *129:27 0.00113729
5 *129:23 0.00134852
6 *129:15 0.00126838
7 *952:A *288:18 8.00842e-05
8 *129:15 *130:17 0
9 *129:15 *131:17 7.52158e-05
10 *129:15 *141:19 0
11 *129:15 *154:27 2.20966e-05
12 *129:15 *268:10 0
13 *129:23 *137:27 0
14 *129:23 *153:19 0.000715225
15 *129:23 *271:10 0
16 *129:23 *275:10 0
17 *129:23 *276:10 0.000342145
18 *129:23 *309:14 0.00156451
19 *129:27 *217:14 0
20 *129:27 *217:20 0
21 *129:27 *240:14 0
22 *129:27 *242:20 0
23 *129:27 *243:14 0
24 *129:35 *130:25 0
25 *129:35 *138:41 4.81093e-05
26 *129:35 *140:31 0.000393736
27 *129:35 *289:14 0.00065753
28 *129:35 *298:8 0.000553748
29 *931:A *129:15 0.000175648
30 *23:25 *129:27 0.00201518
31 *127:25 *952:A 8.00842e-05
32 *128:11 *129:15 0
*RES
1 N4END[13] *129:15 45.8504 
2 *129:15 *129:23 48.6726 
3 *129:23 *129:27 30.4854 
4 *129:27 *129:35 45.3663 
5 *129:35 *952:A 40.5356 
*END

*D_NET *130 0.0120774
*CONN
*P N4END[14] I
*I *951:A I *D sg13g2_buf_1
*CAP
1 N4END[14] 0.00193597
2 *951:A 7.97149e-05
3 *130:25 0.000971915
4 *130:17 0.00282817
5 *951:A *188:12 0.00014454
6 *130:17 *137:27 0.000286938
7 *130:17 *137:33 0
8 *130:17 *153:19 0.000123765
9 *130:17 *219:8 0.000304939
10 *130:17 *267:10 0
11 *130:17 *273:8 0.00119082
12 *130:17 *316:18 0.001989
13 *130:25 *138:41 0.000664808
14 *130:25 *215:18 0
15 *130:25 *298:8 0.000341119
16 *130:25 *300:10 0.000128247
17 *883:A *130:25 0
18 *930:A *130:17 0
19 *931:A *130:17 0.000175648
20 *948:A *951:A 0.00014454
21 *31:23 *130:17 0
22 *117:15 *130:17 0
23 *121:17 *130:17 0.000767273
24 *122:13 *130:17 0
25 *129:15 *130:17 0
26 *129:35 *130:25 0
*RES
1 N4END[14] *130:17 43.1441 
2 *130:17 *130:25 48.6108 
3 *130:25 *951:A 40.9682 
*END

*D_NET *131 0.00564222
*CONN
*P N4END[15] I
*I *950:A I *D sg13g2_buf_1
*CAP
1 N4END[15] 0.000793252
2 *950:A 0
3 *131:25 0.00057812
4 *131:17 0.00137137
5 *131:17 *968:A 0
6 *131:17 *969:A 0
7 *131:17 *1041:A 4.76977e-05
8 *131:17 *137:13 0.000656673
9 *131:17 *141:19 0.000153797
10 *131:17 *150:13 0.000288617
11 *131:17 *154:27 0
12 *131:17 *158:8 0.00028427
13 *131:17 *160:10 0.000122839
14 *131:17 *268:10 0.000713513
15 *131:25 S1BEG[2] 0.000240862
16 *131:25 *1047:A 0.000240862
17 *131:25 *158:8 0
18 *131:25 *271:10 7.51285e-05
19 *131:25 *275:10 0
20 *131:25 *276:10 0
21 *131:25 *315:26 0
22 *129:15 *131:17 7.52158e-05
*RES
1 N4END[15] *131:17 49.9704 
2 *131:17 *131:25 45.4281 
3 *131:25 *950:A 20 
*END

*D_NET *132 0.0167534
*CONN
*P N4END[1] I
*I *964:A I *D sg13g2_buf_1
*CAP
1 N4END[1] 0.00197963
2 *964:A 0.000979335
3 *132:9 0.00471729
4 *132:7 0.00571759
5 *964:A *963:A 0
6 *964:A *248:12 0
7 *964:A *249:16 0
8 *964:A *314:32 0
9 *132:7 *133:7 0
10 *132:7 *134:7 0
11 *132:7 *260:22 0
12 *132:9 *214:10 0
13 *132:9 *214:14 0.00260477
14 *132:9 *261:14 0
15 *132:9 *296:8 0
16 *7:13 *132:9 0
17 *10:13 *132:9 0.000513752
18 *78:15 *964:A 0.000241052
19 *80:31 *132:9 0
20 *80:43 *132:9 0
21 *125:7 *132:7 0
*RES
1 N4END[1] *132:7 35.7384 
2 *132:7 *132:9 36.9358 
3 *132:9 *964:A 48.9713 
*END

*D_NET *133 0.0179738
*CONN
*P N4END[2] I
*I *963:A I *D sg13g2_buf_1
*CAP
1 N4END[2] 0.0014399
2 *963:A 0.000678775
3 *133:9 0.00381558
4 *133:7 0.0045767
5 *963:A *291:12 8.00842e-05
6 *963:A *306:12 0
7 *963:A *316:18 0
8 *133:7 *134:7 0
9 *133:9 *136:13 0.00675474
10 *133:9 *263:10 0
11 *964:A *963:A 0
12 *965:A *963:A 0.000628069
13 *4:5 *133:9 0
14 *5:5 *133:9 0
15 *65:9 *133:9 0
16 *67:9 *133:9 0
17 *128:19 *133:9 0
18 *132:7 *133:7 0
*RES
1 N4END[2] *133:7 30.9798 
2 *133:7 *133:9 37.183 
3 *133:9 *963:A 45.5353 
*END

*D_NET *134 0.0224271
*CONN
*P N4END[3] I
*I *962:A I *D sg13g2_buf_1
*CAP
1 N4END[3] 0.00159637
2 *962:A 0
3 *134:21 0.00118247
4 *134:13 0.00374234
5 *134:7 0.00415624
6 *134:7 *135:9 0
7 *134:7 *136:11 0
8 *134:7 *139:11 0
9 *134:13 *139:15 0
10 *134:13 *218:16 0
11 *134:13 *218:24 0.00306184
12 *134:13 *219:14 0.00375516
13 *134:13 *260:10 0.00130018
14 *134:13 *296:8 0
15 *134:21 SS4BEG[13] 0.000112314
16 *134:21 *987:A 8.00842e-05
17 *134:21 *1078:A 0
18 *134:21 *194:10 0.000241052
19 *134:21 *316:18 0.000273394
20 *965:A *134:21 0
21 *5:5 *134:13 0
22 *125:9 *134:13 0.0029257
23 *132:7 *134:7 0
24 *133:7 *134:7 0
*RES
1 N4END[3] *134:7 33.1743 
2 *134:7 *134:13 38.5941 
3 *134:13 *134:21 31.1549 
4 *134:21 *962:A 20 
*END

*D_NET *135 0.0147439
*CONN
*P N4END[4] I
*I *961:A I *D sg13g2_buf_1
*CAP
1 N4END[4] 0.000399023
2 *961:A 6.1769e-05
3 *135:17 6.1769e-05
4 *135:13 0.00268405
5 *135:11 0.00268405
6 *135:9 0.000399023
7 *961:A SS4BEG[10] 4.77425e-05
8 *135:9 *136:11 0
9 *135:9 *148:13 0
10 *135:13 *237:12 0
11 *135:13 *310:18 0.000752048
12 *12:13 *135:13 0.00490311
13 *109:15 *135:13 0
14 *114:17 *135:13 0.00275131
15 *134:7 *135:9 0
*RES
1 N4END[4] *135:9 43.193 
2 *135:9 *135:11 20 
3 *135:11 *135:13 36.6886 
4 *135:13 *135:17 40 
5 *135:17 *961:A 40.6695 
*END

*D_NET *136 0.0197508
*CONN
*P N4END[5] I
*I *960:A I *D sg13g2_buf_1
*CAP
1 N4END[5] 0.00127257
2 *960:A 0.000465963
3 *136:13 0.00167669
4 *136:11 0.0024833
5 *960:A SS4BEG[1] 0
6 *960:A *1061:A 0
7 *960:A *247:10 1.54008e-05
8 *136:11 *981:A 0
9 *136:11 *137:13 0.000144875
10 *136:11 *139:11 0
11 *136:11 *148:13 0.000273128
12 *136:11 *149:13 0
13 *136:13 *263:10 0.002531
14 *921:A *960:A 0
15 *953:A *960:A 0
16 *5:5 *136:13 0.00413314
17 *133:9 *136:13 0.00675474
18 *134:7 *136:11 0
19 *135:9 *136:11 0
*RES
1 N4END[5] *136:11 31.6493 
2 *136:11 *136:13 31.2502 
3 *136:13 *960:A 44.429 
*END

*D_NET *137 0.0139811
*CONN
*P N4END[6] I
*I *959:A I *D sg13g2_buf_1
*CAP
1 N4END[6] 0.000818408
2 *959:A 0
3 *137:33 0.00135078
4 *137:27 0.00218676
5 *137:13 0.00165438
6 *137:13 *138:17 0
7 *137:13 *141:19 0
8 *137:13 *148:13 0
9 *137:13 *149:13 0.00118576
10 *137:13 *150:13 0.00102974
11 *137:13 *216:22 0.000393736
12 *137:27 *1039:A 0.000389543
13 *137:27 *273:8 0.000394341
14 *137:33 *179:8 0
15 *137:33 *209:9 0.00134758
16 *137:33 *215:18 0
17 *137:33 *272:12 0
18 *137:33 *288:18 0.000819685
19 *137:33 *306:12 0
20 *137:33 *316:18 0
21 *28:19 *137:33 0
22 *31:23 *137:33 0.00108856
23 *112:11 *137:13 0
24 *122:13 *137:27 0.000233339
25 *129:23 *137:27 0
26 *130:17 *137:27 0.000286938
27 *130:17 *137:33 0
28 *131:17 *137:13 0.000656673
29 *136:11 *137:13 0.000144875
*RES
1 N4END[6] *137:13 31.845 
2 *137:13 *137:27 49.3524 
3 *137:27 *137:33 36.4903 
4 *137:33 *959:A 20 
*END

*D_NET *138 0.0160658
*CONN
*P N4END[7] I
*I *958:A I *D sg13g2_buf_1
*CAP
1 N4END[7] 0.00129548
2 *958:A 8.49391e-05
3 *138:59 0.000513328
4 *138:51 0.000977476
5 *138:41 0.00137842
6 *138:25 0.00119816
7 *138:17 0.00166432
8 *958:A *182:30 0
9 *958:A *183:20 0.000118286
10 *958:A *290:16 0.000170002
11 *138:17 *139:11 0
12 *138:17 *142:13 0
13 *138:17 *143:17 0.000234224
14 *138:17 *149:13 7.48209e-05
15 *138:17 *156:15 0.000393406
16 *138:17 *216:22 0.00118963
17 *138:17 *317:18 0.00023547
18 *138:17 *317:24 0
19 *138:25 S1BEG[2] 0
20 *138:25 S2BEG[1] 0
21 *138:25 *1047:A 0
22 *138:25 *166:10 0.000143351
23 *138:25 *309:28 0.000234224
24 *138:41 S2BEG[1] 0
25 *138:41 S2BEG[2] 0
26 *138:41 *215:12 0
27 *138:41 *215:18 0
28 *138:41 *289:14 0
29 *138:51 *140:31 0.000340811
30 *138:51 *147:23 4.63914e-05
31 *138:51 *176:16 2.16263e-05
32 *138:51 *177:8 0.000390421
33 *138:51 *289:14 0
34 *138:51 *297:8 2.21839e-05
35 *138:51 *314:22 0
36 *138:59 *188:12 0.00014454
37 *138:59 *215:18 0
38 *138:59 *298:8 0.000128576
39 *138:59 *300:10 0.000340704
40 *138:59 *314:32 0.000500215
41 *943:A *138:41 0.000166352
42 *1:9 *138:17 0.000552831
43 *23:25 *138:51 0
44 *27:31 *138:41 0.000769672
45 *81:21 *138:51 0
46 *83:9 *138:59 0.000657508
47 *106:13 *138:17 0.00108315
48 *113:21 *138:41 0.000282336
49 *129:35 *138:41 4.81093e-05
50 *130:25 *138:41 0.000664808
51 *137:13 *138:17 0
*RES
1 N4END[7] *138:17 36.3152 
2 *138:17 *138:25 43.5741 
3 *138:25 *138:41 49.7026 
4 *138:41 *138:51 45.3766 
5 *138:51 *138:59 46.0152 
6 *138:59 *958:A 41.169 
*END

*D_NET *139 0.0116844
*CONN
*P N4END[8] I
*I *957:A I *D sg13g2_buf_1
*CAP
1 N4END[8] 0.00144418
2 *957:A 0.000575115
3 *139:15 0.00365438
4 *139:11 0.00452345
5 *957:A S4BEG[11] 4.75525e-05
6 *139:11 *981:A 0
7 *139:11 *140:13 0
8 *139:11 *149:13 4.77425e-05
9 *139:11 *152:15 0.000369771
10 *139:11 *218:10 0
11 *139:11 *308:8 0
12 *139:11 *311:10 0
13 *139:15 *218:16 0
14 *139:15 *219:22 0
15 *139:15 *308:10 0
16 *953:A *957:A 0
17 *5:5 *139:15 0
18 *66:11 *139:15 0.000556237
19 *126:27 *139:11 0
20 *127:25 *957:A 0.000465953
21 *134:7 *139:11 0
22 *134:13 *139:15 0
23 *136:11 *139:11 0
24 *138:17 *139:11 0
*RES
1 N4END[8] *139:11 31.8068 
2 *139:11 *139:15 47.295 
3 *139:15 *957:A 25.5105 
*END

*D_NET *140 0.0109098
*CONN
*P N4END[9] I
*I *956:A I *D sg13g2_buf_1
*CAP
1 N4END[9] 0.00200312
2 *956:A 0.000184688
3 *140:31 0.000910429
4 *140:13 0.00272886
5 *956:A *303:12 7.98942e-05
6 *956:A *314:22 7.98942e-05
7 *140:13 *152:15 0.00129486
8 *140:13 *170:10 0
9 *140:13 *173:10 0.000711272
10 *140:13 *317:24 0.000976647
11 *140:31 S4BEG[2] 0.00014476
12 *140:31 S4BEG[3] 8.00842e-05
13 *140:31 *1057:A 0.000208035
14 *140:31 *173:10 0.000111685
15 *140:31 *175:10 0.000143351
16 *140:31 *191:8 0
17 *140:31 *289:14 0.000287364
18 *140:31 *297:8 0
19 *83:9 *956:A 0.00012816
20 *111:27 *140:31 8.00842e-05
21 *127:25 *140:31 2.20966e-05
22 *129:35 *140:31 0.000393736
23 *138:51 *140:31 0.000340811
24 *139:11 *140:13 0
*RES
1 N4END[9] *140:13 43.6179 
2 *140:13 *140:31 48.755 
3 *140:31 *956:A 41.8746 
*END

*D_NET *141 0.00299943
*CONN
*P NN4END[0] I
*I *981:A I *D sg13g2_buf_1
*CAP
1 NN4END[0] 0.000860865
2 *981:A 0.000314201
3 *141:19 0.00117507
4 *981:A *149:13 8.00842e-05
5 *141:19 *150:13 0.000340288
6 *141:19 *268:10 0
7 *112:11 *141:19 0
8 *114:9 *141:19 0
9 *128:11 *141:19 7.51285e-05
10 *129:15 *141:19 0
11 *131:17 *141:19 0.000153797
12 *136:11 *981:A 0
13 *137:13 *141:19 0
14 *139:11 *981:A 0
*RES
1 NN4END[0] *141:19 47.7559 
2 *141:19 *981:A 22.6162 
*END

*D_NET *142 0.00293537
*CONN
*P NN4END[10] I
*I *971:A I *D sg13g2_buf_1
*CAP
1 NN4END[10] 0.000886342
2 *971:A 0
3 *142:13 0.000886342
4 *142:13 *143:17 0.000340789
5 *142:13 *149:13 0.000112496
6 *142:13 *150:13 0.00017625
7 *142:13 *154:13 0.000181192
8 *142:13 *155:15 0
9 *142:13 *156:15 0
10 *142:13 *269:8 0.000240141
11 *933:A *142:13 0.000111817
12 *138:17 *142:13 0
*RES
1 NN4END[10] *142:13 48.6211 
2 *142:13 *971:A 20 
*END

*D_NET *143 0.00325592
*CONN
*P NN4END[11] I
*I *970:A I *D sg13g2_buf_1
*CAP
1 NN4END[11] 0.000897259
2 *970:A 0
3 *143:17 0.000897259
4 *143:17 *969:A 0
5 *143:17 *1038:A 0.000112236
6 *143:17 *153:19 0.000401036
7 *143:17 *272:12 0.00011101
8 *143:17 *317:18 0.000182023
9 *937:A *143:17 8.00842e-05
10 *138:17 *143:17 0.000234224
11 *142:13 *143:17 0.000340789
*RES
1 NN4END[11] *143:17 49.5069 
2 *143:17 *970:A 20 
*END

*D_NET *144 0.00253646
*CONN
*P NN4END[12] I
*I *969:A I *D sg13g2_buf_1
*CAP
1 NN4END[12] 0.000885574
2 *969:A 0.000885574
3 *969:A *968:A 0
4 *969:A *1040:A 4.76977e-05
5 *969:A *160:10 7.92265e-05
6 *969:A *161:10 0.000112381
7 *969:A *275:10 0.00011101
8 *969:A *317:18 0.000319557
9 *938:A *969:A 9.54402e-05
10 *131:17 *969:A 0
11 *143:17 *969:A 0
*RES
1 NN4END[12] *969:A 28.5181 
*END

*D_NET *145 0.00137264
*CONN
*P NN4END[13] I
*I *968:A I *D sg13g2_buf_1
*CAP
1 NN4END[13] 0.00056613
2 *968:A 0.00056613
3 *968:A *967:A 0
4 *968:A *1041:A 0
5 *968:A *147:9 0
6 *968:A *161:10 0.000240377
7 *938:A *968:A 0
8 *940:A *968:A 0
9 *969:A *968:A 0
10 *131:17 *968:A 0
*RES
1 NN4END[13] *968:A 25.0573 
*END

*D_NET *146 0.000898643
*CONN
*P NN4END[14] I
*I *967:A I *D sg13g2_buf_1
*CAP
1 NN4END[14] 0.00040181
2 *967:A 0.00040181
3 *967:A *147:9 0
4 *967:A *314:10 4.75166e-05
5 *967:A *315:10 4.75067e-05
6 *968:A *967:A 0
*RES
1 NN4END[14] *967:A 23.3269 
*END

*D_NET *147 0.00650497
*CONN
*P NN4END[15] I
*I *966:A I *D sg13g2_buf_1
*CAP
1 NN4END[15] 0.000571665
2 *966:A 0
3 *147:23 0.000260701
4 *147:15 0.000872174
5 *147:9 0.00118314
6 *147:9 S1BEG[0] 0
7 *147:9 *1045:A 0.000112198
8 *147:9 *314:10 4.75166e-05
9 *147:9 *315:10 0.000240377
10 *147:15 *240:14 0.00115978
11 *147:23 *982:A 0
12 *883:A *147:23 0
13 *940:A *147:9 4.78128e-05
14 *967:A *147:9 0
15 *968:A *147:9 0
16 *23:25 *147:15 0.00196321
17 *26:13 *147:15 0
18 *28:11 *147:15 0
19 *81:21 *147:23 0
20 *138:51 *147:23 4.63914e-05
*RES
1 NN4END[15] *147:9 44.9234 
2 *147:9 *147:15 49.7438 
3 *147:15 *147:23 42.1527 
4 *147:23 *966:A 20 
*END

*D_NET *148 0.00394553
*CONN
*P NN4END[1] I
*I *980:A I *D sg13g2_buf_1
*CAP
1 NN4END[1] 0.000649577
2 *980:A 0
3 *148:13 0.000649577
4 *148:13 *149:13 0.00107886
5 *106:13 *148:13 0.00129439
6 *135:9 *148:13 0
7 *136:11 *148:13 0.000273128
8 *137:13 *148:13 0
*RES
1 NN4END[1] *148:13 49.1155 
2 *148:13 *980:A 20 
*END

*D_NET *149 0.00378954
*CONN
*P NN4END[2] I
*I *979:A I *D sg13g2_buf_1
*CAP
1 NN4END[2] 0.000604887
2 *979:A 0
3 *149:13 0.000604887
4 *149:13 *150:13 0
5 *981:A *149:13 8.00842e-05
6 *136:11 *149:13 0
7 *137:13 *149:13 0.00118576
8 *138:17 *149:13 7.48209e-05
9 *139:11 *149:13 4.77425e-05
10 *142:13 *149:13 0.000112496
11 *148:13 *149:13 0.00107886
*RES
1 NN4END[2] *149:13 48.6211 
2 *149:13 *979:A 20 
*END

*D_NET *150 0.00385613
*CONN
*P NN4END[3] I
*I *978:A I *D sg13g2_buf_1
*CAP
1 NN4END[3] 0.000784474
2 *978:A 0
3 *150:19 8.24247e-05
4 *150:13 0.000866898
5 *150:13 *310:12 0
6 *150:13 *313:12 0
7 *150:19 *308:8 0.00014372
8 *126:27 *150:19 0.00014372
9 *131:17 *150:13 0.000288617
10 *137:13 *150:13 0.00102974
11 *141:19 *150:13 0.000340288
12 *142:13 *150:13 0.00017625
13 *149:13 *150:13 0
*RES
1 NN4END[3] *150:13 48.7447 
2 *150:13 *150:19 40.9682 
3 *150:19 *978:A 20 
*END

*D_NET *151 0.00363807
*CONN
*P NN4END[4] I
*I *977:A I *D sg13g2_buf_1
*CAP
1 NN4END[4] 0.000831023
2 *977:A 5.02759e-05
3 *151:19 0.000881298
4 *977:A *218:10 7.98942e-05
5 *151:19 *156:15 0.000112426
6 *151:19 *271:10 0
7 *151:19 *309:14 0.000760407
8 *933:A *151:19 0
9 *107:13 *151:19 0
10 *124:9 *151:19 0.000922744
*RES
1 NN4END[4] *151:19 30.0219 
2 *151:19 *977:A 40.5356 
*END

*D_NET *152 0.00381492
*CONN
*P NN4END[5] I
*I *976:A I *D sg13g2_buf_1
*CAP
1 NN4END[5] 0.000822366
2 *976:A 0
3 *152:15 0.000822366
4 *152:15 *311:10 2.18151e-05
5 *1:9 *152:15 0.000393736
6 *126:27 *152:15 9.0007e-05
7 *139:11 *152:15 0.000369771
8 *140:13 *152:15 0.00129486
*RES
1 NN4END[5] *152:15 49.7129 
2 *152:15 *976:A 20 
*END

*D_NET *153 0.003882
*CONN
*P NN4END[6] I
*I *975:A I *D sg13g2_buf_1
*CAP
1 NN4END[6] 0.000786105
2 *975:A 1.05037e-05
3 *153:19 0.000796609
4 *153:19 *154:13 0.000112426
5 *153:19 *154:27 0
6 *153:19 *216:8 0.00011101
7 *153:19 *267:10 0.00014391
8 *153:19 *270:8 0
9 *105:9 *153:19 0.000553246
10 *107:13 *153:19 0.00012816
11 *129:23 *153:19 0.000715225
12 *130:17 *153:19 0.000123765
13 *143:17 *153:19 0.000401036
*RES
1 NN4END[6] *153:19 49.8726 
2 *153:19 *975:A 20.1365 
*END

*D_NET *154 0.00327409
*CONN
*P NN4END[7] I
*I *974:A I *D sg13g2_buf_1
*CAP
1 NN4END[7] 0.000371976
2 *974:A 0
3 *154:27 0.000596929
4 *154:13 0.000968904
5 *154:13 *156:15 0.000208035
6 *154:13 *216:8 0.00011101
7 *154:27 *155:15 0.000446875
8 *154:27 *218:10 0
9 *154:27 *270:8 0
10 *105:9 *154:27 0
11 *108:9 *154:27 0.000179464
12 *114:9 *154:27 7.51871e-05
13 *129:15 *154:27 2.20966e-05
14 *131:17 *154:27 0
15 *142:13 *154:13 0.000181192
16 *153:19 *154:13 0.000112426
17 *153:19 *154:27 0
*RES
1 NN4END[7] *154:13 43.708 
2 *154:13 *154:27 46.3551 
3 *154:27 *974:A 20 
*END

*D_NET *155 0.00300045
*CONN
*P NN4END[8] I
*I *973:A I *D sg13g2_buf_1
*CAP
1 NN4END[8] 0.000803215
2 *973:A 0
3 *155:15 0.000803215
4 *155:15 *1038:A 4.77425e-05
5 *155:15 *156:15 0
6 *155:15 *268:10 0.000659262
7 *155:15 *269:8 0.000240141
8 *142:13 *155:15 0
9 *154:27 *155:15 0.000446875
*RES
1 NN4END[8] *155:15 48.7241 
2 *155:15 *973:A 20 
*END

*D_NET *156 0.00199083
*CONN
*P NN4END[9] I
*I *972:A I *D sg13g2_buf_1
*CAP
1 NN4END[9] 0.000470985
2 *972:A 0
3 *156:15 0.000470985
4 *156:15 *216:22 0.000287256
5 *156:15 *317:18 4.77425e-05
6 *138:17 *156:15 0.000393406
7 *142:13 *156:15 0
8 *151:19 *156:15 0.000112426
9 *154:13 *156:15 0.000208035
10 *155:15 *156:15 0
*RES
1 NN4END[9] *156:15 45.2633 
2 *156:15 *972:A 20 
*END

*D_NET *157 0.00227513
*CONN
*P S1BEG[0] O
*I *1037:X O *D sg13g2_buf_1
*CAP
1 S1BEG[0] 0.000921259
2 *1037:X 0.000921259
3 S1BEG[0] S1BEG[1] 0
4 S1BEG[0] S1BEG[2] 0
5 S1BEG[0] *1039:A 4.77425e-05
6 S1BEG[0] *1045:A 0.000112198
7 S1BEG[0] *1046:A 0
8 S1BEG[0] *164:10 0.000272673
9 *117:15 S1BEG[0] 0
10 *147:9 S1BEG[0] 0
*RES
1 *1037:X S1BEG[0] 28.1473 
*END

*D_NET *158 0.0022126
*CONN
*P S1BEG[1] O
*I *1038:X O *D sg13g2_buf_1
*CAP
1 S1BEG[1] 0.000264074
2 *1038:X 0.000420104
3 *158:8 0.000684177
4 S1BEG[1] *164:10 0.000272718
5 *158:8 *160:10 0
6 *158:8 *270:8 0
7 *158:8 *271:10 0
8 *158:8 *314:10 0.000287256
9 S1BEG[0] S1BEG[1] 0
10 *131:17 *158:8 0.00028427
11 *131:25 *158:8 0
*RES
1 *1038:X *158:8 44.3054 
2 *158:8 S1BEG[1] 22.3278 
*END

*D_NET *159 0.00219105
*CONN
*P S1BEG[2] O
*I *1039:X O *D sg13g2_buf_1
*CAP
1 S1BEG[2] 0.000737578
2 *1039:X 7.50219e-05
3 *159:8 0.0008126
4 S1BEG[2] *1046:A 0.000143795
5 *159:8 *272:12 0.000181192
6 S1BEG[0] S1BEG[2] 0
7 *117:15 S1BEG[2] 0
8 *131:25 S1BEG[2] 0.000240862
9 *138:25 S1BEG[2] 0
*RES
1 *1039:X *159:8 40.8446 
2 *159:8 S1BEG[2] 25.7548 
*END

*D_NET *160 0.00272948
*CONN
*P S1BEG[3] O
*I *1040:X O *D sg13g2_buf_1
*CAP
1 S1BEG[3] 0.000244307
2 *1040:X 0.000307264
3 *160:10 0.000551571
4 *160:10 *216:22 0.000924884
5 *160:10 *314:10 0.000499383
6 *969:A *160:10 7.92265e-05
7 *131:17 *160:10 0.000122839
8 *158:8 *160:10 0
*RES
1 *1040:X *160:10 44.841 
2 *160:10 S1BEG[3] 21.8952 
*END

*D_NET *161 0.00253756
*CONN
*P S2BEG[0] O
*I *1041:X O *D sg13g2_buf_1
*CAP
1 S2BEG[0] 0.000104056
2 *1041:X 0.000382897
3 *161:10 0.000486953
4 *161:10 *164:10 0.00039332
5 *161:10 *317:24 0.000817575
6 *968:A *161:10 0.000240377
7 *969:A *161:10 0.000112381
*RES
1 *1041:X *161:10 45.4281 
2 *161:10 S2BEG[0] 20.8137 
*END

*D_NET *162 0.0019195
*CONN
*P S2BEG[1] O
*I *1042:X O *D sg13g2_buf_1
*CAP
1 S2BEG[1] 0.000776066
2 *1042:X 0.000776066
3 S2BEG[1] S2BEG[2] 0
4 S2BEG[1] *1042:A 1.54285e-05
5 S2BEG[1] *166:10 0.000175693
6 *942:A S2BEG[1] 0.00017625
7 *943:A S2BEG[1] 0
8 *138:25 S2BEG[1] 0
9 *138:41 S2BEG[1] 0
*RES
1 *1042:X S2BEG[1] 26.5714 
*END

*D_NET *163 0.0020057
*CONN
*P S2BEG[2] O
*I *1043:X O *D sg13g2_buf_1
*CAP
1 S2BEG[2] 0.00081896
2 *1043:X 0.00081896
3 S2BEG[2] *281:10 0.000143791
4 S2BEG[2] *282:10 4.77425e-05
5 S2BEG[1] S2BEG[2] 0
6 *943:A S2BEG[2] 0.00017625
7 *945:A S2BEG[2] 0
8 *138:41 S2BEG[2] 0
*RES
1 *1043:X S2BEG[2] 27.2718 
*END

*D_NET *164 0.00213056
*CONN
*P S2BEG[3] O
*I *1045:X O *D sg13g2_buf_1
*CAP
1 S2BEG[3] 7.63958e-05
2 *1045:X 0.000519529
3 *164:10 0.000595925
4 S1BEG[0] *164:10 0.000272673
5 S1BEG[1] *164:10 0.000272718
6 *161:10 *164:10 0.00039332
*RES
1 *1045:X *164:10 45.15 
2 *164:10 S2BEG[3] 20.5974 
*END

*D_NET *165 0.00176809
*CONN
*P S2BEG[4] O
*I *1046:X O *D sg13g2_buf_1
*CAP
1 S2BEG[4] 0.000281511
2 *1046:X 0.000207252
3 *165:8 0.000488763
4 S2BEG[4] S2BEG[5] 0
5 *165:8 *282:10 0.000181535
6 *165:8 *314:10 0.000609033
7 *165:8 *315:26 0
*RES
1 *1046:X *165:8 42.8222 
2 *165:8 S2BEG[4] 22.3278 
*END

*D_NET *166 0.00175391
*CONN
*P S2BEG[5] O
*I *1047:X O *D sg13g2_buf_1
*CAP
1 S2BEG[5] 0.000155853
2 *1047:X 0.000311637
3 *166:10 0.000467491
4 S2BEG[5] S2BEG[6] 0
5 *166:10 *216:22 0
6 *166:10 *317:24 0.000499883
7 S2BEG[1] *166:10 0.000175693
8 S2BEG[4] S2BEG[5] 0
9 *138:25 *166:10 0.000143351
*RES
1 *1047:X *166:10 43.5123 
2 *166:10 S2BEG[5] 21.2463 
*END

*D_NET *167 0.00143695
*CONN
*P S2BEG[6] O
*I *1048:X O *D sg13g2_buf_1
*CAP
1 S2BEG[6] 0.000550662
2 *1048:X 0.000550662
3 S2BEG[6] S2BEG[7] 0
4 S2BEG[6] *1048:A 1.54008e-05
5 S2BEG[6] *1051:A 8.00842e-05
6 S2BEG[6] *170:10 0.000240142
7 S2BEG[5] S2BEG[6] 0
8 *945:A S2BEG[6] 0
*RES
1 *1048:X S2BEG[6] 25.3251 
*END

*D_NET *168 0.0015345
*CONN
*P S2BEG[7] O
*I *1049:X O *D sg13g2_buf_1
*CAP
1 S2BEG[7] 0.000542801
2 *1049:X 0.000542801
3 S2BEG[7] S2BEGb[0] 0.00020871
4 S2BEG[7] *170:10 0.000240187
5 S2BEG[6] S2BEG[7] 0
*RES
1 *1049:X S2BEG[7] 25.3251 
*END

*D_NET *169 0.00139953
*CONN
*P S2BEGb[0] O
*I *1050:X O *D sg13g2_buf_1
*CAP
1 S2BEGb[0] 0.000595408
2 *1050:X 0.000595408
3 S2BEGb[0] S2BEGb[1] 0
4 S2BEGb[0] S2BEGb[2] 0
5 S2BEG[7] S2BEGb[0] 0.00020871
*RES
1 *1050:X S2BEGb[0] 25.4281 
*END

*D_NET *170 0.00146035
*CONN
*P S2BEGb[1] O
*I *1051:X O *D sg13g2_buf_1
*CAP
1 S2BEGb[1] 0.000101886
2 *1051:X 0.000246092
3 *170:10 0.000347978
4 S2BEGb[1] S2BEGb[2] 0
5 *170:10 *317:24 0.000284062
6 S2BEG[6] *170:10 0.000240142
7 S2BEG[7] *170:10 0.000240187
8 S2BEGb[0] S2BEGb[1] 0
9 *140:13 *170:10 0
*RES
1 *1051:X *170:10 42.9561 
2 *170:10 S2BEGb[1] 20.8137 
*END

*D_NET *171 0.00112448
*CONN
*P S2BEGb[2] O
*I *1052:X O *D sg13g2_buf_1
*CAP
1 S2BEGb[2] 0.000562239
2 *1052:X 0.000562239
3 S2BEGb[2] S2BEGb[3] 0
4 S2BEGb[0] S2BEGb[2] 0
5 S2BEGb[1] S2BEGb[2] 0
*RES
1 *1052:X S2BEGb[2] 24.6247 
*END

*D_NET *172 0.00188682
*CONN
*P S2BEGb[3] O
*I *1053:X O *D sg13g2_buf_1
*CAP
1 S2BEGb[3] 0.000855753
2 *1053:X 0.000855753
3 S2BEGb[3] S2BEGb[4] 0
4 S2BEGb[3] S2BEGb[5] 0
5 S2BEGb[3] S2BEGb[6] 0
6 S2BEGb[3] S2BEGb[7] 0
7 S2BEGb[3] *1052:A 0.000175312
8 S2BEGb[3] *1053:A 0
9 S2BEGb[2] S2BEGb[3] 0
10 *23:39 S2BEGb[3] 0
*RES
1 *1053:X S2BEGb[3] 28.0443 
*END

*D_NET *173 0.00246549
*CONN
*P S2BEGb[4] O
*I *1054:X O *D sg13g2_buf_1
*CAP
1 S2BEGb[4] 7.30848e-05
2 *1054:X 0.000411643
3 *173:10 0.000484728
4 S2BEGb[4] S2BEGb[5] 0
5 *173:10 S4BEG[3] 0.000112426
6 *173:10 S4BEG[4] 0.000273394
7 *173:10 *184:10 0.000287256
8 S2BEGb[3] S2BEGb[4] 0
9 *140:13 *173:10 0.000711272
10 *140:31 *173:10 0.000111685
*RES
1 *1054:X *173:10 45.6444 
2 *173:10 S2BEGb[4] 20.5974 
*END

*D_NET *174 0.00205666
*CONN
*P S2BEGb[5] O
*I *1056:X O *D sg13g2_buf_1
*CAP
1 S2BEGb[5] 0.000148751
2 *1056:X 0.000517332
3 *174:12 0.000666084
4 S2BEGb[5] S2BEGb[6] 0
5 *174:12 S2BEGb[7] 0
6 *174:12 S4BEG[0] 0
7 *174:12 *1053:A 0.00011101
8 *174:12 *175:18 7.48842e-05
9 *174:12 *176:16 0
10 *174:12 *216:22 7.51285e-05
11 *174:12 *234:10 7.98942e-05
12 *174:12 *317:24 0.000340066
13 S2BEGb[3] S2BEGb[5] 0
14 S2BEGb[4] S2BEGb[5] 0
15 *23:39 *174:12 4.35073e-05
*RES
1 *1056:X *174:12 45.0676 
2 *174:12 S2BEGb[5] 21.2463 
*END

*D_NET *175 0.00260803
*CONN
*P S2BEGb[6] O
*I *1057:X O *D sg13g2_buf_1
*CAP
1 S2BEGb[6] 0.000180361
2 *1057:X 0.000185149
3 *175:18 0.000472795
4 *175:10 0.000477583
5 S2BEGb[6] S2BEGb[7] 0
6 *175:10 S4BEG[2] 0.000143351
7 *175:10 *283:16 0.000127923
8 *175:10 *284:8 0.000443894
9 *175:10 *309:42 0.00028545
10 *175:18 *213:14 0
11 *175:18 *216:22 7.3287e-05
12 S2BEGb[3] S2BEGb[6] 0
13 S2BEGb[5] S2BEGb[6] 0
14 *111:21 *175:18 0
15 *140:31 *175:10 0.000143351
16 *174:12 *175:18 7.48842e-05
*RES
1 *1057:X *175:10 43.0488 
2 *175:10 *175:18 42.3999 
3 *175:18 S2BEGb[6] 21.4626 
*END

*D_NET *176 0.00254447
*CONN
*P S2BEGb[7] O
*I *1058:X O *D sg13g2_buf_1
*CAP
1 S2BEGb[7] 0.000745817
2 *1058:X 0.000394124
3 *176:16 0.00113994
4 S2BEGb[7] S4BEG[0] 0
5 S2BEGb[7] *1052:A 0
6 *176:16 *1053:A 1.11656e-05
7 *176:16 *289:14 0.000231792
8 *176:16 *314:22 0
9 S2BEGb[3] S2BEGb[7] 0
10 S2BEGb[6] S2BEGb[7] 0
11 *23:39 S2BEGb[7] 0
12 *23:39 *176:16 0
13 *138:51 *176:16 2.16263e-05
14 *174:12 S2BEGb[7] 0
15 *174:12 *176:16 0
*RES
1 *1058:X *176:16 43.9758 
2 *176:16 S2BEGb[7] 26.7568 
*END

*D_NET *177 0.00231843
*CONN
*P S4BEG[0] O
*I *1059:X O *D sg13g2_buf_1
*CAP
1 S4BEG[0] 0.000571437
2 *1059:X 8.55863e-05
3 *177:8 0.000657024
4 S4BEG[0] S4BEG[1] 0
5 S4BEG[0] S4BEG[2] 0
6 S4BEG[0] *1056:A 0.000143351
7 S4BEG[0] *234:10 8.00842e-05
8 *177:8 *314:22 0.000390528
9 S2BEGb[7] S4BEG[0] 0
10 *138:51 *177:8 0.000390421
11 *174:12 S4BEG[0] 0
*RES
1 *1059:X *177:8 41.8334 
2 *177:8 S4BEG[0] 24.9749 
*END

*D_NET *178 0.00434377
*CONN
*P S4BEG[10] O
*I *1060:X O *D sg13g2_buf_1
*CAP
1 S4BEG[10] 0.000420489
2 *1060:X 0.000412442
3 *178:10 0.000832931
4 S4BEG[10] S4BEG[11] 0
5 S4BEG[10] *1067:A 0.000143718
6 S4BEG[10] *184:10 0.000305735
7 *178:10 SS4BEG[5] 0.000111567
8 *178:10 *180:16 0.000494477
9 *178:10 *182:16 4.19836e-05
10 *178:10 *309:42 0.00123921
11 *178:10 *314:22 0.000341216
*RES
1 *1060:X *178:10 46.5405 
2 *178:10 S4BEG[10] 23.8419 
*END

*D_NET *179 0.0030576
*CONN
*P S4BEG[11] O
*I *1061:X O *D sg13g2_buf_1
*CAP
1 S4BEG[11] 0.00079759
2 *1061:X 0.000159422
3 *179:8 0.000957011
4 S4BEG[11] S4BEG[12] 0.000240187
5 S4BEG[11] *1067:A 0.000207845
6 S4BEG[11] *186:10 0.000176369
7 S4BEG[11] *300:10 7.9225e-05
8 *179:8 *209:9 0
9 *179:8 *217:24 0.000392402
10 *179:8 *305:10 0
11 S4BEG[10] S4BEG[11] 0
12 *957:A S4BEG[11] 4.75525e-05
13 *137:33 *179:8 0
*RES
1 *1061:X *179:8 41.8334 
2 *179:8 S4BEG[11] 27.0864 
*END

*D_NET *180 0.00346507
*CONN
*P S4BEG[12] O
*I *1062:X O *D sg13g2_buf_1
*CAP
1 S4BEG[12] 0.000456836
2 *1062:X 0.000293392
3 *180:16 0.000750228
4 S4BEG[12] S4BEG[14] 0
5 S4BEG[12] S4BEG[15] 0
6 S4BEG[12] *1069:A 8.00842e-05
7 S4BEG[12] *186:10 0.000176369
8 S4BEG[12] *192:18 0.000112426
9 S4BEG[12] *303:12 0.000175503
10 *180:16 SS4BEG[1] 4.75166e-05
11 *180:16 *182:16 0.000122084
12 *180:16 *183:20 4.75166e-05
13 *180:16 *191:8 0.000287256
14 *180:16 *193:12 0
15 *180:16 *215:26 0
16 *180:16 *314:22 0.000181192
17 S4BEG[11] S4BEG[12] 0.000240187
18 *178:10 *180:16 0.000494477
*RES
1 *1062:X *180:16 44.4084 
2 *180:16 S4BEG[12] 24.7277 
*END

*D_NET *181 0.00300435
*CONN
*P S4BEG[13] O
*I *1063:X O *D sg13g2_buf_1
*CAP
1 S4BEG[13] 9.55832e-05
2 *1063:X 0.000553112
3 *181:10 0.000648696
4 S4BEG[13] S4BEG[14] 0
5 S4BEG[13] *192:18 4.77425e-05
6 *181:10 SS4BEG[7] 0.000241052
7 *181:10 SS4BEG[8] 0.000241052
8 *181:10 *201:14 0
9 *181:10 *202:20 4.19836e-05
10 *181:10 *317:24 0.00113512
*RES
1 *1063:X *181:10 46.9113 
2 *181:10 S4BEG[13] 20.8137 
*END

*D_NET *182 0.00290842
*CONN
*P S4BEG[14] O
*I *1064:X O *D sg13g2_buf_1
*CAP
1 S4BEG[14] 0.000236924
2 *1064:X 0.000189434
3 *182:30 0.000652289
4 *182:16 0.000604799
5 S4BEG[14] S4BEG[15] 0
6 *182:16 *193:12 0.000160616
7 *182:16 *204:10 0
8 *182:30 SS4BEG[1] 2.21754e-05
9 *182:30 *1072:A 1.54008e-05
10 *182:30 *183:20 0.000386241
11 *182:30 *190:12 4.77425e-05
12 *182:30 *238:22 0.000285421
13 *182:30 *290:16 0.000143306
14 S4BEG[12] S4BEG[14] 0
15 S4BEG[13] S4BEG[14] 0
16 *958:A *182:30 0
17 *178:10 *182:16 4.19836e-05
18 *180:16 *182:16 0.000122084
*RES
1 *1064:X *182:16 42.4308 
2 *182:16 *182:30 44.6247 
3 *182:30 S4BEG[14] 21.8952 
*END

*D_NET *183 0.00298372
*CONN
*P S4BEG[15] O
*I *1065:X O *D sg13g2_buf_1
*CAP
1 S4BEG[15] 0.000237672
2 *1065:X 0.000641246
3 *183:20 0.000878918
4 S4BEG[15] *190:26 0.000241049
5 *183:20 *1073:A 4.77425e-05
6 *183:20 *190:12 4.77425e-05
7 *183:20 *222:8 0.000337302
8 *183:20 *238:22 0
9 *183:20 *290:16 0
10 S4BEG[12] S4BEG[15] 0
11 S4BEG[14] S4BEG[15] 0
12 *958:A *183:20 0.000118286
13 *180:16 *183:20 4.75166e-05
14 *182:30 *183:20 0.000386241
*RES
1 *1065:X *183:20 46.5662 
2 *183:20 S4BEG[15] 22.1115 
*END

*D_NET *184 0.00218224
*CONN
*P S4BEG[1] O
*I *1067:X O *D sg13g2_buf_1
*CAP
1 S4BEG[1] 4.65183e-05
2 *1067:X 0.000543045
3 *184:10 0.000589563
4 S4BEG[1] S4BEG[2] 0
5 *184:10 S4BEG[8] 0
6 *184:10 S4BEG[9] 4.77425e-05
7 *184:10 *190:26 0.000287256
8 *184:10 *192:18 7.51285e-05
9 *184:10 *317:24 0
10 S4BEG[0] S4BEG[1] 0
11 S4BEG[10] *184:10 0.000305735
12 *173:10 *184:10 0.000287256
*RES
1 *1067:X *184:10 46.3551 
2 *184:10 S4BEG[1] 20.3811 
*END

*D_NET *185 0.00203733
*CONN
*P S4BEG[2] O
*I *1068:X O *D sg13g2_buf_1
*CAP
1 S4BEG[2] 0.00073055
2 *1068:X 0.00073055
3 S4BEG[2] S4BEG[3] 0
4 S4BEG[2] *1056:A 0.000208035
5 S4BEG[0] S4BEG[2] 0
6 S4BEG[1] S4BEG[2] 0
7 *111:27 S4BEG[2] 8.00842e-05
8 *140:31 S4BEG[2] 0.00014476
9 *175:10 S4BEG[2] 0.000143351
*RES
1 *1068:X S4BEG[2] 26.5714 
*END

*D_NET *186 0.00320747
*CONN
*P S4BEG[3] O
*I *1069:X O *D sg13g2_buf_1
*CAP
1 S4BEG[3] 0.000128453
2 *1069:X 0.000277775
3 *186:10 0.000406229
4 S4BEG[3] S4BEG[4] 0
5 *186:10 *216:22 0.000924885
6 *186:10 *317:24 0.000924885
7 S4BEG[11] *186:10 0.000176369
8 S4BEG[12] *186:10 0.000176369
9 S4BEG[2] S4BEG[3] 0
10 *140:31 S4BEG[3] 8.00842e-05
11 *173:10 S4BEG[3] 0.000112426
*RES
1 *1069:X *186:10 45.4899 
2 *186:10 S4BEG[3] 21.2463 
*END

*D_NET *187 0.00206459
*CONN
*P S4BEG[4] O
*I *1070:X O *D sg13g2_buf_1
*CAP
1 S4BEG[4] 0.000696032
2 *1070:X 0.000696032
3 S4BEG[4] S4BEG[5] 0
4 S4BEG[4] *1054:A 4.77425e-05
5 S4BEG[4] *1057:A 0.000208035
6 S4BEG[4] *1068:A 0.000143351
7 S4BEG[3] S4BEG[4] 0
8 *173:10 S4BEG[4] 0.000273394
*RES
1 *1070:X S4BEG[4] 26.2898 
*END

*D_NET *188 0.00250358
*CONN
*P S4BEG[5] O
*I *1071:X O *D sg13g2_buf_1
*CAP
1 S4BEG[5] 0.000244115
2 *1071:X 0.000618324
3 *188:12 0.00086244
4 S4BEG[5] S4BEG[6] 0
5 *188:12 *216:22 0
6 *188:12 *238:12 0.000234224
7 *188:12 *288:10 4.75525e-05
8 S4BEG[4] S4BEG[5] 0
9 *948:A *188:12 0.000207845
10 *951:A *188:12 0.00014454
11 *110:23 *188:12 0
12 *138:59 *188:12 0.00014454
*RES
1 *1071:X *188:12 45.871 
2 *188:12 S4BEG[5] 21.8952 
*END

*D_NET *189 0.00311832
*CONN
*P S4BEG[6] O
*I *1072:X O *D sg13g2_buf_1
*CAP
1 S4BEG[6] 0.000308641
2 *1072:X 0.000248821
3 *189:12 0.000557462
4 S4BEG[6] S4BEG[7] 0
5 S4BEG[6] S4BEG[8] 0
6 *189:12 *1074:A 0
7 *189:12 *190:26 4.77425e-05
8 *189:12 *222:8 0.000978747
9 *189:12 *234:10 0.000976911
10 S4BEG[5] S4BEG[6] 0
*RES
1 *1072:X *189:12 45.2221 
2 *189:12 S4BEG[6] 22.5441 
*END

*D_NET *190 0.00271807
*CONN
*P S4BEG[7] O
*I *1073:X O *D sg13g2_buf_1
*CAP
1 S4BEG[7] 2.05076e-05
2 *1073:X 7.8311e-05
3 *190:26 0.000742193
4 *190:12 0.000799996
5 *190:12 SS4BEG[1] 0
6 *190:12 *222:8 0.000178837
7 *190:12 *234:10 0.000178837
8 *190:26 SS4BEG[0] 4.78578e-05
9 *190:26 *201:14 0
10 S4BEG[15] *190:26 0.000241049
11 S4BEG[6] S4BEG[7] 0
12 *182:30 *190:12 4.77425e-05
13 *183:20 *190:12 4.77425e-05
14 *184:10 *190:26 0.000287256
15 *189:12 *190:26 4.77425e-05
*RES
1 *1073:X *190:12 41.2669 
2 *190:12 *190:26 47.3439 
3 *190:26 S4BEG[7] 20.1648 
*END

*D_NET *191 0.00249722
*CONN
*P S4BEG[8] O
*I *1074:X O *D sg13g2_buf_1
*CAP
1 S4BEG[8] 0.000537188
2 *1074:X 0.000247907
3 *191:8 0.000785095
4 S4BEG[8] S4BEG[9] 0
5 S4BEG[8] *288:10 4.77425e-05
6 S4BEG[8] *288:18 0.000175693
7 *191:8 *215:26 0
8 *191:8 *297:8 0.00023464
9 S4BEG[6] S4BEG[8] 0
10 *127:25 *191:8 0.000181694
11 *140:31 *191:8 0
12 *180:16 *191:8 0.000287256
13 *184:10 S4BEG[8] 0
*RES
1 *1074:X *191:8 43.0694 
2 *191:8 S4BEG[8] 24.944 
*END

*D_NET *192 0.0032083
*CONN
*P S4BEG[9] O
*I *1075:X O *D sg13g2_buf_1
*CAP
1 S4BEG[9] 6.87476e-05
2 *1075:X 0.000274337
3 *192:18 0.000368054
4 *192:10 0.000573644
5 *192:10 SS4BEG[1] 0.000111685
6 *192:10 SS4BEG[5] 0
7 *192:10 *216:22 0.000764059
8 *192:10 *317:24 0.000764736
9 S4BEG[12] *192:18 0.000112426
10 S4BEG[13] *192:18 4.77425e-05
11 S4BEG[8] S4BEG[9] 0
12 *184:10 S4BEG[9] 4.77425e-05
13 *184:10 *192:18 7.51285e-05
*RES
1 *1075:X *192:10 44.7483 
2 *192:10 *192:18 42.5853 
3 *192:18 S4BEG[9] 20.5974 
*END

*D_NET *193 0.00273745
*CONN
*P SS4BEG[0] O
*I *1076:X O *D sg13g2_buf_1
*CAP
1 SS4BEG[0] 6.57583e-05
2 *1076:X 0.000260106
3 *193:18 0.000589802
4 *193:12 0.00078415
5 SS4BEG[0] SS4BEG[1] 0
6 *193:12 *202:10 0.000287113
7 *193:12 *204:10 0.000182524
8 *193:12 *215:26 0.000359523
9 *193:18 *202:20 0
10 *180:16 *193:12 0
11 *182:16 *193:12 0.000160616
12 *190:26 SS4BEG[0] 4.78578e-05
*RES
1 *1076:X *193:12 43.7389 
2 *193:12 *193:18 44.2127 
3 *193:18 SS4BEG[0] 20.5974 
*END

*D_NET *194 0.00260415
*CONN
*P SS4BEG[10] O
*I *1078:X O *D sg13g2_buf_1
*CAP
1 SS4BEG[10] 0.000585171
2 *1078:X 0.000210052
3 *194:10 0.000795223
4 SS4BEG[10] SS4BEG[8] 0
5 SS4BEG[10] *216:22 0.000111567
6 SS4BEG[10] *316:18 1.54008e-05
7 SS4BEG[10] *317:24 0.000175693
8 *194:10 SS4BEG[13] 0.000241052
9 *194:10 *215:26 0.000181192
10 *961:A SS4BEG[10] 4.77425e-05
11 *134:21 *194:10 0.000241052
*RES
1 *1078:X *194:10 42.4617 
2 *194:10 SS4BEG[10] 25.4075 
*END

*D_NET *195 0.0024991
*CONN
*P SS4BEG[11] O
*I *1079:X O *D sg13g2_buf_1
*CAP
1 SS4BEG[11] 0.000397022
2 *1079:X 0.000307069
3 *195:16 0.000704092
4 SS4BEG[11] SS4BEG[12] 0
5 SS4BEG[11] SS4BEG[13] 0
6 SS4BEG[11] *317:24 0.000175693
7 *195:16 *209:9 0.000143544
8 *195:16 *234:16 0.00034079
9 *195:16 *292:10 0
10 *195:16 *309:42 0
11 *195:16 *315:26 0.000287343
12 *65:9 *195:16 0.000143544
*RES
1 *1079:X *195:16 44.2539 
2 *195:16 SS4BEG[11] 23.4608 
*END

*D_NET *196 0.00301286
*CONN
*P SS4BEG[12] O
*I *1080:X O *D sg13g2_buf_1
*CAP
1 SS4BEG[12] 0.000131505
2 *1080:X 0.000417845
3 *196:10 0.00054935
4 *196:10 *199:10 0.000711511
5 *196:10 *208:10 0.000817575
6 SS4BEG[11] SS4BEG[12] 0
7 *79:11 *196:10 0.00020871
8 *80:11 *196:10 0.000176369
*RES
1 *1080:X *196:10 46.2006 
2 *196:10 SS4BEG[12] 21.03 
*END

*D_NET *197 0.00215435
*CONN
*P SS4BEG[13] O
*I *1081:X O *D sg13g2_buf_1
*CAP
1 SS4BEG[13] 0.00074796
2 *1081:X 0.00074796
3 SS4BEG[13] SS4BEG[14] 0
4 SS4BEG[13] *201:14 0.00030506
5 SS4BEG[13] *218:24 0
6 SS4BEG[11] SS4BEG[13] 0
7 *134:21 SS4BEG[13] 0.000112314
8 *194:10 SS4BEG[13] 0.000241052
*RES
1 *1081:X SS4BEG[13] 27.0658 
*END

*D_NET *198 0.00218613
*CONN
*P SS4BEG[14] O
*I *1082:X O *D sg13g2_buf_1
*CAP
1 SS4BEG[14] 0.000473767
2 *1082:X 0.000161106
3 *198:8 0.000634874
4 SS4BEG[14] SS4BEG[15] 0
5 SS4BEG[14] *201:14 0.00030506
6 SS4BEG[14] *207:10 0.00011101
7 SS4BEG[14] *209:9 0
8 *198:8 *312:20 0.000500312
9 SS4BEG[13] SS4BEG[14] 0
10 *83:9 *198:8 0
*RES
1 *1082:X *198:8 42.3278 
2 *198:8 SS4BEG[14] 24.2745 
*END

*D_NET *199 0.00265827
*CONN
*P SS4BEG[15] O
*I *1083:X O *D sg13g2_buf_1
*CAP
1 SS4BEG[15] 0.000135373
2 *1083:X 0.000445568
3 *199:10 0.000580941
4 SS4BEG[15] *203:12 0.000144883
5 *199:10 *205:10 0.000287256
6 SS4BEG[14] SS4BEG[15] 0
7 *81:11 *199:10 0.000176369
8 *82:7 *199:10 0.000176369
9 *196:10 *199:10 0.000711511
*RES
1 *1083:X *199:10 45.4899 
2 *199:10 SS4BEG[15] 21.2463 
*END

*D_NET *200 0.00284241
*CONN
*P SS4BEG[1] O
*I *1084:X O *D sg13g2_buf_1
*CAP
1 SS4BEG[1] 0.00111164
2 *1084:X 0.00111164
3 SS4BEG[1] SS4BEG[2] 0
4 SS4BEG[1] SS4BEG[3] 0
5 SS4BEG[1] *1062:A 0.000208035
6 SS4BEG[1] *1065:A 6.97279e-05
7 SS4BEG[1] *1073:A 4.77425e-05
8 SS4BEG[1] *314:32 0.000112236
9 SS4BEG[0] SS4BEG[1] 0
10 *960:A SS4BEG[1] 0
11 *180:16 SS4BEG[1] 4.75166e-05
12 *182:30 SS4BEG[1] 2.21754e-05
13 *190:12 SS4BEG[1] 0
14 *192:10 SS4BEG[1] 0.000111685
*RES
1 *1084:X SS4BEG[1] 31.1652 
*END

*D_NET *201 0.00313629
*CONN
*P SS4BEG[2] O
*I *1085:X O *D sg13g2_buf_1
*CAP
1 SS4BEG[2] 2.02498e-05
2 *1085:X 0.000716934
3 *201:14 0.000737184
4 *201:14 *202:20 2.20966e-05
5 *201:14 *203:12 0.0010297
6 SS4BEG[13] *201:14 0.00030506
7 SS4BEG[14] *201:14 0.00030506
8 SS4BEG[1] SS4BEG[2] 0
9 *181:10 *201:14 0
10 *190:26 *201:14 0
*RES
1 *1085:X *201:14 48.2606 
2 *201:14 SS4BEG[2] 20.1648 
*END

*D_NET *202 0.00284796
*CONN
*P SS4BEG[3] O
*I *1086:X O *D sg13g2_buf_1
*CAP
1 SS4BEG[3] 6.26705e-05
2 *1086:X 0.000256034
3 *202:20 0.000636661
4 *202:10 0.000830025
5 *202:10 *204:10 0
6 *202:10 *215:26 0.000711371
7 SS4BEG[1] SS4BEG[3] 0
8 *181:10 *202:20 4.19836e-05
9 *193:12 *202:10 0.000287113
10 *193:18 *202:20 0
11 *201:14 *202:20 2.20966e-05
*RES
1 *1086:X *202:10 43.6359 
2 *202:10 *202:20 44.9131 
3 *202:20 SS4BEG[3] 20.5974 
*END

*D_NET *203 0.00281348
*CONN
*P SS4BEG[4] O
*I *1087:X O *D sg13g2_buf_1
*CAP
1 SS4BEG[4] 2.10747e-05
2 *1087:X 0.000645786
3 *203:12 0.00066686
4 *203:12 *209:9 0.000305175
5 SS4BEG[15] *203:12 0.000144883
6 *201:14 *203:12 0.0010297
*RES
1 *1087:X *203:12 48.1576 
2 *203:12 SS4BEG[4] 20.1648 
*END

*D_NET *204 0.00241807
*CONN
*P SS4BEG[5] O
*I *985:X O *D sg13g2_buf_1
*CAP
1 SS4BEG[5] 0.000477234
2 *985:X 0.000414297
3 *204:10 0.000891531
4 *204:10 *309:42 0
5 *204:10 *312:20 0.000340918
6 *178:10 SS4BEG[5] 0.000111567
7 *182:16 *204:10 0
8 *192:10 SS4BEG[5] 0
9 *193:12 *204:10 0.000182524
10 *202:10 *204:10 0
*RES
1 *985:X *204:10 44.1303 
2 *204:10 SS4BEG[5] 23.5918 
*END

*D_NET *205 0.003466
*CONN
*P SS4BEG[6] O
*I *986:X O *D sg13g2_buf_1
*CAP
1 SS4BEG[6] 0.000187038
2 *986:X 0.000440368
3 *205:10 0.000627406
4 *205:10 *216:22 0.000393736
5 *205:10 *238:22 0.00124349
6 *65:9 *205:10 0.000143351
7 *76:7 *205:10 0.000143351
8 *199:10 *205:10 0.000287256
*RES
1 *986:X *205:10 46.7568 
2 *205:10 SS4BEG[6] 21.4626 
*END

*D_NET *206 0.00305918
*CONN
*P SS4BEG[7] O
*I *987:X O *D sg13g2_buf_1
*CAP
1 SS4BEG[7] 0.000726829
2 *987:X 0.000159077
3 *206:10 0.000885906
4 SS4BEG[7] *1060:A 4.77425e-05
5 SS4BEG[7] *1063:A 0
6 SS4BEG[7] *1064:A 0
7 SS4BEG[7] *306:12 0.000241725
8 SS4BEG[7] *314:32 0
9 *206:10 *209:9 0.00039158
10 *206:10 *295:8 0
11 *206:10 *316:18 8.00842e-05
12 *78:9 *206:10 0.000285186
13 *181:10 SS4BEG[7] 0.000241052
*RES
1 *987:X *206:10 42.369 
2 *206:10 SS4BEG[7] 26.6538 
*END

*D_NET *207 0.00290252
*CONN
*P SS4BEG[8] O
*I *988:X O *D sg13g2_buf_1
*CAP
1 SS4BEG[8] 0.000393239
2 *988:X 0.00027485
3 *207:10 0.000668089
4 SS4BEG[8] SS4BEG[9] 0
5 SS4BEG[8] *1063:A 0.000112198
6 SS4BEG[8] *216:22 0
7 *207:10 *292:10 0.000391987
8 *207:10 *309:42 0.000710091
9 *207:10 *315:26 0
10 SS4BEG[10] SS4BEG[8] 0
11 SS4BEG[14] *207:10 0.00011101
12 *181:10 SS4BEG[8] 0.000241052
*RES
1 *988:X *207:10 44.0685 
2 *207:10 SS4BEG[8] 23.6256 
*END

*D_NET *208 0.00283488
*CONN
*P SS4BEG[9] O
*I *989:X O *D sg13g2_buf_1
*CAP
1 SS4BEG[9] 0.000102971
2 *989:X 0.000574034
3 *208:10 0.000677005
4 *208:10 *317:24 0.000181192
5 SS4BEG[8] SS4BEG[9] 0
6 *77:9 *208:10 0.000241052
7 *78:9 *208:10 0.000241052
8 *196:10 *208:10 0.000817575
*RES
1 *989:X *208:10 46.9113 
2 *208:10 SS4BEG[9] 20.8137 
*END

*D_NET *209 0.0105206
*CONN
*P UserCLK I
*I *982:A I *D sg13g2_buf_1
*CAP
1 UserCLK 0.0017601
2 *982:A 0.00072299
3 *209:9 0.00248309
4 *982:A *1068:A 0
5 *982:A *245:12 0
6 *982:A *246:10 0
7 *209:9 *218:24 0
8 *209:9 *295:8 0
9 *209:9 *305:10 0.000713434
10 *209:9 *306:12 0.00250878
11 *209:9 *317:32 0.000144352
12 SS4BEG[14] *209:9 0
13 *883:A *982:A 0
14 *910:A *982:A 0
15 *65:9 *209:9 0
16 *78:9 *209:9 0
17 *80:25 *209:9 0
18 *83:9 *209:9 0
19 *137:33 *209:9 0.00134758
20 *147:23 *982:A 0
21 *179:8 *209:9 0
22 *195:16 *209:9 0.000143544
23 *203:12 *209:9 0.000305175
24 *206:10 *209:9 0.00039158
*RES
1 UserCLK *209:9 42.3613 
2 *209:9 *982:A 46.1594 
*END

*D_NET *210 0.000607011
*CONN
*P UserCLKo O
*I *990:X O *D sg13g2_buf_1
*CAP
1 UserCLKo 0.000303506
2 *990:X 0.000303506
*RES
1 *990:X UserCLKo 23.1106 
*END

*D_NET *213 0.0128699
*CONN
*I *983:A I *D sg13g2_buf_1
*I *878:X O *D sg13g2_buf_1
*CAP
1 *983:A 0
2 *878:X 0.000125184
3 *213:24 0.00173232
4 *213:20 0.00353141
5 *213:14 0.00191507
6 *213:8 0.00024117
7 *213:8 *216:22 0
8 *213:8 *282:10 0.000333899
9 *213:8 *314:10 7.35141e-05
10 *213:20 *310:18 0
11 *213:20 *312:12 0
12 *213:20 *313:14 0.00484399
13 *213:20 *313:20 0
14 *213:24 *234:16 0
15 *213:24 *237:18 0
16 *1:19 *213:14 0
17 *69:11 *213:24 7.33256e-05
18 *175:18 *213:14 0
*RES
1 *878:X *213:8 41.5862 
2 *213:8 *213:14 40.6954 
3 *213:14 *213:20 46.4401 
4 *213:20 *213:24 36.4182 
5 *213:24 *983:A 40 
*END

*D_NET *214 0.0126641
*CONN
*I *984:A I *D sg13g2_buf_1
*I *896:X O *D sg13g2_buf_1
*CAP
1 *984:A 0
2 *896:X 0.000578064
3 *214:14 0.00412123
4 *214:10 0.0046993
5 *214:10 *223:16 0.000660706
6 *214:14 *221:10 0
7 *214:14 *223:16 0
8 *214:14 *296:8 0
9 FrameData_O[17] *214:14 0
10 FrameData_O[18] *214:14 0
11 FrameData_O[20] *214:14 0
12 *11:7 *214:10 0
13 *72:9 *214:14 0
14 *80:31 *214:14 0
15 *84:13 *214:14 0
16 *132:9 *214:10 0
17 *132:9 *214:14 0.00260477
*RES
1 *896:X *214:10 45.6135 
2 *214:10 *214:14 41.6738 
3 *214:14 *984:A 40 
*END

*D_NET *215 0.0141819
*CONN
*I *985:A I *D sg13g2_buf_1
*I *971:X O *D sg13g2_buf_1
*CAP
1 *985:A 0
2 *971:X 0.000453771
3 *215:26 0.000590611
4 *215:18 0.00188719
5 *215:12 0.00175035
6 *215:12 *272:12 1.5595e-05
7 *215:18 *300:10 0.000554272
8 *215:18 *306:12 0.0015053
9 *215:18 *314:22 0.000143673
10 *215:18 *314:32 7.51285e-05
11 *215:26 *291:12 0.00103187
12 *953:A *215:18 0.000175693
13 *28:19 *215:18 0.00104275
14 *83:9 *215:26 0
15 *113:21 *215:12 0.00187681
16 *116:9 *215:12 0.00182676
17 *130:25 *215:18 0
18 *137:33 *215:18 0
19 *138:41 *215:12 0
20 *138:41 *215:18 0
21 *138:59 *215:18 0
22 *180:16 *215:26 0
23 *191:8 *215:26 0
24 *193:12 *215:26 0.000359523
25 *194:10 *215:26 0.000181192
26 *202:10 *215:26 0.000711371
*RES
1 *971:X *215:12 49.6099 
2 *215:12 *215:18 35.3779 
3 *215:18 *215:26 48.3327 
4 *215:26 *985:A 20 
*END

*D_NET *216 0.0146129
*CONN
*I *986:A I *D sg13g2_buf_1
*I *972:X O *D sg13g2_buf_1
*CAP
1 *986:A 0
2 *972:X 6.75413e-05
3 *216:30 0.000357647
4 *216:22 0.00261325
5 *216:8 0.00232314
6 *216:22 *238:12 0
7 *216:22 *238:22 0.00139975
8 *216:22 *282:10 0
9 *216:22 *314:10 0
10 *216:22 *317:24 0.000500214
11 *216:30 *238:22 0.000977917
12 *216:30 *317:32 0.000661265
13 SS4BEG[10] *216:22 0.000111567
14 SS4BEG[8] *216:22 0
15 *76:7 *216:30 0.000176015
16 *77:9 *216:30 0.000176015
17 *137:13 *216:22 0.000393736
18 *138:17 *216:22 0.00118963
19 *153:19 *216:8 0.00011101
20 *154:13 *216:8 0.00011101
21 *156:15 *216:22 0.000287256
22 *160:10 *216:22 0.000924884
23 *166:10 *216:22 0
24 *174:12 *216:22 7.51285e-05
25 *175:18 *216:22 7.3287e-05
26 *186:10 *216:22 0.000924885
27 *188:12 *216:22 0
28 *192:10 *216:22 0.000764059
29 *205:10 *216:22 0.000393736
30 *213:8 *216:22 0
*RES
1 *972:X *216:8 40.7519 
2 *216:8 *216:22 49.1387 
3 *216:22 *216:30 45.7371 
4 *216:30 *986:A 20 
*END

*D_NET *217 0.0110781
*CONN
*I *987:A I *D sg13g2_buf_1
*I *973:X O *D sg13g2_buf_1
*CAP
1 *987:A 4.37077e-05
2 *973:X 0
3 *217:24 0.00073905
4 *217:20 0.00184796
5 *217:14 0.00180736
6 *217:6 0.000654738
7 *987:A *316:18 8.00842e-05
8 *217:20 *239:12 0
9 *217:20 *244:14 0.00110703
10 *217:20 *244:20 0
11 *217:20 *311:18 0
12 *217:24 *288:18 0
13 *217:24 *295:8 0.000500734
14 *217:24 *305:10 0
15 *217:24 *316:18 0.00220043
16 *23:25 *217:14 0
17 *31:15 *217:14 0.00162452
18 *32:13 *217:14 0
19 *32:13 *217:20 0
20 *78:9 *217:24 0
21 *128:15 *217:14 0
22 *129:27 *217:14 0
23 *129:27 *217:20 0
24 *134:21 *987:A 8.00842e-05
25 *179:8 *217:24 0.000392402
*RES
1 *973:X *217:6 40 
2 *217:6 *217:14 49.9498 
3 *217:14 *217:20 32.6793 
4 *217:20 *217:24 30.4854 
5 *217:24 *987:A 40.5356 
*END

*D_NET *218 0.0187327
*CONN
*I *988:A I *D sg13g2_buf_1
*I *974:X O *D sg13g2_buf_1
*CAP
1 *988:A 0
2 *974:X 0.00124775
3 *218:24 0.00189942
4 *218:16 0.0034878
5 *218:10 0.00283612
6 *218:10 *219:8 0
7 *218:10 *308:8 0
8 *218:16 *219:14 0.00380848
9 *218:24 *1078:A 0
10 *218:24 *1081:A 0.000240571
11 *218:24 *219:22 0.00207081
12 *218:24 *296:8 0
13 SS4BEG[13] *218:24 0
14 *977:A *218:10 7.98942e-05
15 *76:7 *218:24 0
16 *134:13 *218:16 0
17 *134:13 *218:24 0.00306184
18 *139:11 *218:10 0
19 *139:15 *218:16 0
20 *154:27 *218:10 0
21 *209:9 *218:24 0
*RES
1 *974:X *218:10 30.3206 
2 *218:10 *218:16 40.6618 
3 *218:16 *218:24 44.7818 
4 *218:24 *988:A 20 
*END

*D_NET *219 0.0212275
*CONN
*I *989:A I *D sg13g2_buf_1
*I *975:X O *D sg13g2_buf_1
*CAP
1 *989:A 0
2 *975:X 0.000904642
3 *219:28 0.000969464
4 *219:22 0.00262279
5 *219:14 0.002408
6 *219:8 0.00165932
7 *219:8 *262:8 0
8 *219:22 *247:10 0.000822971
9 *219:22 *250:10 7.51285e-05
10 *219:22 *296:8 0
11 *219:28 *249:12 0
12 *922:A *219:28 0
13 *923:A *219:28 0.00140192
14 *66:11 *219:22 0
15 *78:9 *219:28 0
16 *79:11 *219:28 2.21754e-05
17 *80:19 *219:28 0.000401739
18 *130:17 *219:8 0.000304939
19 *134:13 *219:14 0.00375516
20 *139:15 *219:22 0
21 *218:10 *219:8 0
22 *218:16 *219:14 0.00380848
23 *218:24 *219:22 0.00207081
*RES
1 *975:X *219:8 47.8898 
2 *219:8 *219:14 38.2516 
3 *219:14 *219:22 38.8181 
4 *219:22 *219:28 30.403 
5 *219:28 *989:A 20 
*END

*D_NET *220 0.0175872
*CONN
*I *990:A I *D sg13g2_buf_1
*I *982:X O *D sg13g2_buf_1
*CAP
1 *990:A 0
2 *982:X 0
3 *220:20 0
4 *220:16 0.00101142
5 *220:12 0.00412799
6 *220:10 0.00311657
7 *220:6 0
8 *220:12 *241:14 0
9 *220:12 *274:14 0
10 *6:11 *220:12 0.00933121
11 *81:27 *220:12 0
*RES
1 *982:X *220:6 40 
2 *220:6 *220:10 40 
3 *220:10 *220:12 48.307 
4 *220:12 *220:16 32.2158 
5 *220:16 *220:20 40 
6 *220:20 *990:A 20 
*END

*D_NET *221 0.0229186
*CONN
*I *991:A I *D sg13g2_buf_1
*I *897:X O *D sg13g2_buf_1
*CAP
1 *991:A 0.000248122
2 *897:X 4.61464e-05
3 *221:10 0.00202985
4 *221:8 0.00182788
5 *991:A *993:A 0
6 *991:A *994:A 0
7 *991:A *996:A 6.99456e-05
8 *221:8 *223:14 4.77425e-05
9 *221:8 *285:14 8.01995e-05
10 *221:10 *223:16 0.00920688
11 *221:10 *224:8 0
12 *221:10 *285:14 0
13 *221:10 *307:10 0.00915449
14 FrameData_O[19] *991:A 0
15 FrameData_O[20] *991:A 7.92265e-05
16 FrameData_O[20] *221:10 0
17 *9:13 *221:10 0.00012816
18 *214:14 *221:10 0
*RES
1 *897:X *221:8 40.5356 
2 *221:8 *221:10 44.1046 
3 *221:10 *991:A 42.3999 
*END

*D_NET *222 0.0151687
*CONN
*I *992:A I *D sg13g2_buf_1
*I *879:X O *D sg13g2_buf_1
*CAP
1 *992:A 8.19263e-05
2 *879:X 0
3 *222:8 0.00286934
4 *222:6 0.00278741
5 *222:8 *234:10 0
6 *222:8 *234:16 0.00611644
7 *222:8 *238:12 0.00102998
8 *222:8 *238:22 0.000129283
9 *222:8 *315:26 0
10 *222:8 *317:32 0.000659407
11 *183:20 *222:8 0.000337302
12 *189:12 *222:8 0.000978747
13 *190:12 *222:8 0.000178837
*RES
1 *879:X *222:6 40 
2 *222:6 *222:8 38.6662 
3 *222:8 *992:A 40.7519 
*END

*D_NET *223 0.0182715
*CONN
*I *993:A I *D sg13g2_buf_1
*I *898:X O *D sg13g2_buf_1
*CAP
1 *993:A 0.00028173
2 *898:X 8.77857e-05
3 *223:16 0.00370919
4 *223:14 0.00350383
5 *223:8 0.000164159
6 *993:A *996:A 0
7 *993:A *997:A 0
8 *993:A *1055:A 0.000112426
9 *223:8 *245:18 0
10 *223:8 *285:14 0.00012816
11 FrameData_O[20] *993:A 0
12 *895:A *223:14 8.00842e-05
13 *991:A *993:A 0
14 *9:13 *223:8 0.000288818
15 *214:10 *223:16 0.000660706
16 *214:14 *223:16 0
17 *221:8 *223:14 4.77425e-05
18 *221:10 *223:16 0.00920688
*RES
1 *898:X *223:8 41.339 
2 *223:8 *223:14 40.7519 
3 *223:14 *223:16 42.6214 
4 *223:16 *993:A 42.8634 
*END

*D_NET *224 0.0151495
*CONN
*I *994:A I *D sg13g2_buf_1
*I *899:X O *D sg13g2_buf_1
*CAP
1 *994:A 0.000293824
2 *899:X 0
3 *224:8 0.00459309
4 *224:6 0.00429927
5 *994:A *996:A 0
6 *224:8 *226:10 0
7 *224:8 *258:16 0.000395591
8 *224:8 *285:16 0
9 FrameData_O[19] *994:A 1.54008e-05
10 FrameData_O[20] *224:8 0
11 FrameData_O[21] *994:A 0.00024154
12 FrameData_O[23] *994:A 1.54285e-05
13 *991:A *994:A 0
14 *82:9 *224:8 0.00529539
15 *221:10 *224:8 0
*RES
1 *899:X *224:6 40 
2 *224:6 *224:8 45.5878 
3 *224:8 *994:A 42.8325 
*END

*D_NET *225 0.0212612
*CONN
*I *995:A I *D sg13g2_buf_1
*I *900:X O *D sg13g2_buf_1
*CAP
1 *995:A 5.15228e-05
2 *900:X 0
3 *225:8 0.00163918
4 *225:6 0.00158766
5 *995:A *996:A 0
6 *995:A *997:A 8.01118e-05
7 *225:8 *226:10 0
8 *225:8 *227:10 0.00895994
9 *225:8 *228:10 0.00894276
*RES
1 *900:X *225:6 40 
2 *225:6 *225:8 41.3854 
3 *225:8 *995:A 40.5356 
*END

*D_NET *226 0.010761
*CONN
*I *996:A I *D sg13g2_buf_1
*I *901:X O *D sg13g2_buf_1
*CAP
1 *996:A 0.000505776
2 *901:X 5.81315e-05
3 *226:10 0.00506832
4 *226:8 0.00462068
5 *996:A *997:A 0
6 *996:A *998:A 0
7 *226:10 *227:10 0
8 *226:10 *228:10 0
9 *226:10 *258:16 0.000181487
10 FrameData_O[22] *996:A 0.0001118
11 FrameData_O[23] *996:A 0
12 FrameData_O[24] *996:A 0.000144843
13 FrameData_O[31] *996:A 0
14 *991:A *996:A 6.99456e-05
15 *993:A *996:A 0
16 *994:A *996:A 0
17 *995:A *996:A 0
18 *224:8 *226:10 0
19 *225:8 *226:10 0
*RES
1 *901:X *226:8 40.5356 
2 *226:8 *226:10 43.8574 
3 *226:10 *996:A 45.0161 
*END

*D_NET *227 0.0151335
*CONN
*I *997:A I *D sg13g2_buf_1
*I *902:X O *D sg13g2_buf_1
*CAP
1 *997:A 0.000305203
2 *902:X 2.53203e-05
3 *227:10 0.0028604
4 *227:8 0.00258052
5 FrameData_O[24] *997:A 0
6 FrameData_O[28] *997:A 0.000112799
7 FrameData_O[31] *997:A 0.000209171
8 *993:A *997:A 0
9 *995:A *997:A 8.01118e-05
10 *996:A *997:A 0
11 *57:10 *997:A 0
12 *225:8 *227:10 0.00895994
13 *226:10 *227:10 0
*RES
1 *902:X *227:8 40.3193 
2 *227:8 *227:10 42.127 
3 *227:10 *997:A 43.3681 
*END

*D_NET *228 0.0216066
*CONN
*I *998:A I *D sg13g2_buf_1
*I *903:X O *D sg13g2_buf_1
*CAP
1 *998:A 0.000425446
2 *903:X 0
3 *228:10 0.00286646
4 *228:6 0.00244101
5 *998:A *256:16 0
6 *228:10 *229:8 0
7 *228:10 *236:14 0.00636164
8 FrameData_O[23] *998:A 0.000177212
9 FrameData_O[23] *228:10 4.78867e-05
10 FrameData_O[24] *228:10 0
11 FrameData_O[25] *998:A 0
12 *996:A *998:A 0
13 *15:13 *228:10 0.000344174
14 *57:10 *228:10 0
15 *225:8 *228:10 0.00894276
16 *226:10 *228:10 0
*RES
1 *903:X *228:6 40 
2 *228:6 *228:10 45.3509 
3 *228:10 *998:A 43.914 
*END

*D_NET *229 0.00931639
*CONN
*I *999:A I *D sg13g2_buf_1
*I *904:X O *D sg13g2_buf_1
*CAP
1 *999:A 0.00030156
2 *904:X 0
3 *229:8 0.00456998
4 *229:6 0.00426842
5 *999:A *1005:A 0
6 *229:8 *232:10 0
7 *229:8 *235:12 0
8 *229:8 *236:14 0
9 *229:8 *257:14 0
10 FrameData_O[26] *999:A 0.000176424
11 FrameData_O[28] *999:A 0
12 FrameData_O[30] *999:A 0
13 *228:10 *229:8 0
*RES
1 *904:X *229:6 40 
2 *229:6 *229:8 41.1382 
3 *229:8 *999:A 42.8325 
*END

*D_NET *230 0.0120833
*CONN
*I *1000:A I *D sg13g2_buf_1
*I *888:X O *D sg13g2_buf_1
*CAP
1 *1000:A 0
2 *888:X 0.000615242
3 *230:26 0.00337872
4 *230:10 0.00399396
5 *230:26 *1013:A 0
6 *230:26 *239:20 0
7 *230:26 *243:22 0
8 *230:26 *244:24 0.000719374
9 *230:26 *311:24 0
10 *230:26 *316:18 0.000337718
11 FrameData_O[11] *230:26 0
12 *913:A *230:10 0
13 *67:9 *230:26 0
14 *68:9 *230:26 0
15 *75:9 *230:26 0.00032974
16 *77:9 *230:10 0.000874651
17 *77:9 *230:26 0
18 *78:9 *230:26 0
19 *78:23 *230:26 0.00183393
20 *110:23 *230:10 0
21 *111:21 *230:10 0
*RES
1 *888:X *230:10 46.6023 
2 *230:10 *230:26 39.6962 
3 *230:26 *1000:A 40 
*END

*D_NET *231 0.01515
*CONN
*I *1001:A I *D sg13g2_buf_1
*I *905:X O *D sg13g2_buf_1
*CAP
1 *1001:A 0
2 *905:X 0.000132907
3 *231:12 0.00229641
4 *231:8 0.00242932
5 *231:8 *232:8 0
6 *231:8 *235:10 0
7 *231:8 *236:8 0.000177272
8 *231:12 *1025:A 0.000880039
9 *231:12 *233:8 0.00862433
10 *231:12 *254:12 0.000609685
*RES
1 *905:X *231:8 41.4008 
2 *231:8 *231:12 41.2103 
3 *231:12 *1001:A 40 
*END

*D_NET *232 0.0147705
*CONN
*I *1002:A I *D sg13g2_buf_1
*I *906:X O *D sg13g2_buf_1
*CAP
1 *1002:A 0
2 *906:X 0.000128807
3 *232:10 0.00267234
4 *232:8 0.00280114
5 *232:8 *235:10 0.000209729
6 *232:10 *233:8 0
7 *232:10 *235:12 0.00894311
8 *232:10 *256:16 0
9 *905:A *232:8 1.54008e-05
10 *229:8 *232:10 0
11 *231:8 *232:8 0
*RES
1 *906:X *232:8 41.4008 
2 *232:8 *232:10 42.6214 
3 *232:10 *1002:A 40 
*END

*D_NET *233 0.0140449
*CONN
*I *1003:A I *D sg13g2_buf_1
*I *907:X O *D sg13g2_buf_1
*CAP
1 *1003:A 5.6713e-05
2 *907:X 0
3 *233:8 0.00271027
4 *233:6 0.00265356
5 FrameData_O[30] *1003:A 0
6 *19:17 *233:8 0
7 *231:12 *233:8 0.00862433
8 *232:10 *233:8 0
*RES
1 *907:X *233:6 40 
2 *233:6 *233:8 42.6214 
3 *233:8 *1003:A 40.5356 
*END

*D_NET *234 0.0164179
*CONN
*I *1004:A I *D sg13g2_buf_1
*I *880:X O *D sg13g2_buf_1
*CAP
1 *1004:A 0.000274573
2 *880:X 0.000651362
3 *234:16 0.0027373
4 *234:10 0.00311409
5 *234:10 *315:26 0.00186759
6 *234:16 *238:22 0
7 *234:16 *315:26 0
8 FrameData_O[2] *1004:A 0
9 S4BEG[0] *234:10 8.00842e-05
10 *69:11 *234:16 0
11 *174:12 *234:10 7.98942e-05
12 *189:12 *234:10 0.000976911
13 *190:12 *234:10 0.000178837
14 *195:16 *234:16 0.00034079
15 *213:24 *234:16 0
16 *222:8 *234:10 0
17 *222:8 *234:16 0.00611644
*RES
1 *880:X *234:10 49.8777 
2 *234:10 *234:16 49.9936 
3 *234:16 *1004:A 22.6162 
*END

*D_NET *235 0.0171045
*CONN
*I *1005:A I *D sg13g2_buf_1
*I *908:X O *D sg13g2_buf_1
*CAP
1 *1005:A 6.20652e-05
2 *908:X 0.000318827
3 *235:12 0.0034628
4 *235:10 0.00371956
5 *235:10 *1036:A 4.75616e-05
6 FrameStrobe_O[9] *235:10 0
7 *909:A *235:10 0
8 *999:A *1005:A 0
9 *19:17 *235:12 0.000340826
10 *229:8 *235:12 0
11 *231:8 *235:10 0
12 *232:8 *235:10 0.000209729
13 *232:10 *235:12 0.00894311
*RES
1 *908:X *235:10 43.5432 
2 *235:10 *235:12 41.6326 
3 *235:12 *1005:A 40.6695 
*END

*D_NET *236 0.0138959
*CONN
*I *1006:A I *D sg13g2_buf_1
*I *909:X O *D sg13g2_buf_1
*CAP
1 *1006:A 0
2 *909:X 0.000338975
3 *236:14 0.00294264
4 *236:8 0.00328162
5 *236:14 *257:14 0
6 *236:14 *266:10 0.000450182
7 *902:A *236:8 8.00842e-05
8 *904:A *236:8 8.00842e-05
9 *15:13 *236:14 0.000183436
10 *228:10 *236:14 0.00636164
11 *229:8 *236:14 0
12 *231:8 *236:8 0.000177272
*RES
1 *909:X *236:8 43.3475 
2 *236:8 *236:14 42.0549 
3 *236:14 *1006:A 40 
*END

*D_NET *237 0.00906259
*CONN
*I *1007:A I *D sg13g2_buf_1
*I *881:X O *D sg13g2_buf_1
*CAP
1 *1007:A 0.000122745
2 *881:X 0
3 *237:18 0.000443889
4 *237:12 0.00430367
5 *237:10 0.00398253
6 *237:6 0
7 *1007:A *1008:A 0
8 *237:12 *240:14 0
9 *237:12 *310:18 0
10 FrameData_O[2] *1007:A 0.000209756
11 FrameData_O[4] *1007:A 0
12 *135:13 *237:12 0
13 *213:24 *237:18 0
*RES
1 *881:X *237:6 40 
2 *237:6 *237:10 40 
3 *237:10 *237:12 37.4302 
4 *237:12 *237:18 43.811 
5 *237:18 *1007:A 41.4008 
*END

*D_NET *238 0.0133934
*CONN
*I *1008:A I *D sg13g2_buf_1
*I *882:X O *D sg13g2_buf_1
*CAP
1 *1008:A 0.000162624
2 *882:X 0.000525994
3 *238:22 0.00337622
4 *238:12 0.00373959
5 *238:12 *315:26 0
6 FrameData_O[1] *238:22 0
7 FrameData_O[2] *1008:A 0
8 FrameData_O[2] *238:22 0.000288917
9 FrameData_O[3] *1008:A 0
10 *1007:A *1008:A 0
11 *182:30 *238:22 0.000285421
12 *183:20 *238:22 0
13 *188:12 *238:12 0.000234224
14 *205:10 *238:22 0.00124349
15 *216:22 *238:12 0
16 *216:22 *238:22 0.00139975
17 *216:30 *238:22 0.000977917
18 *222:8 *238:12 0.00102998
19 *222:8 *238:22 0.000129283
20 *234:16 *238:22 0
*RES
1 *882:X *238:12 46.6435 
2 *238:12 *238:22 38.213 
3 *238:22 *1008:A 41.4008 
*END

*D_NET *239 0.010159
*CONN
*I *1009:A I *D sg13g2_buf_1
*I *883:X O *D sg13g2_buf_1
*CAP
1 *1009:A 0.000280163
2 *883:X 0
3 *239:20 0.000899016
4 *239:12 0.0032234
5 *239:10 0.00260455
6 *239:6 0
7 *1009:A *1012:A 7.98484e-05
8 *239:12 *242:22 0
9 *239:12 *244:20 0
10 *239:12 *311:18 0.003072
11 *239:20 *1013:A 0
12 FrameData_O[2] *1009:A 0
13 *217:20 *239:12 0
14 *230:26 *239:20 0
*RES
1 *883:X *239:6 40 
2 *239:6 *239:10 40 
3 *239:10 *239:12 36.4414 
4 *239:12 *239:20 45.768 
5 *239:20 *1009:A 43.0488 
*END

*D_NET *240 0.0147767
*CONN
*I *1010:A I *D sg13g2_buf_1
*I *884:X O *D sg13g2_buf_1
*CAP
1 *1010:A 0
2 *884:X 0
3 *240:18 0
4 *240:14 0.00430999
5 *240:12 0.0047352
6 *240:6 0.000425211
7 *240:12 *243:12 0
8 *240:14 *242:22 0
9 *26:13 *240:14 0
10 *28:19 *240:12 0
11 *30:19 *240:12 0
12 *81:15 *240:14 0.0041465
13 *129:27 *240:14 0
14 *147:15 *240:14 0.00115978
15 *237:12 *240:14 0
*RES
1 *884:X *240:6 40 
2 *240:6 *240:12 43.5638 
3 *240:12 *240:14 46.8238 
4 *240:14 *240:18 40 
5 *240:18 *1010:A 40 
*END

*D_NET *241 0.0152484
*CONN
*I *1011:A I *D sg13g2_buf_1
*I *889:X O *D sg13g2_buf_1
*CAP
1 *1011:A 0
2 *889:X 0
3 *241:18 0
4 *241:14 0.00267254
5 *241:12 0.0028719
6 *241:6 0.000199354
7 *241:12 *252:12 0
8 *241:14 *252:18 0.00950462
9 *241:14 *274:14 0
10 *29:19 *241:12 0
11 *81:27 *241:14 0
12 *220:12 *241:14 0
*RES
1 *889:X *241:6 40 
2 *241:6 *241:12 41.6171 
3 *241:12 *241:14 44.8462 
4 *241:14 *241:18 40 
5 *241:18 *1011:A 40 
*END

*D_NET *242 0.01223
*CONN
*I *1012:A I *D sg13g2_buf_1
*I *885:X O *D sg13g2_buf_1
*CAP
1 *1012:A 4.72473e-05
2 *885:X 0
3 *242:26 4.72473e-05
4 *242:22 0.00265166
5 *242:20 0.00319527
6 *242:6 0.00054361
7 *242:20 *243:14 3.11652e-05
8 *242:22 *243:14 0.00563395
9 *242:22 *244:20 0
10 *1009:A *1012:A 7.98484e-05
11 *81:15 *242:22 0
12 *129:27 *242:20 0
13 *239:12 *242:22 0
14 *240:14 *242:22 0
*RES
1 *885:X *242:6 40 
2 *242:6 *242:20 44.5629 
3 *242:20 *242:22 40.1494 
4 *242:22 *242:26 40 
5 *242:26 *1012:A 40.5356 
*END

*D_NET *243 0.0171913
*CONN
*I *1013:A I *D sg13g2_buf_1
*I *886:X O *D sg13g2_buf_1
*CAP
1 *1013:A 0.000812585
2 *886:X 0
3 *243:22 0.00136113
4 *243:14 0.00206751
5 *243:12 0.00158437
6 *243:6 6.54043e-05
7 *243:14 *244:14 0
8 *243:14 *244:20 0.00563513
9 FrameData_O[7] *1013:A 0
10 FrameData_O[9] *1013:A 0
11 *129:27 *243:14 0
12 *230:26 *1013:A 0
13 *230:26 *243:22 0
14 *239:20 *1013:A 0
15 *240:12 *243:12 0
16 *242:20 *243:14 3.11652e-05
17 *242:22 *243:14 0.00563395
*RES
1 *886:X *243:6 40 
2 *243:6 *243:12 40.5356 
3 *243:12 *243:14 30.0142 
4 *243:14 *243:22 46.9113 
5 *243:22 *1013:A 48.6932 
*END

*D_NET *244 0.0155569
*CONN
*I *1014:A I *D sg13g2_buf_1
*I *887:X O *D sg13g2_buf_1
*CAP
1 *1014:A 0
2 *887:X 0
3 *244:24 0.00095576
4 *244:20 0.00277753
5 *244:14 0.00225324
6 *244:6 0.000431467
7 *74:9 *244:24 0
8 *75:9 *244:24 0.00167739
9 *217:20 *244:14 0.00110703
10 *217:20 *244:20 0
11 *230:26 *244:24 0.000719374
12 *239:12 *244:20 0
13 *242:22 *244:20 0
14 *243:14 *244:14 0
15 *243:14 *244:20 0.00563513
*RES
1 *887:X *244:6 40 
2 *244:6 *244:14 45.3663 
3 *244:14 *244:20 48.1396 
4 *244:20 *244:24 33.9462 
5 *244:24 *1014:A 40 
*END

*D_NET *245 0.0144334
*CONN
*I *1015:A I *D sg13g2_buf_1
*I *910:X O *D sg13g2_buf_1
*CAP
1 *1015:A 0.000696298
2 *910:X 0.00086722
3 *245:18 0.00513202
4 *245:12 0.00530294
5 *245:12 *257:12 0
6 *245:12 *258:14 0
7 *245:12 *260:10 7.9225e-05
8 *245:18 *258:16 0
9 *245:18 *285:14 0.000340653
10 *982:A *245:12 0
11 *13:9 *245:18 0
12 *14:5 *245:18 0
13 *79:17 *245:12 0
14 *82:9 *245:18 0.00201504
15 *223:8 *245:18 0
*RES
1 *910:X *245:12 46.9905 
2 *245:12 *245:18 42.7965 
3 *245:18 *1015:A 46.9422 
*END

*D_NET *246 0.00297949
*CONN
*I *1016:A I *D sg13g2_buf_1
*I *920:X O *D sg13g2_buf_1
*CAP
1 *1016:A 0
2 *920:X 0.00148975
3 *246:10 0.00148975
4 *246:10 *247:14 0
5 *246:10 *257:12 0
6 *982:A *246:10 0
*RES
1 *920:X *246:10 34.1831 
2 *246:10 *1016:A 20 
*END

*D_NET *247 0.00438092
*CONN
*I *1017:A I *D sg13g2_buf_1
*I *921:X O *D sg13g2_buf_1
*CAP
1 *1017:A 0
2 *921:X 0.000528921
3 *247:14 0.00124235
4 *247:10 0.00177128
5 *247:10 *248:12 0
6 *960:A *247:10 1.54008e-05
7 *66:11 *247:10 0
8 *219:22 *247:10 0.000822971
9 *246:10 *247:14 0
*RES
1 *921:X *247:10 45.6444 
2 *247:10 *247:14 31.3506 
3 *247:14 *1017:A 20 
*END

*D_NET *248 0.00547009
*CONN
*I *1018:A I *D sg13g2_buf_1
*I *922:X O *D sg13g2_buf_1
*CAP
1 *1018:A 0
2 *922:X 0.000802296
3 *248:12 0.00133249
4 *248:8 0.00213479
5 *248:8 *308:10 0.00120051
6 *964:A *248:12 0
7 *66:11 *248:8 0
8 *79:17 *248:8 0
9 *247:10 *248:12 0
*RES
1 *922:X *248:8 48.0134 
2 *248:8 *248:12 32.2158 
3 *248:12 *1018:A 20 
*END

*D_NET *249 0.0044486
*CONN
*I *1019:A I *D sg13g2_buf_1
*I *923:X O *D sg13g2_buf_1
*CAP
1 *1019:A 0
2 *923:X 0.000575441
3 *249:16 0.00107163
4 *249:12 0.00164707
5 *249:12 *250:14 0.000177157
6 *249:12 *296:8 0.000929536
7 *922:A *249:12 4.77699e-05
8 *964:A *249:16 0
9 *76:7 *249:12 0
10 *76:11 *249:12 0
11 *84:13 *249:12 0
12 *219:28 *249:12 0
*RES
1 *923:X *249:12 46.7053 
2 *249:12 *249:16 30.0528 
3 *249:16 *1019:A 20 
*END

*D_NET *250 0.00375289
*CONN
*I *1020:A I *D sg13g2_buf_1
*I *924:X O *D sg13g2_buf_1
*CAP
1 *1020:A 0
2 *924:X 0.000441159
3 *250:14 0.00115609
4 *250:10 0.00159725
5 *250:10 *296:8 0
6 *66:11 *250:10 0
7 *82:7 *250:10 0
8 *82:7 *250:14 0
9 *84:7 *250:10 0.000306108
10 *219:22 *250:10 7.51285e-05
11 *249:12 *250:14 0.000177157
*RES
1 *924:X *250:10 44.6247 
2 *250:10 *250:14 31.1343 
3 *250:14 *1020:A 20 
*END

*D_NET *251 0.00209647
*CONN
*I *1021:A I *D sg13g2_buf_1
*I *925:X O *D sg13g2_buf_1
*CAP
1 *1021:A 0
2 *925:X 0.00104823
3 *251:10 0.00104823
*RES
1 *925:X *251:10 30.3824 
2 *251:10 *1021:A 20 
*END

*D_NET *252 0.0160286
*CONN
*I *1022:A I *D sg13g2_buf_1
*I *890:X O *D sg13g2_buf_1
*CAP
1 *1022:A 0
2 *890:X 0
3 *252:22 0
4 *252:18 0.00254519
5 *252:12 0.00268685
6 *252:6 0.000141668
7 *252:18 *274:14 0
8 *252:18 *311:18 0
9 *30:19 *252:12 0.000208808
10 *81:27 *252:18 0.000941425
11 *241:12 *252:12 0
12 *241:14 *252:18 0.00950462
*RES
1 *890:X *252:6 40 
2 *252:6 *252:12 41.4008 
3 *252:12 *252:18 45.2685 
4 *252:18 *252:22 40 
5 *252:22 *1022:A 40 
*END

*D_NET *253 0.00197674
*CONN
*I *1023:A I *D sg13g2_buf_1
*I *926:X O *D sg13g2_buf_1
*CAP
1 *1023:A 0.000988368
2 *926:X 0.000988368
3 *1023:A *254:6 0
*RES
1 *926:X *1023:A 49.6408 
*END

*D_NET *254 0.00358547
*CONN
*I *1024:A I *D sg13g2_buf_1
*I *927:X O *D sg13g2_buf_1
*CAP
1 *1024:A 0
2 *927:X 0.00132469
3 *254:12 0.000163201
4 *254:6 0.00148789
5 *928:A *254:6 0
6 *1023:A *254:6 0
7 *231:12 *254:12 0.000609685
*RES
1 *927:X *254:6 33.081 
2 *254:6 *254:12 42.8222 
3 *254:12 *1024:A 20 
*END

*D_NET *255 0.00337547
*CONN
*I *1025:A I *D sg13g2_buf_1
*I *928:X O *D sg13g2_buf_1
*CAP
1 *1025:A 0.000235872
2 *928:X 0.00101184
3 *255:12 0.00124771
4 *231:12 *1025:A 0.000880039
*RES
1 *928:X *255:12 49.888 
2 *255:12 *1025:A 44.0582 
*END

*D_NET *256 0.004422
*CONN
*I *1026:A I *D sg13g2_buf_1
*I *929:X O *D sg13g2_buf_1
*CAP
1 *1026:A 0
2 *929:X 0.0012804
3 *256:16 0.000708976
4 *256:8 0.00198937
5 FrameData_O[26] *256:16 0.000234311
6 FrameData_O[27] *256:16 0
7 FrameData_O[29] *256:16 0
8 FrameData_O[31] *256:16 0.000208941
9 *998:A *256:16 0
10 *232:10 *256:16 0
*RES
1 *929:X *256:8 32.6278 
2 *256:8 *256:16 46.9422 
3 *256:16 *1026:A 20 
*END

*D_NET *257 0.0172691
*CONN
*I *1027:A I *D sg13g2_buf_1
*I *911:X O *D sg13g2_buf_1
*CAP
1 *1027:A 0.000328408
2 *911:X 0.000683859
3 *257:14 0.00367895
4 *257:12 0.0040344
5 *257:12 *266:10 0.000562186
6 *257:14 *266:10 0
7 *17:5 *257:14 0.00798126
8 *19:17 *257:14 0
9 *20:13 *257:14 0
10 *84:13 *257:12 0
11 *229:8 *257:14 0
12 *236:14 *257:14 0
13 *245:12 *257:12 0
14 *246:10 *257:12 0
*RES
1 *911:X *257:12 46.6126 
2 *257:12 *257:14 39.4078 
3 *257:14 *1027:A 43.1312 
*END

*D_NET *258 0.0156235
*CONN
*I *1028:A I *D sg13g2_buf_1
*I *912:X O *D sg13g2_buf_1
*CAP
1 *1028:A 0.000622181
2 *912:X 0.000897617
3 *258:16 0.00321186
4 *258:14 0.0034873
5 *258:14 *260:10 0.000208402
6 *258:14 *285:14 0
7 *891:A *258:14 0
8 *894:A *258:14 0
9 *895:A *258:14 8.00842e-05
10 *14:5 *258:16 0.00653895
11 *15:13 *258:16 0
12 *16:13 *258:16 0
13 *82:9 *258:16 0
14 *224:8 *258:16 0.000395591
15 *226:10 *258:16 0.000181487
16 *245:12 *258:14 0
17 *245:18 *258:16 0
*RES
1 *912:X *258:14 48.0752 
2 *258:14 *258:16 32.7334 
3 *258:16 *1028:A 46.1594 
*END

*D_NET *259 0.012692
*CONN
*I *1029:A I *D sg13g2_buf_1
*I *913:X O *D sg13g2_buf_1
*CAP
1 *1029:A 0.00102129
2 *913:X 0.000506758
3 *259:14 0.00307816
4 *259:10 0.00256363
5 *259:14 *260:22 0
6 *891:A *259:10 0
7 *7:13 *259:14 0
8 *8:9 *259:14 0.00552218
9 *80:43 *259:14 0
*RES
1 *913:X *259:10 44.6865 
2 *259:10 *259:14 45.5646 
3 *259:14 *1029:A 29.8365 
*END

*D_NET *260 0.0130062
*CONN
*I *1030:A I *D sg13g2_buf_1
*I *914:X O *D sg13g2_buf_1
*CAP
1 *1030:A 0
2 *914:X 0.00037599
3 *260:22 0.00248664
4 *260:16 0.00263047
5 *260:10 0.000519826
6 *7:13 *260:22 0.0039204
7 *79:17 *260:10 0
8 *83:21 *260:16 0.000176252
9 *125:9 *260:10 0.0013088
10 *132:7 *260:22 0
11 *134:13 *260:10 0.00130018
12 *245:12 *260:10 7.9225e-05
13 *258:14 *260:10 0.000208402
14 *259:14 *260:22 0
*RES
1 *914:X *260:10 47.4366 
2 *260:10 *260:16 41.4008 
3 *260:16 *260:22 47.5525 
4 *260:22 *1030:A 20 
*END

*D_NET *261 0.00731962
*CONN
*I *1031:A I *D sg13g2_buf_1
*I *915:X O *D sg13g2_buf_1
*CAP
1 *1031:A 0
2 *915:X 3.60597e-05
3 *261:14 0.00211801
4 *261:8 0.00215407
5 *7:13 *261:14 0.00301148
6 *132:9 *261:14 0
*RES
1 *915:X *261:8 40.3193 
2 *261:8 *261:14 42.9175 
3 *261:14 *1031:A 20 
*END

*D_NET *262 0.00299311
*CONN
*I *1032:A I *D sg13g2_buf_1
*I *916:X O *D sg13g2_buf_1
*CAP
1 *1032:A 0
2 *916:X 0.00149656
3 *262:8 0.00149656
4 *219:8 *262:8 0
*RES
1 *916:X *262:8 33.6784 
2 *262:8 *1032:A 20 
*END

*D_NET *263 0.0135692
*CONN
*I *1033:A I *D sg13g2_buf_1
*I *891:X O *D sg13g2_buf_1
*CAP
1 *1033:A 0.000127832
2 *891:X 0.000103661
3 *263:10 0.0031656
4 *263:8 0.00314143
5 *263:10 *308:10 0
6 FrameData_O[13] *1033:A 0
7 *66:11 *263:10 0
8 *73:9 *263:10 0
9 *74:9 *263:10 0
10 *79:17 *263:10 0.00449962
11 *133:9 *263:10 0
12 *136:13 *263:10 0.002531
*RES
1 *891:X *263:8 40.7519 
2 *263:8 *263:10 43.363 
3 *263:10 *1033:A 41.1845 
*END

*D_NET *264 0.00220945
*CONN
*I *1034:A I *D sg13g2_buf_1
*I *917:X O *D sg13g2_buf_1
*CAP
1 *1034:A 0
2 *917:X 0.00110473
3 *264:8 0.00110473
4 *917:A *264:8 0
*RES
1 *917:X *264:8 30.5266 
2 *264:8 *1034:A 20 
*END

*D_NET *265 0.00206038
*CONN
*I *1035:A I *D sg13g2_buf_1
*I *918:X O *D sg13g2_buf_1
*CAP
1 *1035:A 0.00103019
2 *918:X 0.00103019
3 FrameStrobe_O[8] *1035:A 0
4 *917:A *1035:A 0
*RES
1 *918:X *1035:A 49.785 
*END

*D_NET *266 0.00326519
*CONN
*I *1036:A I *D sg13g2_buf_1
*I *919:X O *D sg13g2_buf_1
*CAP
1 *1036:A 0.00018756
2 *919:X 0.000683262
3 *266:10 0.000870822
4 *903:A *1036:A 0.000175693
5 *15:13 *266:10 0
6 *17:5 *266:10 0.000287923
7 *235:10 *1036:A 4.75616e-05
8 *236:14 *266:10 0.000450182
9 *257:12 *266:10 0.000562186
10 *257:14 *266:10 0
*RES
1 *919:X *266:10 47.3439 
2 *266:10 *1036:A 41.8334 
*END

*D_NET *267 0.00477138
*CONN
*I *1037:A I *D sg13g2_buf_1
*I *930:X O *D sg13g2_buf_1
*CAP
1 *1037:A 0.000708125
2 *930:X 0.000249475
3 *267:10 0.000957599
4 *1037:A *309:14 0
5 *267:10 *309:14 4.77425e-05
6 *930:A *267:10 4.77425e-05
7 *27:25 *1037:A 0.00049856
8 *113:21 *1037:A 0.00113699
9 *123:11 *1037:A 0.000981238
10 *130:17 *267:10 0
11 *153:19 *267:10 0.00014391
*RES
1 *930:X *267:10 42.3999 
2 *267:10 *1037:A 49.8468 
*END

*D_NET *268 0.00207773
*CONN
*I *1038:A I *D sg13g2_buf_1
*I *931:X O *D sg13g2_buf_1
*CAP
1 *1038:A 6.59072e-05
2 *931:X 0.000206582
3 *268:10 0.000272489
4 *1038:A *317:18 0
5 *129:15 *268:10 0
6 *131:17 *268:10 0.000713513
7 *141:19 *268:10 0
8 *143:17 *1038:A 0.000112236
9 *155:15 *1038:A 4.77425e-05
10 *155:15 *268:10 0.000659262
*RES
1 *931:X *268:10 43.914 
2 *268:10 *1038:A 40.7519 
*END

*D_NET *269 0.00395514
*CONN
*I *1039:A I *D sg13g2_buf_1
*I *932:X O *D sg13g2_buf_1
*CAP
1 *1039:A 0.000631626
2 *932:X 0.000371423
3 *269:8 0.00100305
4 *1039:A *272:12 0
5 S1BEG[0] *1039:A 4.77425e-05
6 *118:9 *1039:A 0
7 *122:13 *1039:A 0.00103148
8 *137:27 *1039:A 0.000389543
9 *142:13 *269:8 0.000240141
10 *155:15 *269:8 0.000240141
*RES
1 *932:X *269:8 43.2822 
2 *269:8 *1039:A 47.1997 
*END

*D_NET *270 0.00109929
*CONN
*I *1040:A I *D sg13g2_buf_1
*I *933:X O *D sg13g2_buf_1
*CAP
1 *1040:A 2.5956e-05
2 *933:X 0.000253053
3 *270:8 0.000279009
4 *1040:A *317:18 4.76977e-05
5 *270:8 *271:10 0.000445878
6 *969:A *1040:A 4.76977e-05
7 *153:19 *270:8 0
8 *154:27 *270:8 0
9 *158:8 *270:8 0
*RES
1 *933:X *270:8 42.8222 
2 *270:8 *1040:A 40.3193 
*END

*D_NET *271 0.00162492
*CONN
*I *1041:A I *D sg13g2_buf_1
*I *934:X O *D sg13g2_buf_1
*CAP
1 *1041:A 5.36579e-05
2 *934:X 0.000358032
3 *271:10 0.00041169
4 *271:10 *275:10 0.000232837
5 *968:A *1041:A 0
6 *129:23 *271:10 0
7 *131:17 *1041:A 4.76977e-05
8 *131:25 *271:10 7.51285e-05
9 *151:19 *271:10 0
10 *158:8 *271:10 0
11 *270:8 *271:10 0.000445878
*RES
1 *934:X *271:10 44.0376 
2 *271:10 *1041:A 40.5356 
*END

*D_NET *272 0.00363675
*CONN
*I *1042:A I *D sg13g2_buf_1
*I *935:X O *D sg13g2_buf_1
*CAP
1 *1042:A 7.81686e-05
2 *935:X 0.0004387
3 *272:12 0.000516869
4 *1042:A *1047:A 0
5 S2BEG[1] *1042:A 1.54285e-05
6 *937:A *272:12 0.00011101
7 *943:A *1042:A 0
8 *1039:A *272:12 0
9 *116:9 *272:12 0.00140351
10 *118:9 *272:12 0.000765271
11 *137:33 *272:12 0
12 *143:17 *272:12 0.00011101
13 *159:8 *272:12 0.000181192
14 *215:12 *272:12 1.5595e-05
*RES
1 *935:X *272:12 47.6014 
2 *272:12 *1042:A 40.7519 
*END

*D_NET *273 0.0029037
*CONN
*I *1043:A I *D sg13g2_buf_1
*I *936:X O *D sg13g2_buf_1
*CAP
1 *1043:A 4.08322e-05
2 *936:X 0.000236041
3 *273:8 0.000276873
4 *31:23 *273:8 0.000764793
5 *130:17 *273:8 0.00119082
6 *137:27 *273:8 0.000394341
*RES
1 *936:X *273:8 45.5414 
2 *273:8 *1043:A 40.3193 
*END

*D_NET *274 0.00784936
*CONN
*I *1044:A I *D sg13g2_buf_1
*I *892:X O *D sg13g2_buf_1
*CAP
1 *1044:A 0
2 *892:X 0
3 *274:18 0
4 *274:14 0.00372292
5 *274:12 0.00392468
6 *274:6 0.000201761
7 *6:17 *274:12 0
8 *30:13 *274:14 0
9 *220:12 *274:14 0
10 *241:14 *274:14 0
11 *252:18 *274:14 0
*RES
1 *892:X *274:6 40 
2 *274:6 *274:12 41.6171 
3 *274:12 *274:14 46.0822 
4 *274:14 *274:18 40 
5 *274:18 *1044:A 40 
*END

*D_NET *275 0.00192108
*CONN
*I *1045:A I *D sg13g2_buf_1
*I *937:X O *D sg13g2_buf_1
*CAP
1 *1045:A 6.20637e-05
2 *937:X 0.000334672
3 *275:10 0.000396736
4 *275:10 *276:10 0.000447684
5 *275:10 *317:18 0.000111685
6 S1BEG[0] *1045:A 0.000112198
7 *969:A *275:10 0.00011101
8 *129:23 *275:10 0
9 *131:25 *275:10 0
10 *147:9 *1045:A 0.000112198
11 *271:10 *275:10 0.000232837
*RES
1 *937:X *275:10 43.8213 
2 *275:10 *1045:A 40.7519 
*END

*D_NET *276 0.00188426
*CONN
*I *1046:A I *D sg13g2_buf_1
*I *938:X O *D sg13g2_buf_1
*CAP
1 *1046:A 9.79579e-05
2 *938:X 0.000233266
3 *276:10 0.000331224
4 *276:10 *309:28 0.000288184
5 S1BEG[0] *1046:A 0
6 S1BEG[2] *1046:A 0.000143795
7 *129:23 *276:10 0.000342145
8 *131:25 *276:10 0
9 *275:10 *276:10 0.000447684
*RES
1 *938:X *276:10 43.605 
2 *276:10 *1046:A 40.9682 
*END

*D_NET *277 0.00118442
*CONN
*I *1047:A I *D sg13g2_buf_1
*I *939:X O *D sg13g2_buf_1
*CAP
1 *1047:A 0.000431739
2 *939:X 0.000431739
3 *1047:A *289:8 8.00842e-05
4 *1042:A *1047:A 0
5 *131:25 *1047:A 0.000240862
6 *138:25 *1047:A 0
*RES
1 *939:X *1047:A 44.0479 
*END

*D_NET *278 0.00213117
*CONN
*I *1048:A I *D sg13g2_buf_1
*I *940:X O *D sg13g2_buf_1
*CAP
1 *1048:A 4.94959e-05
2 *940:X 0.000308521
3 *278:8 0.000358017
4 *278:8 *279:10 0
5 *278:8 *280:8 0.000339779
6 *278:8 *309:28 0.000979875
7 S2BEG[6] *1048:A 1.54008e-05
8 *945:A *1048:A 8.00842e-05
9 *27:31 *278:8 0
*RES
1 *940:X *278:8 44.5526 
2 *278:8 *1048:A 40.5356 
*END

*D_NET *279 0.00204832
*CONN
*I *1049:A I *D sg13g2_buf_1
*I *941:X O *D sg13g2_buf_1
*CAP
1 *1049:A 0
2 *941:X 0.000368352
3 *279:10 0.000368352
4 *279:10 *280:8 0.000551064
5 *279:10 *289:14 0.000760551
6 *278:8 *279:10 0
*RES
1 *941:X *279:10 44.8719 
2 *279:10 *1049:A 40 
*END

*D_NET *280 0.00168728
*CONN
*I *1050:A I *D sg13g2_buf_1
*I *942:X O *D sg13g2_buf_1
*CAP
1 *1050:A 3.46921e-05
2 *942:X 0.000363527
3 *280:8 0.000398219
4 *280:8 *289:14 0
5 *280:8 *309:28 0
6 *280:8 *314:22 0
7 *278:8 *280:8 0.000339779
8 *279:10 *280:8 0.000551064
*RES
1 *942:X *280:8 44.0582 
2 *280:8 *1050:A 40.3193 
*END

*D_NET *281 0.000961733
*CONN
*I *1051:A I *D sg13g2_buf_1
*I *943:X O *D sg13g2_buf_1
*CAP
1 *1051:A 5.03155e-05
2 *943:X 0.000182904
3 *281:10 0.000233219
4 *281:10 *283:16 0.000127744
5 S2BEG[2] *281:10 0.000143791
6 S2BEG[6] *1051:A 8.00842e-05
7 *945:A *281:10 0.000143676
*RES
1 *943:X *281:10 42.06 
2 *281:10 *1051:A 40.5356 
*END

*D_NET *282 0.00307344
*CONN
*I *1052:A I *D sg13g2_buf_1
*I *944:X O *D sg13g2_buf_1
*CAP
1 *1052:A 0.000294331
2 *944:X 0.000359863
3 *282:10 0.000654194
4 *282:10 *314:10 0
5 *282:10 *315:26 0.00102657
6 S2BEG[2] *282:10 4.77425e-05
7 S2BEGb[3] *1052:A 0.000175312
8 S2BEGb[7] *1052:A 0
9 *165:8 *282:10 0.000181535
10 *213:8 *282:10 0.000333899
11 *216:22 *282:10 0
*RES
1 *944:X *282:10 45.1191 
2 *282:10 *1052:A 42.7192 
*END

*D_NET *283 0.00263642
*CONN
*I *1053:A I *D sg13g2_buf_1
*I *945:X O *D sg13g2_buf_1
*CAP
1 *1053:A 0.00012413
2 *945:X 0.000586112
3 *283:16 0.000710242
4 *283:16 *284:8 7.46098e-05
5 *283:16 *309:28 0.000195039
6 *283:16 *309:42 0.000495438
7 *283:16 *315:26 0
8 S2BEGb[3] *1053:A 0
9 *23:39 *283:16 7.30101e-05
10 *174:12 *1053:A 0.00011101
11 *175:10 *283:16 0.000127923
12 *176:16 *1053:A 1.11656e-05
13 *281:10 *283:16 0.000127744
*RES
1 *945:X *283:16 46.386 
2 *283:16 *1053:A 41.1562 
*END

*D_NET *284 0.00233686
*CONN
*I *1054:A I *D sg13g2_buf_1
*I *946:X O *D sg13g2_buf_1
*CAP
1 *1054:A 2.96211e-05
2 *946:X 0.000400751
3 *284:8 0.000430372
4 *284:8 *287:8 0.00012816
5 *284:8 *309:42 0
6 *284:8 *315:26 0.000708424
7 S4BEG[4] *1054:A 4.77425e-05
8 *23:39 *284:8 7.3287e-05
9 *175:10 *284:8 0.000443894
10 *283:16 *284:8 7.46098e-05
*RES
1 *946:X *284:8 45.047 
2 *284:8 *1054:A 40.3193 
*END

*D_NET *285 0.0165845
*CONN
*I *1055:A I *D sg13g2_buf_1
*I *893:X O *D sg13g2_buf_1
*CAP
1 *1055:A 0.000260635
2 *893:X 0.000683864
3 *285:16 0.00292652
4 *285:14 0.00334975
5 *1055:A *1066:A 0
6 *1055:A *1077:A 8.01116e-05
7 *285:14 *307:10 0
8 *285:16 *307:10 0.00862213
9 FrameData_O[17] *1055:A 0
10 *993:A *1055:A 0.000112426
11 *82:9 *285:14 0
12 *82:9 *285:16 0
13 *221:8 *285:14 8.01995e-05
14 *221:10 *285:14 0
15 *223:8 *285:14 0.00012816
16 *224:8 *285:16 0
17 *245:18 *285:14 0.000340653
18 *258:14 *285:14 0
*RES
1 *893:X *285:14 46.6585 
2 *285:14 *285:16 39.9022 
3 *285:16 *1055:A 42.8325 
*END

*D_NET *286 0.000602101
*CONN
*I *1056:A I *D sg13g2_buf_1
*I *947:X O *D sg13g2_buf_1
*CAP
1 *1056:A 0.000125358
2 *947:X 0.000125358
3 S4BEG[0] *1056:A 0.000143351
4 S4BEG[2] *1056:A 0.000208035
*RES
1 *947:X *1056:A 41.4008 
*END

*D_NET *287 0.00115357
*CONN
*I *1057:A I *D sg13g2_buf_1
*I *948:X O *D sg13g2_buf_1
*CAP
1 *1057:A 0.000120495
2 *948:X 6.66042e-05
3 *287:8 0.000187099
4 *287:8 *309:42 0.000235141
5 *287:8 *315:26 0
6 S4BEG[4] *1057:A 0.000208035
7 *140:31 *1057:A 0.000208035
8 *284:8 *287:8 0.00012816
*RES
1 *948:X *287:8 41.0918 
2 *287:8 *1057:A 41.4008 
*END

*D_NET *288 0.00308293
*CONN
*I *1058:A I *D sg13g2_buf_1
*I *949:X O *D sg13g2_buf_1
*CAP
1 *1058:A 0
2 *949:X 6.07558e-05
3 *288:18 0.000706188
4 *288:10 0.000766944
5 *288:10 *309:42 0.000181192
6 *288:10 *315:26 0.000181695
7 *288:18 *316:18 0
8 S4BEG[8] *288:10 4.77425e-05
9 S4BEG[8] *288:18 0.000175693
10 *952:A *288:18 8.00842e-05
11 *126:33 *288:18 1.54008e-05
12 *137:33 *288:18 0.000819685
13 *188:12 *288:10 4.75525e-05
14 *217:24 *288:18 0
*RES
1 *949:X *288:10 41.1639 
2 *288:10 *288:18 47.278 
3 *288:18 *1058:A 40 
*END

*D_NET *289 0.00512602
*CONN
*I *1059:A I *D sg13g2_buf_1
*I *950:X O *D sg13g2_buf_1
*CAP
1 *1059:A 0
2 *950:X 5.40513e-05
3 *289:14 0.000829327
4 *289:8 0.000883379
5 *289:14 *314:22 0
6 *948:A *289:14 4.77425e-05
7 *1047:A *289:8 8.00842e-05
8 *27:31 *289:14 0.0012942
9 *129:35 *289:14 0.00065753
10 *138:41 *289:14 0
11 *138:51 *289:14 0
12 *140:31 *289:14 0.000287364
13 *176:16 *289:14 0.000231792
14 *279:10 *289:14 0.000760551
15 *280:8 *289:14 0
*RES
1 *950:X *289:8 40.5356 
2 *289:8 *289:14 31.2991 
3 *289:14 *1059:A 20 
*END

*D_NET *290 0.00253616
*CONN
*I *1060:A I *D sg13g2_buf_1
*I *960:X O *D sg13g2_buf_1
*CAP
1 *1060:A 5.91218e-05
2 *960:X 0.00050231
3 *290:16 0.000561432
4 *290:16 *1072:A 1.54008e-05
5 *290:16 *1074:A 0
6 *290:16 *292:10 0.000284159
7 *290:16 *303:12 0.000181192
8 *290:16 *309:42 0.000234224
9 *290:16 *315:26 0.000337271
10 SS4BEG[7] *1060:A 4.77425e-05
11 *958:A *290:16 0.000170002
12 *182:30 *290:16 0.000143306
13 *183:20 *290:16 0
*RES
1 *960:X *290:16 46.2624 
2 *290:16 *1060:A 40.6695 
*END

*D_NET *291 0.00362184
*CONN
*I *1061:A I *D sg13g2_buf_1
*I *961:X O *D sg13g2_buf_1
*CAP
1 *1061:A 0.0002168
2 *961:X 0.000434614
3 *291:12 0.000651414
4 *291:12 *1063:A 0.000175693
5 *960:A *1061:A 0
6 *963:A *291:12 8.00842e-05
7 *83:9 *291:12 0.00103137
8 *215:26 *291:12 0.00103187
*RES
1 *961:X *291:12 46.9181 
2 *291:12 *1061:A 41.8334 
*END

*D_NET *292 0.00245682
*CONN
*I *1062:A I *D sg13g2_buf_1
*I *962:X O *D sg13g2_buf_1
*CAP
1 *1062:A 0.000120495
2 *962:X 0.000339919
3 *292:10 0.000460413
4 *1062:A *1075:A 0.000208035
5 *292:10 *309:42 0.000443782
6 *292:10 *315:26 0
7 SS4BEG[1] *1062:A 0.000208035
8 *195:16 *292:10 0
9 *207:10 *292:10 0.000391987
10 *290:16 *292:10 0.000284159
*RES
1 *962:X *292:10 44.3775 
2 *292:10 *1062:A 41.4008 
*END

*D_NET *293 0.000553831
*CONN
*I *1063:A I *D sg13g2_buf_1
*I *963:X O *D sg13g2_buf_1
*CAP
1 *1063:A 0.00013297
2 *963:X 0.00013297
3 SS4BEG[7] *1063:A 0
4 SS4BEG[8] *1063:A 0.000112198
5 *291:12 *1063:A 0.000175693
*RES
1 *963:X *1063:A 41.4008 
*END

*D_NET *294 0.000526999
*CONN
*I *1064:A I *D sg13g2_buf_1
*I *964:X O *D sg13g2_buf_1
*CAP
1 *1064:A 0.000223886
2 *964:X 0.000223886
3 *1064:A *314:32 7.92265e-05
4 SS4BEG[7] *1064:A 0
*RES
1 *964:X *1064:A 42.2145 
*END

*D_NET *295 0.00111885
*CONN
*I *1065:A I *D sg13g2_buf_1
*I *965:X O *D sg13g2_buf_1
*CAP
1 *1065:A 6.42131e-05
2 *965:X 0.00017257
3 *295:8 0.000236783
4 SS4BEG[1] *1065:A 6.97279e-05
5 *78:9 *295:8 7.48178e-05
6 *206:10 *295:8 0
7 *209:9 *295:8 0
8 *217:24 *295:8 0.000500734
*RES
1 *965:X *295:8 42.3278 
2 *295:8 *1065:A 40.6695 
*END

*D_NET *296 0.0113432
*CONN
*I *1066:A I *D sg13g2_buf_1
*I *894:X O *D sg13g2_buf_1
*CAP
1 *1066:A 6.92047e-05
2 *894:X 0
3 *296:8 0.00347648
4 *296:6 0.00340728
5 FrameData_O[15] *296:8 0
6 *1055:A *1066:A 0
7 *72:9 *296:8 0
8 *76:11 *296:8 0
9 *80:43 *296:8 0
10 *84:13 *296:8 0
11 *125:9 *296:8 0.00346069
12 *132:9 *296:8 0
13 *134:13 *296:8 0
14 *214:14 *296:8 0
15 *218:24 *296:8 0
16 *219:22 *296:8 0
17 *249:12 *296:8 0.000929536
18 *250:10 *296:8 0
*RES
1 *894:X *296:6 40 
2 *296:6 *296:8 44.1046 
3 *296:8 *1066:A 40.7519 
*END

*D_NET *297 0.00136077
*CONN
*I *1067:A I *D sg13g2_buf_1
*I *951:X O *D sg13g2_buf_1
*CAP
1 *1067:A 0.000127941
2 *951:X 7.71804e-05
3 *297:8 0.000205121
4 *297:8 *314:22 0.000342145
5 S4BEG[10] *1067:A 0.000143718
6 S4BEG[11] *1067:A 0.000207845
7 *138:51 *297:8 2.21839e-05
8 *140:31 *297:8 0
9 *191:8 *297:8 0.00023464
*RES
1 *951:X *297:8 41.5862 
2 *297:8 *1067:A 41.4008 
*END

*D_NET *298 0.00175676
*CONN
*I *1068:A I *D sg13g2_buf_1
*I *952:X O *D sg13g2_buf_1
*CAP
1 *1068:A 0.000171792
2 *952:X 0.000123192
3 *298:8 0.000294984
4 S4BEG[4] *1068:A 0.000143351
5 *982:A *1068:A 0
6 *129:35 *298:8 0.000553748
7 *130:25 *298:8 0.000341119
8 *138:59 *298:8 0.000128576
*RES
1 *952:X *298:8 42.575 
2 *298:8 *1068:A 41.6171 
*END

*D_NET *299 0.000327071
*CONN
*I *1069:A I *D sg13g2_buf_1
*I *953:X O *D sg13g2_buf_1
*CAP
1 *1069:A 0.000123494
2 *953:X 0.000123494
3 S4BEG[12] *1069:A 8.00842e-05
*RES
1 *953:X *1069:A 41.3493 
*END

*D_NET *300 0.00191713
*CONN
*I *1070:A I *D sg13g2_buf_1
*I *954:X O *D sg13g2_buf_1
*CAP
1 *1070:A 0.000123247
2 *954:X 0.000172527
3 *300:10 0.000295774
4 S4BEG[11] *300:10 7.9225e-05
5 *948:A *1070:A 0.00014391
6 *127:25 *300:10 7.9225e-05
7 *130:25 *300:10 0.000128247
8 *138:59 *300:10 0.000340704
9 *215:18 *300:10 0.000554272
*RES
1 *954:X *300:10 43.1106 
2 *300:10 *1070:A 41.1845 
*END

*D_NET *301 0.000169129
*CONN
*I *1071:A I *D sg13g2_buf_1
*I *955:X O *D sg13g2_buf_1
*CAP
1 *1071:A 8.45645e-05
2 *955:X 8.45645e-05
*RES
1 *955:X *1071:A 40.9167 
*END

*D_NET *302 0.00124659
*CONN
*I *1072:A I *D sg13g2_buf_1
*I *956:X O *D sg13g2_buf_1
*CAP
1 *1072:A 9.18789e-05
2 *956:X 0.000165378
3 *302:10 0.000257257
4 *1072:A *1074:A 0
5 *302:10 *303:12 0.000287517
6 *302:10 *309:42 0.000287016
7 *302:10 *314:22 4.75166e-05
8 *953:A *302:10 7.92265e-05
9 *182:30 *1072:A 1.54008e-05
10 *290:16 *1072:A 1.54008e-05
*RES
1 *956:X *302:10 42.3072 
2 *302:10 *1072:A 40.8858 
*END

*D_NET *303 0.00277332
*CONN
*I *1073:A I *D sg13g2_buf_1
*I *957:X O *D sg13g2_buf_1
*CAP
1 *1073:A 2.60565e-05
2 *957:X 0.000595349
3 *303:12 0.000621405
4 *303:12 *309:42 0
5 *303:12 *315:26 0.000710922
6 S4BEG[12] *303:12 0.000175503
7 SS4BEG[1] *1073:A 4.77425e-05
8 *956:A *303:12 7.98942e-05
9 *183:20 *1073:A 4.77425e-05
10 *290:16 *303:12 0.000181192
11 *302:10 *303:12 0.000287517
*RES
1 *957:X *303:12 46.798 
2 *303:12 *1073:A 40.3193 
*END

*D_NET *304 0.000170752
*CONN
*I *1074:A I *D sg13g2_buf_1
*I *958:X O *D sg13g2_buf_1
*CAP
1 *1074:A 8.53759e-05
2 *958:X 8.53759e-05
3 *1072:A *1074:A 0
4 *189:12 *1074:A 0
5 *290:16 *1074:A 0
*RES
1 *958:X *1074:A 40.9167 
*END

*D_NET *305 0.00260794
*CONN
*I *1075:A I *D sg13g2_buf_1
*I *959:X O *D sg13g2_buf_1
*CAP
1 *1075:A 0.000405625
2 *959:X 0.000301778
3 *305:16 0.000501416
4 *305:10 0.000397568
5 *953:A *305:10 8.00842e-05
6 *1062:A *1075:A 0.000208035
7 *80:31 *305:16 0
8 *179:8 *305:10 0
9 *209:9 *305:10 0.000713434
10 *217:24 *305:10 0
*RES
1 *959:X *305:10 43.8522 
2 *305:10 *305:16 40.7519 
3 *305:16 *1075:A 43.4814 
*END

*D_NET *306 0.00603738
*CONN
*I *1076:A I *D sg13g2_buf_1
*I *966:X O *D sg13g2_buf_1
*CAP
1 *1076:A 0
2 *966:X 0
3 *306:12 0.000890788
4 *306:6 0.000890788
5 *306:12 *314:32 0
6 SS4BEG[7] *306:12 0.000241725
7 *963:A *306:12 0
8 *83:9 *306:12 0
9 *137:33 *306:12 0
10 *209:9 *306:12 0.00250878
11 *215:18 *306:12 0.0015053
*RES
1 *966:X *306:6 40 
2 *306:6 *306:12 33.5857 
3 *306:12 *1076:A 20 
*END

*D_NET *307 0.0214703
*CONN
*I *1077:A I *D sg13g2_buf_1
*I *895:X O *D sg13g2_buf_1
*CAP
1 *1077:A 5.00906e-05
2 *895:X 2.50478e-05
3 *307:10 0.00178176
4 *307:8 0.00175672
5 *1055:A *1077:A 8.01116e-05
6 *221:10 *307:10 0.00915449
7 *285:14 *307:10 0
8 *285:16 *307:10 0.00862213
*RES
1 *895:X *307:8 40.3193 
2 *307:8 *307:10 42.3742 
3 *307:10 *1077:A 40.5356 
*END

*D_NET *308 0.0154672
*CONN
*I *1078:A I *D sg13g2_buf_1
*I *976:X O *D sg13g2_buf_1
*CAP
1 *1078:A 0.000562392
2 *976:X 0.00110086
3 *308:10 0.00414291
4 *308:8 0.00468138
5 *5:5 *308:10 0
6 *66:11 *308:10 0
7 *79:17 *308:10 0.00362007
8 *126:27 *308:8 1.54008e-05
9 *134:21 *1078:A 0
10 *139:11 *308:8 0
11 *139:15 *308:10 0
12 *150:19 *308:8 0.00014372
13 *218:10 *308:8 0
14 *218:24 *1078:A 0
15 *248:8 *308:10 0.00120051
16 *263:10 *308:10 0
*RES
1 *976:X *308:8 48.5387 
2 *308:8 *308:10 35.4526 
3 *308:10 *1078:A 45.0779 
*END

*D_NET *309 0.016118
*CONN
*I *1079:A I *D sg13g2_buf_1
*I *977:X O *D sg13g2_buf_1
*CAP
1 *1079:A 0
2 *977:X 0.000657238
3 *309:42 0.00154982
4 *309:28 0.00226216
5 *309:14 0.00136958
6 *309:28 *314:16 0
7 *309:28 *315:26 0
8 *309:42 *312:20 0.000872165
9 *309:42 *314:22 0.000710048
10 *309:42 *315:26 0
11 *1037:A *309:14 0
12 *27:25 *309:14 0
13 *27:31 *309:14 0
14 *65:9 *309:42 0.000143674
15 *76:7 *309:42 0.000143674
16 *107:13 *309:14 0.000228159
17 *123:11 *309:14 0
18 *124:9 *309:14 0
19 *129:23 *309:14 0.00156451
20 *138:25 *309:28 0.000234224
21 *151:19 *309:14 0.000760407
22 *175:10 *309:42 0.00028545
23 *178:10 *309:42 0.00123921
24 *195:16 *309:42 0
25 *204:10 *309:42 0
26 *207:10 *309:42 0.000710091
27 *267:10 *309:14 4.77425e-05
28 *276:10 *309:28 0.000288184
29 *278:8 *309:28 0.000979875
30 *280:8 *309:28 0
31 *283:16 *309:28 0.000195039
32 *283:16 *309:42 0.000495438
33 *284:8 *309:42 0
34 *287:8 *309:42 0.000235141
35 *288:10 *309:42 0.000181192
36 *290:16 *309:42 0.000234224
37 *292:10 *309:42 0.000443782
38 *302:10 *309:42 0.000287016
39 *303:12 *309:42 0
*RES
1 *977:X *309:14 49.7747 
2 *309:14 *309:28 48.9816 
3 *309:28 *309:42 41.6918 
4 *309:42 *1079:A 20 
*END

*D_NET *310 0.0154445
*CONN
*I *1080:A I *D sg13g2_buf_1
*I *978:X O *D sg13g2_buf_1
*CAP
1 *1080:A 0
2 *978:X 0
3 *310:22 0
4 *310:18 0.00297019
5 *310:12 0.00315794
6 *310:6 0.000187747
7 *310:12 *313:12 0
8 *310:18 *312:12 0
9 *109:15 *310:18 0.00538864
10 *114:17 *310:18 0.00275039
11 *127:13 *310:12 0.000237511
12 *135:13 *310:18 0.000752048
13 *150:13 *310:12 0
14 *213:20 *310:18 0
15 *237:12 *310:18 0
*RES
1 *978:X *310:6 40 
2 *310:6 *310:12 41.6171 
3 *310:12 *310:18 40.0773 
4 *310:18 *310:22 40 
5 *310:22 *1080:A 40 
*END

*D_NET *311 0.0149874
*CONN
*I *1081:A I *D sg13g2_buf_1
*I *979:X O *D sg13g2_buf_1
*CAP
1 *1081:A 0.000160128
2 *979:X 0.000404008
3 *311:24 0.000387946
4 *311:18 0.00264878
5 *311:16 0.00261639
6 *311:10 0.000599429
7 *2:17 *311:18 0.000215928
8 *3:17 *311:18 0.003495
9 *29:13 *311:16 0
10 *31:15 *311:18 0
11 *32:13 *311:18 0
12 *65:9 *1081:A 0
13 *77:9 *311:24 0.000660249
14 *81:27 *311:18 0
15 *126:27 *311:10 0.000465162
16 *127:13 *311:16 0
17 *139:11 *311:10 0
18 *152:15 *311:10 2.18151e-05
19 *217:20 *311:18 0
20 *218:24 *1081:A 0.000240571
21 *230:26 *311:24 0
22 *239:12 *311:18 0.003072
23 *252:18 *311:18 0
*RES
1 *979:X *311:10 43.6977 
2 *311:10 *311:16 42.0497 
3 *311:16 *311:18 34.2166 
4 *311:18 *311:24 43.0694 
5 *311:24 *1081:A 41.6171 
*END

*D_NET *312 0.0173054
*CONN
*I *1082:A I *D sg13g2_buf_1
*I *980:X O *D sg13g2_buf_1
*CAP
1 *1082:A 6.11232e-05
2 *980:X 0
3 *312:20 0.000553412
4 *312:12 0.00271506
5 *312:10 0.00222277
6 *312:6 0
7 *312:12 *313:14 0
8 *77:9 *1082:A 0.000111773
9 *78:9 *1082:A 0.000111773
10 *109:15 *312:12 0.0058693
11 *112:15 *312:12 0.00394678
12 *198:8 *312:20 0.000500312
13 *204:10 *312:20 0.000340918
14 *213:20 *312:12 0
15 *309:42 *312:20 0.000872165
16 *310:18 *312:12 0
*RES
1 *980:X *312:6 40 
2 *312:6 *312:10 40 
3 *312:10 *312:12 35.4526 
4 *312:12 *312:20 46.8804 
5 *312:20 *1082:A 40.7519 
*END

*D_NET *313 0.0123637
*CONN
*I *1083:A I *D sg13g2_buf_1
*I *981:X O *D sg13g2_buf_1
*CAP
1 *1083:A 0
2 *981:X 0
3 *313:20 0.000179725
4 *313:14 0.00336206
5 *313:12 0.00358012
6 *313:6 0.000397785
7 *1:19 *313:14 0
8 *80:11 *313:20 0
9 *81:11 *313:20 0
10 *112:15 *313:14 0
11 *150:13 *313:12 0
12 *213:20 *313:14 0.00484399
13 *213:20 *313:20 0
14 *310:12 *313:12 0
15 *312:12 *313:14 0
*RES
1 *981:X *313:6 40 
2 *313:6 *313:12 43.1312 
3 *313:12 *313:14 41.8798 
4 *313:14 *313:20 41.8334 
5 *313:20 *1083:A 40 
*END

*D_NET *314 0.00999493
*CONN
*I *1084:A I *D sg13g2_buf_1
*I *967:X O *D sg13g2_buf_1
*CAP
1 *1084:A 0
2 *967:X 0.000695428
3 *314:32 0.000566443
4 *314:22 0.001682
5 *314:16 0.00138164
6 *314:10 0.000961509
7 SS4BEG[1] *314:32 0.000112236
8 SS4BEG[7] *314:32 0
9 *953:A *314:22 0
10 *956:A *314:22 7.98942e-05
11 *964:A *314:32 0
12 *967:A *314:10 4.75166e-05
13 *1064:A *314:32 7.92265e-05
14 *27:31 *314:16 0
15 *83:9 *314:32 0
16 *112:21 *314:16 0.000140671
17 *138:51 *314:22 0
18 *138:59 *314:32 0.000500215
19 *147:9 *314:10 4.75166e-05
20 *158:8 *314:10 0.000287256
21 *160:10 *314:10 0.000499383
22 *165:8 *314:10 0.000609033
23 *176:16 *314:22 0
24 *177:8 *314:22 0.000390528
25 *178:10 *314:22 0.000341216
26 *180:16 *314:22 0.000181192
27 *213:8 *314:10 7.35141e-05
28 *215:18 *314:22 0.000143673
29 *215:18 *314:32 7.51285e-05
30 *216:22 *314:10 0
31 *280:8 *314:22 0
32 *282:10 *314:10 0
33 *289:14 *314:22 0
34 *297:8 *314:22 0.000342145
35 *302:10 *314:22 4.75166e-05
36 *306:12 *314:32 0
37 *309:28 *314:16 0
38 *309:42 *314:22 0.000710048
*RES
1 *967:X *314:10 47.5911 
2 *314:10 *314:16 42.0497 
3 *314:16 *314:22 31.8244 
4 *314:22 *314:32 45.5929 
5 *314:32 *1084:A 20 
*END

*D_NET *315 0.0105188
*CONN
*I *1085:A I *D sg13g2_buf_1
*I *968:X O *D sg13g2_buf_1
*CAP
1 *1085:A 0
2 *968:X 0.000210581
3 *315:26 0.00234498
4 *315:10 0.00255556
5 *967:A *315:10 4.75067e-05
6 *131:25 *315:26 0
7 *147:9 *315:10 0.000240377
8 *165:8 *315:26 0
9 *195:16 *315:26 0.000287343
10 *207:10 *315:26 0
11 *222:8 *315:26 0
12 *234:10 *315:26 0.00186759
13 *234:16 *315:26 0
14 *238:12 *315:26 0
15 *282:10 *315:26 0.00102657
16 *283:16 *315:26 0
17 *284:8 *315:26 0.000708424
18 *287:8 *315:26 0
19 *288:10 *315:26 0.000181695
20 *290:16 *315:26 0.000337271
21 *292:10 *315:26 0
22 *303:12 *315:26 0.000710922
23 *309:28 *315:26 0
24 *309:42 *315:26 0
*RES
1 *968:X *315:10 42.2145 
2 *315:10 *315:26 47.0787 
3 *315:26 *1085:A 20 
*END

*D_NET *316 0.0114133
*CONN
*I *1086:A I *D sg13g2_buf_1
*I *969:X O *D sg13g2_buf_1
*CAP
1 *1086:A 0
2 *969:X 3.18088e-05
3 *316:18 0.00202144
4 *316:8 0.00205325
5 SS4BEG[10] *316:18 1.54008e-05
6 *938:A *316:8 4.75151e-05
7 *963:A *316:18 0
8 *987:A *316:18 8.00842e-05
9 *110:23 *316:18 0.00156713
10 *115:9 *316:18 0
11 *117:15 *316:18 0.000716077
12 *130:17 *316:18 0.001989
13 *134:21 *316:18 0.000273394
14 *137:33 *316:18 0
15 *206:10 *316:18 8.00842e-05
16 *217:24 *316:18 0.00220043
17 *230:26 *316:18 0.000337718
18 *288:18 *316:18 0
*RES
1 *969:X *316:8 40.3193 
2 *316:8 *316:18 49.4271 
3 *316:18 *1086:A 20 
*END

*D_NET *317 0.0151777
*CONN
*I *1087:A I *D sg13g2_buf_1
*I *970:X O *D sg13g2_buf_1
*CAP
1 *1087:A 0
2 *970:X 0.000709768
3 *317:32 0.0002064
4 *317:24 0.00221442
5 *317:18 0.00271779
6 SS4BEG[10] *317:24 0.000175693
7 SS4BEG[11] *317:24 0.000175693
8 *937:A *317:18 0
9 *969:A *317:18 0.000319557
10 *1038:A *317:18 0
11 *1040:A *317:18 4.76977e-05
12 *65:9 *317:32 0.000144352
13 *138:17 *317:18 0.00023547
14 *138:17 *317:24 0
15 *140:13 *317:24 0.000976647
16 *143:17 *317:18 0.000182023
17 *156:15 *317:18 4.77425e-05
18 *161:10 *317:24 0.000817575
19 *166:10 *317:24 0.000499883
20 *170:10 *317:24 0.000284062
21 *174:12 *317:24 0.000340066
22 *181:10 *317:24 0.00113512
23 *184:10 *317:24 0
24 *186:10 *317:24 0.000924885
25 *192:10 *317:24 0.000764736
26 *208:10 *317:24 0.000181192
27 *209:9 *317:32 0.000144352
28 *216:22 *317:24 0.000500214
29 *216:30 *317:32 0.000661265
30 *222:8 *317:32 0.000659407
31 *275:10 *317:18 0.000111685
*RES
1 *970:X *317:18 47.2924 
2 *317:18 *317:24 46.5019 
3 *317:24 *317:32 44.0376 
4 *317:32 *1087:A 20 
*END
