*SPEF "ieee 1481-1999"
*DESIGN "S_WARMBOOT"
*DATE "20:53:05 Monday August 25, 2025"
*VENDOR "The OpenROAD Project"
*PROGRAM "OpenROAD"
*VERSION "341650e72dad0dc8571822ff8c5d9c5e365327f7"
*DESIGN_FLOW "NAME_SCOPE LOCAL" "PIN_CAP NONE"
*DIVIDER /
*DELIMITER :
*BUS_DELIMITER []
*T_UNIT 1 NS
*C_UNIT 1 PF
*R_UNIT 1 OHM
*L_UNIT 1 HENRY

*NAME_MAP
*1 BOOT_top
*2 CONFIGURED_top
*3 net167
*4 FrameData[0]
*5 FrameData[10]
*6 FrameData[11]
*7 FrameData[12]
*8 FrameData[13]
*9 FrameData[14]
*10 FrameData[15]
*11 FrameData[16]
*12 FrameData[17]
*13 FrameData[18]
*14 FrameData[19]
*15 FrameData[1]
*16 FrameData[20]
*17 FrameData[21]
*18 FrameData[22]
*19 FrameData[23]
*20 FrameData[24]
*21 FrameData[25]
*22 FrameData[26]
*23 FrameData[27]
*24 FrameData[28]
*25 FrameData[29]
*26 FrameData[2]
*27 FrameData[30]
*28 FrameData[31]
*29 FrameData[3]
*30 FrameData[4]
*31 FrameData[5]
*32 FrameData[6]
*33 FrameData[7]
*34 FrameData[8]
*35 FrameData[9]
*36 FrameData_O[0]
*37 FrameData_O[10]
*38 FrameData_O[11]
*39 FrameData_O[12]
*40 FrameData_O[13]
*41 FrameData_O[14]
*42 FrameData_O[15]
*43 FrameData_O[16]
*44 FrameData_O[17]
*45 FrameData_O[18]
*46 FrameData_O[19]
*47 FrameData_O[1]
*48 FrameData_O[20]
*49 FrameData_O[21]
*50 FrameData_O[22]
*51 FrameData_O[23]
*52 FrameData_O[24]
*53 FrameData_O[25]
*54 FrameData_O[26]
*55 FrameData_O[27]
*56 FrameData_O[28]
*57 FrameData_O[29]
*58 FrameData_O[2]
*59 FrameData_O[30]
*60 FrameData_O[31]
*61 FrameData_O[3]
*62 FrameData_O[4]
*63 FrameData_O[5]
*64 FrameData_O[6]
*65 FrameData_O[7]
*66 FrameData_O[8]
*67 FrameData_O[9]
*68 FrameStrobe[0]
*69 FrameStrobe[10]
*70 FrameStrobe[11]
*71 FrameStrobe[12]
*72 FrameStrobe[13]
*73 FrameStrobe[14]
*74 FrameStrobe[15]
*75 FrameStrobe[16]
*76 FrameStrobe[17]
*77 FrameStrobe[18]
*78 FrameStrobe[19]
*79 FrameStrobe[1]
*80 FrameStrobe[2]
*81 FrameStrobe[3]
*82 FrameStrobe[4]
*83 FrameStrobe[5]
*84 FrameStrobe[6]
*85 FrameStrobe[7]
*86 FrameStrobe[8]
*87 FrameStrobe[9]
*88 FrameStrobe_O[0]
*89 FrameStrobe_O[10]
*90 FrameStrobe_O[11]
*91 FrameStrobe_O[12]
*92 FrameStrobe_O[13]
*93 FrameStrobe_O[14]
*94 FrameStrobe_O[15]
*95 FrameStrobe_O[16]
*96 FrameStrobe_O[17]
*97 FrameStrobe_O[18]
*98 FrameStrobe_O[19]
*99 FrameStrobe_O[1]
*100 FrameStrobe_O[2]
*101 FrameStrobe_O[3]
*102 FrameStrobe_O[4]
*103 FrameStrobe_O[5]
*104 FrameStrobe_O[6]
*105 FrameStrobe_O[7]
*106 FrameStrobe_O[8]
*107 FrameStrobe_O[9]
*108 N1BEG[0]
*109 N1BEG[1]
*110 N1BEG[2]
*111 N1BEG[3]
*112 N2BEG[0]
*113 N2BEG[1]
*114 N2BEG[2]
*115 N2BEG[3]
*116 N2BEG[4]
*117 N2BEG[5]
*118 N2BEG[6]
*119 N2BEG[7]
*120 N2BEGb[0]
*121 N2BEGb[1]
*122 N2BEGb[2]
*123 N2BEGb[3]
*124 N2BEGb[4]
*125 N2BEGb[5]
*126 N2BEGb[6]
*127 N2BEGb[7]
*128 N4BEG[0]
*129 N4BEG[10]
*130 N4BEG[11]
*131 N4BEG[12]
*132 N4BEG[13]
*133 N4BEG[14]
*134 N4BEG[15]
*135 N4BEG[1]
*136 N4BEG[2]
*137 N4BEG[3]
*138 N4BEG[4]
*139 N4BEG[5]
*140 N4BEG[6]
*141 N4BEG[7]
*142 N4BEG[8]
*143 N4BEG[9]
*144 NN4BEG[0]
*145 NN4BEG[10]
*146 NN4BEG[11]
*147 NN4BEG[12]
*148 NN4BEG[13]
*149 NN4BEG[14]
*150 NN4BEG[15]
*151 NN4BEG[1]
*152 NN4BEG[2]
*153 NN4BEG[3]
*154 NN4BEG[4]
*155 NN4BEG[5]
*156 NN4BEG[6]
*157 NN4BEG[7]
*158 NN4BEG[8]
*159 NN4BEG[9]
*160 RESET_top
*161 S1END[0]
*162 S1END[1]
*163 S1END[2]
*164 S1END[3]
*165 S2END[0]
*166 S2END[1]
*167 S2END[2]
*168 S2END[3]
*169 S2END[4]
*170 S2END[5]
*171 S2END[6]
*172 S2END[7]
*173 S2MID[0]
*174 S2MID[1]
*175 S2MID[2]
*176 S2MID[3]
*177 S2MID[4]
*178 S2MID[5]
*179 S2MID[6]
*180 S2MID[7]
*181 S4END[0]
*182 S4END[10]
*183 S4END[11]
*184 S4END[12]
*185 S4END[13]
*186 S4END[14]
*187 S4END[15]
*188 S4END[1]
*189 S4END[2]
*190 S4END[3]
*191 S4END[4]
*192 S4END[5]
*193 S4END[6]
*194 S4END[7]
*195 S4END[8]
*196 S4END[9]
*197 SLOT_top0
*198 SLOT_top1
*199 SLOT_top2
*200 SLOT_top3
*201 SS4END[0]
*202 SS4END[10]
*203 SS4END[11]
*204 SS4END[12]
*205 SS4END[13]
*206 SS4END[14]
*207 SS4END[15]
*208 SS4END[1]
*209 SS4END[2]
*210 SS4END[3]
*211 SS4END[4]
*212 SS4END[5]
*213 SS4END[6]
*214 SS4END[7]
*215 SS4END[8]
*216 SS4END[9]
*217 UserCLK
*218 UserCLKo
*221 Inst_S_WARMBOOT_ConfigMem\.Inst_frame0_bit13\.Q
*222 Inst_S_WARMBOOT_ConfigMem\.Inst_frame0_bit14\.Q
*223 Inst_S_WARMBOOT_ConfigMem\.Inst_frame0_bit15\.Q
*224 Inst_S_WARMBOOT_ConfigMem\.Inst_frame0_bit16\.Q
*225 Inst_S_WARMBOOT_ConfigMem\.Inst_frame0_bit17\.Q
*226 Inst_S_WARMBOOT_ConfigMem\.Inst_frame0_bit18\.Q
*227 Inst_S_WARMBOOT_ConfigMem\.Inst_frame0_bit19\.Q
*228 Inst_S_WARMBOOT_ConfigMem\.Inst_frame0_bit20\.Q
*229 Inst_S_WARMBOOT_ConfigMem\.Inst_frame0_bit21\.Q
*230 Inst_S_WARMBOOT_ConfigMem\.Inst_frame0_bit22\.Q
*231 Inst_S_WARMBOOT_ConfigMem\.Inst_frame0_bit23\.Q
*232 Inst_S_WARMBOOT_ConfigMem\.Inst_frame0_bit24\.Q
*233 Inst_S_WARMBOOT_ConfigMem\.Inst_frame0_bit25\.Q
*234 Inst_S_WARMBOOT_ConfigMem\.Inst_frame0_bit26\.Q
*235 Inst_S_WARMBOOT_ConfigMem\.Inst_frame0_bit27\.Q
*236 Inst_S_WARMBOOT_ConfigMem\.Inst_frame0_bit28\.Q
*237 Inst_S_WARMBOOT_ConfigMem\.Inst_frame0_bit29\.Q
*238 Inst_S_WARMBOOT_ConfigMem\.Inst_frame0_bit30\.Q
*239 Inst_S_WARMBOOT_ConfigMem\.Inst_frame0_bit31\.Q
*240 Inst_S_WARMBOOT_switch_matrix\.N1BEG0
*241 Inst_S_WARMBOOT_switch_matrix\.N1BEG1
*242 Inst_S_WARMBOOT_switch_matrix\.N1BEG2
*243 Inst_S_WARMBOOT_switch_matrix\.N1BEG3
*244 _000_
*245 _001_
*246 _002_
*247 _003_
*248 _004_
*249 _005_
*250 _006_
*251 _007_
*252 _008_
*253 _009_
*254 _010_
*255 _011_
*256 _012_
*257 _013_
*258 _014_
*259 _015_
*260 _016_
*261 _017_
*262 _018_
*263 _019_
*264 _020_
*265 _021_
*266 _022_
*267 _023_
*268 _024_
*269 _025_
*270 _026_
*271 _027_
*272 _028_
*273 _029_
*274 _030_
*275 _031_
*276 _032_
*277 _033_
*278 _034_
*279 _035_
*280 _036_
*281 _037_
*282 _038_
*283 _039_
*284 _040_
*285 _041_
*286 _042_
*287 _043_
*288 _044_
*289 _045_
*290 _046_
*291 _047_
*292 _048_
*293 _049_
*294 _050_
*295 _051_
*296 net1
*297 net10
*298 net100
*299 net101
*300 net102
*301 net103
*302 net104
*303 net105
*304 net106
*305 net107
*306 net108
*307 net109
*308 net11
*309 net110
*310 net111
*311 net112
*312 net113
*313 net114
*314 net115
*315 net116
*316 net117
*317 net118
*318 net119
*319 net12
*320 net120
*321 net121
*322 net122
*323 net123
*324 net124
*325 net125
*326 net126
*327 net127
*328 net128
*329 net129
*330 net13
*331 net130
*332 net131
*333 net132
*334 net133
*335 net134
*336 net135
*337 net136
*338 net137
*339 net138
*340 net139
*341 net14
*342 net140
*343 net141
*344 net142
*345 net143
*346 net144
*347 net145
*348 net146
*349 net147
*350 net148
*351 net149
*352 net15
*353 net150
*354 net151
*355 net152
*356 net153
*357 net154
*358 net155
*359 net156
*360 net157
*361 net158
*362 net159
*363 net16
*364 net160
*365 net161
*366 net162
*367 net163
*368 net164
*369 net165
*370 net166
*371 net17
*372 net18
*373 net19
*374 net2
*375 net20
*376 net21
*377 net22
*378 net23
*379 net24
*380 net25
*381 net26
*382 net27
*383 net28
*384 net29
*385 net3
*386 net30
*387 net31
*388 net32
*389 net33
*390 net34
*391 net35
*392 net36
*393 net37
*394 net38
*395 net39
*396 net4
*397 net40
*398 net41
*399 net42
*400 net43
*401 net44
*402 net45
*403 net46
*404 net47
*405 net48
*406 net49
*407 net5
*408 net50
*409 net51
*410 net52
*411 net53
*412 net54
*413 net55
*414 net56
*415 net57
*416 net58
*417 net59
*418 net6
*419 net60
*420 net61
*421 net62
*422 net63
*423 net64
*424 net65
*425 net66
*426 net67
*427 net68
*428 net69
*429 net7
*430 net70
*431 net71
*432 net72
*433 net73
*434 net74
*435 net75
*436 net76
*437 net77
*438 net78
*439 net79
*440 net8
*441 net80
*442 net81
*443 net82
*444 net83
*445 net84
*446 net85
*447 net86
*448 net87
*449 net88
*450 net89
*451 net9
*452 net90
*453 net91
*454 net92
*455 net93
*456 net94
*457 net95
*458 net96
*459 net97
*460 net98
*461 net99
*462 ANTENNA_1
*463 ANTENNA_2
*464 ANTENNA_3
*465 ANTENNA_4
*466 ANTENNA_5
*467 FILLER_0_0
*468 FILLER_0_101
*469 FILLER_0_108
*470 FILLER_0_115
*471 FILLER_0_122
*472 FILLER_0_129
*473 FILLER_0_13
*474 FILLER_0_136
*475 FILLER_0_143
*476 FILLER_0_150
*477 FILLER_0_157
*478 FILLER_0_164
*479 FILLER_0_171
*480 FILLER_0_178
*481 FILLER_0_185
*482 FILLER_0_192
*483 FILLER_0_199
*484 FILLER_0_206
*485 FILLER_0_21
*486 FILLER_0_213
*487 FILLER_0_220
*488 FILLER_0_227
*489 FILLER_0_234
*490 FILLER_0_241
*491 FILLER_0_248
*492 FILLER_0_255
*493 FILLER_0_262
*494 FILLER_0_269
*495 FILLER_0_276
*496 FILLER_0_28
*497 FILLER_0_283
*498 FILLER_0_290
*499 FILLER_0_297
*500 FILLER_0_304
*501 FILLER_0_311
*502 FILLER_0_318
*503 FILLER_0_32
*504 FILLER_0_325
*505 FILLER_0_332
*506 FILLER_0_339
*507 FILLER_0_346
*508 FILLER_0_353
*509 FILLER_0_360
*510 FILLER_0_367
*511 FILLER_0_37
*512 FILLER_0_374
*513 FILLER_0_381
*514 FILLER_0_388
*515 FILLER_0_395
*516 FILLER_0_402
*517 FILLER_0_415
*518 FILLER_0_433
*519 FILLER_0_435
*520 FILLER_0_44
*521 FILLER_0_48
*522 FILLER_0_53
*523 FILLER_0_6
*524 FILLER_0_60
*525 FILLER_0_64
*526 FILLER_0_69
*527 FILLER_0_76
*528 FILLER_0_80
*529 FILLER_0_85
*530 FILLER_0_92
*531 FILLER_0_96
*532 FILLER_10_102
*533 FILLER_10_136
*534 FILLER_10_163
*535 FILLER_10_165
*536 FILLER_10_185
*537 FILLER_10_20
*538 FILLER_10_200
*539 FILLER_10_218
*540 FILLER_10_226
*541 FILLER_10_230
*542 FILLER_10_239
*543 FILLER_10_252
*544 FILLER_10_27
*545 FILLER_10_301
*546 FILLER_10_312
*547 FILLER_10_321
*548 FILLER_10_323
*549 FILLER_10_34
*550 FILLER_10_348
*551 FILLER_10_357
*552 FILLER_10_364
*553 FILLER_10_371
*554 FILLER_10_378
*555 FILLER_10_384
*556 FILLER_10_391
*557 FILLER_10_398
*558 FILLER_10_405
*559 FILLER_10_41
*560 FILLER_10_412
*561 FILLER_10_419
*562 FILLER_10_45
*563 FILLER_11_103
*564 FILLER_11_184
*565 FILLER_11_221
*566 FILLER_11_24
*567 FILLER_11_275
*568 FILLER_11_301
*569 FILLER_11_31
*570 FILLER_11_359
*571 FILLER_11_366
*572 FILLER_11_373
*573 FILLER_11_38
*574 FILLER_11_380
*575 FILLER_11_387
*576 FILLER_11_394
*577 FILLER_11_401
*578 FILLER_11_408
*579 FILLER_11_415
*580 FILLER_11_42
*581 FILLER_1_0
*582 FILLER_1_101
*583 FILLER_1_108
*584 FILLER_1_115
*585 FILLER_1_122
*586 FILLER_1_129
*587 FILLER_1_140
*588 FILLER_1_147
*589 FILLER_1_154
*590 FILLER_1_161
*591 FILLER_1_168
*592 FILLER_1_17
*593 FILLER_1_175
*594 FILLER_1_182
*595 FILLER_1_189
*596 FILLER_1_196
*597 FILLER_1_203
*598 FILLER_1_210
*599 FILLER_1_217
*600 FILLER_1_224
*601 FILLER_1_231
*602 FILLER_1_238
*603 FILLER_1_24
*604 FILLER_1_245
*605 FILLER_1_252
*606 FILLER_1_259
*607 FILLER_1_266
*608 FILLER_1_273
*609 FILLER_1_280
*610 FILLER_1_287
*611 FILLER_1_294
*612 FILLER_1_301
*613 FILLER_1_305
*614 FILLER_1_31
*615 FILLER_1_310
*616 FILLER_1_317
*617 FILLER_1_324
*618 FILLER_1_331
*619 FILLER_1_338
*620 FILLER_1_344
*621 FILLER_1_351
*622 FILLER_1_358
*623 FILLER_1_363
*624 FILLER_1_370
*625 FILLER_1_377
*626 FILLER_1_38
*627 FILLER_1_385
*628 FILLER_1_392
*629 FILLER_1_399
*630 FILLER_1_406
*631 FILLER_1_408
*632 FILLER_1_413
*633 FILLER_1_45
*634 FILLER_1_52
*635 FILLER_1_59
*636 FILLER_1_66
*637 FILLER_1_7
*638 FILLER_1_73
*639 FILLER_1_80
*640 FILLER_1_87
*641 FILLER_1_94
*642 FILLER_2_0
*643 FILLER_2_103
*644 FILLER_2_110
*645 FILLER_2_117
*646 FILLER_2_12
*647 FILLER_2_124
*648 FILLER_2_135
*649 FILLER_2_152
*650 FILLER_2_159
*651 FILLER_2_166
*652 FILLER_2_173
*653 FILLER_2_180
*654 FILLER_2_187
*655 FILLER_2_19
*656 FILLER_2_194
*657 FILLER_2_201
*658 FILLER_2_208
*659 FILLER_2_215
*660 FILLER_2_222
*661 FILLER_2_229
*662 FILLER_2_236
*663 FILLER_2_243
*664 FILLER_2_250
*665 FILLER_2_257
*666 FILLER_2_26
*667 FILLER_2_264
*668 FILLER_2_271
*669 FILLER_2_278
*670 FILLER_2_285
*671 FILLER_2_292
*672 FILLER_2_299
*673 FILLER_2_306
*674 FILLER_2_313
*675 FILLER_2_320
*676 FILLER_2_327
*677 FILLER_2_33
*678 FILLER_2_334
*679 FILLER_2_341
*680 FILLER_2_348
*681 FILLER_2_355
*682 FILLER_2_362
*683 FILLER_2_369
*684 FILLER_2_376
*685 FILLER_2_383
*686 FILLER_2_390
*687 FILLER_2_397
*688 FILLER_2_40
*689 FILLER_2_404
*690 FILLER_2_411
*691 FILLER_2_415
*692 FILLER_2_47
*693 FILLER_2_54
*694 FILLER_2_61
*695 FILLER_2_68
*696 FILLER_2_7
*697 FILLER_2_75
*698 FILLER_2_82
*699 FILLER_2_89
*700 FILLER_2_96
*701 FILLER_3_0
*702 FILLER_3_105
*703 FILLER_3_112
*704 FILLER_3_124
*705 FILLER_3_138
*706 FILLER_3_14
*707 FILLER_3_158
*708 FILLER_3_165
*709 FILLER_3_188
*710 FILLER_3_192
*711 FILLER_3_201
*712 FILLER_3_208
*713 FILLER_3_21
*714 FILLER_3_215
*715 FILLER_3_222
*716 FILLER_3_229
*717 FILLER_3_236
*718 FILLER_3_243
*719 FILLER_3_250
*720 FILLER_3_257
*721 FILLER_3_264
*722 FILLER_3_271
*723 FILLER_3_278
*724 FILLER_3_28
*725 FILLER_3_282
*726 FILLER_3_287
*727 FILLER_3_294
*728 FILLER_3_301
*729 FILLER_3_308
*730 FILLER_3_315
*731 FILLER_3_322
*732 FILLER_3_329
*733 FILLER_3_336
*734 FILLER_3_343
*735 FILLER_3_35
*736 FILLER_3_350
*737 FILLER_3_357
*738 FILLER_3_364
*739 FILLER_3_371
*740 FILLER_3_378
*741 FILLER_3_385
*742 FILLER_3_392
*743 FILLER_3_399
*744 FILLER_3_406
*745 FILLER_3_413
*746 FILLER_3_42
*747 FILLER_3_420
*748 FILLER_3_49
*749 FILLER_3_56
*750 FILLER_3_63
*751 FILLER_3_7
*752 FILLER_3_70
*753 FILLER_3_77
*754 FILLER_3_84
*755 FILLER_3_91
*756 FILLER_3_98
*757 FILLER_4_0
*758 FILLER_4_14
*759 FILLER_4_155
*760 FILLER_4_161
*761 FILLER_4_163
*762 FILLER_4_189
*763 FILLER_4_21
*764 FILLER_4_210
*765 FILLER_4_216
*766 FILLER_4_223
*767 FILLER_4_230
*768 FILLER_4_237
*769 FILLER_4_244
*770 FILLER_4_251
*771 FILLER_4_258
*772 FILLER_4_265
*773 FILLER_4_272
*774 FILLER_4_279
*775 FILLER_4_28
*776 FILLER_4_286
*777 FILLER_4_293
*778 FILLER_4_300
*779 FILLER_4_307
*780 FILLER_4_314
*781 FILLER_4_321
*782 FILLER_4_328
*783 FILLER_4_335
*784 FILLER_4_342
*785 FILLER_4_349
*786 FILLER_4_35
*787 FILLER_4_356
*788 FILLER_4_363
*789 FILLER_4_370
*790 FILLER_4_377
*791 FILLER_4_384
*792 FILLER_4_391
*793 FILLER_4_398
*794 FILLER_4_4
*795 FILLER_4_405
*796 FILLER_4_412
*797 FILLER_4_416
*798 FILLER_4_42
*799 FILLER_4_435
*800 FILLER_4_49
*801 FILLER_4_56
*802 FILLER_4_63
*803 FILLER_4_70
*804 FILLER_4_77
*805 FILLER_4_84
*806 FILLER_4_91
*807 FILLER_4_98
*808 FILLER_5_132
*809 FILLER_5_15
*810 FILLER_5_168
*811 FILLER_5_191
*812 FILLER_5_22
*813 FILLER_5_220
*814 FILLER_5_227
*815 FILLER_5_234
*816 FILLER_5_241
*817 FILLER_5_248
*818 FILLER_5_255
*819 FILLER_5_262
*820 FILLER_5_269
*821 FILLER_5_276
*822 FILLER_5_283
*823 FILLER_5_29
*824 FILLER_5_290
*825 FILLER_5_297
*826 FILLER_5_304
*827 FILLER_5_311
*828 FILLER_5_318
*829 FILLER_5_325
*830 FILLER_5_332
*831 FILLER_5_339
*832 FILLER_5_346
*833 FILLER_5_353
*834 FILLER_5_36
*835 FILLER_5_360
*836 FILLER_5_367
*837 FILLER_5_374
*838 FILLER_5_381
*839 FILLER_5_388
*840 FILLER_5_395
*841 FILLER_5_402
*842 FILLER_5_409
*843 FILLER_5_416
*844 FILLER_5_423
*845 FILLER_5_427
*846 FILLER_5_43
*847 FILLER_5_50
*848 FILLER_5_57
*849 FILLER_5_64
*850 FILLER_5_71
*851 FILLER_5_78
*852 FILLER_5_8
*853 FILLER_5_85
*854 FILLER_5_89
*855 FILLER_6_108
*856 FILLER_6_134
*857 FILLER_6_15
*858 FILLER_6_206
*859 FILLER_6_208
*860 FILLER_6_213
*861 FILLER_6_22
*862 FILLER_6_220
*863 FILLER_6_227
*864 FILLER_6_234
*865 FILLER_6_241
*866 FILLER_6_248
*867 FILLER_6_255
*868 FILLER_6_262
*869 FILLER_6_269
*870 FILLER_6_276
*871 FILLER_6_283
*872 FILLER_6_29
*873 FILLER_6_290
*874 FILLER_6_297
*875 FILLER_6_304
*876 FILLER_6_311
*877 FILLER_6_318
*878 FILLER_6_325
*879 FILLER_6_332
*880 FILLER_6_339
*881 FILLER_6_346
*882 FILLER_6_353
*883 FILLER_6_36
*884 FILLER_6_360
*885 FILLER_6_367
*886 FILLER_6_374
*887 FILLER_6_381
*888 FILLER_6_388
*889 FILLER_6_395
*890 FILLER_6_402
*891 FILLER_6_409
*892 FILLER_6_416
*893 FILLER_6_423
*894 FILLER_6_427
*895 FILLER_6_43
*896 FILLER_6_50
*897 FILLER_6_57
*898 FILLER_6_64
*899 FILLER_6_71
*900 FILLER_6_78
*901 FILLER_6_8
*902 FILLER_6_82
*903 FILLER_7_15
*904 FILLER_7_156
*905 FILLER_7_183
*906 FILLER_7_203
*907 FILLER_7_208
*908 FILLER_7_215
*909 FILLER_7_22
*910 FILLER_7_222
*911 FILLER_7_229
*912 FILLER_7_236
*913 FILLER_7_243
*914 FILLER_7_250
*915 FILLER_7_257
*916 FILLER_7_264
*917 FILLER_7_271
*918 FILLER_7_278
*919 FILLER_7_285
*920 FILLER_7_29
*921 FILLER_7_292
*922 FILLER_7_299
*923 FILLER_7_306
*924 FILLER_7_313
*925 FILLER_7_320
*926 FILLER_7_327
*927 FILLER_7_334
*928 FILLER_7_341
*929 FILLER_7_348
*930 FILLER_7_355
*931 FILLER_7_36
*932 FILLER_7_362
*933 FILLER_7_369
*934 FILLER_7_376
*935 FILLER_7_383
*936 FILLER_7_390
*937 FILLER_7_397
*938 FILLER_7_404
*939 FILLER_7_411
*940 FILLER_7_418
*941 FILLER_7_425
*942 FILLER_7_427
*943 FILLER_7_43
*944 FILLER_7_50
*945 FILLER_7_57
*946 FILLER_7_64
*947 FILLER_7_68
*948 FILLER_7_74
*949 FILLER_7_76
*950 FILLER_7_8
*951 FILLER_8_15
*952 FILLER_8_185
*953 FILLER_8_201
*954 FILLER_8_206
*955 FILLER_8_213
*956 FILLER_8_22
*957 FILLER_8_220
*958 FILLER_8_227
*959 FILLER_8_234
*960 FILLER_8_241
*961 FILLER_8_248
*962 FILLER_8_255
*963 FILLER_8_262
*964 FILLER_8_269
*965 FILLER_8_276
*966 FILLER_8_283
*967 FILLER_8_29
*968 FILLER_8_290
*969 FILLER_8_297
*970 FILLER_8_304
*971 FILLER_8_311
*972 FILLER_8_318
*973 FILLER_8_325
*974 FILLER_8_332
*975 FILLER_8_339
*976 FILLER_8_346
*977 FILLER_8_353
*978 FILLER_8_36
*979 FILLER_8_360
*980 FILLER_8_367
*981 FILLER_8_374
*982 FILLER_8_381
*983 FILLER_8_388
*984 FILLER_8_395
*985 FILLER_8_402
*986 FILLER_8_409
*987 FILLER_8_416
*988 FILLER_8_423
*989 FILLER_8_427
*990 FILLER_8_43
*991 FILLER_8_50
*992 FILLER_8_57
*993 FILLER_8_8
*994 FILLER_9_101
*995 FILLER_9_149
*996 FILLER_9_15
*997 FILLER_9_151
*998 FILLER_9_182
*999 FILLER_9_210
*1000 FILLER_9_217
*1001 FILLER_9_22
*1002 FILLER_9_224
*1003 FILLER_9_231
*1004 FILLER_9_238
*1005 FILLER_9_245
*1006 FILLER_9_249
*1007 FILLER_9_255
*1008 FILLER_9_262
*1009 FILLER_9_269
*1010 FILLER_9_280
*1011 FILLER_9_289
*1012 FILLER_9_29
*1013 FILLER_9_296
*1014 FILLER_9_303
*1015 FILLER_9_310
*1016 FILLER_9_317
*1017 FILLER_9_324
*1018 FILLER_9_339
*1019 FILLER_9_347
*1020 FILLER_9_354
*1021 FILLER_9_36
*1022 FILLER_9_361
*1023 FILLER_9_368
*1024 FILLER_9_375
*1025 FILLER_9_382
*1026 FILLER_9_389
*1027 FILLER_9_396
*1028 FILLER_9_403
*1029 FILLER_9_410
*1030 FILLER_9_417
*1031 FILLER_9_424
*1032 FILLER_9_43
*1033 FILLER_9_50
*1034 FILLER_9_57
*1035 FILLER_9_8
*1036 S_WARMBOOT_164
*1037 _052_
*1038 _053_
*1039 _054_
*1040 _055_
*1041 _056_
*1042 _057_
*1043 _058_
*1044 _059_
*1045 _060_
*1046 _061_
*1047 _062_
*1048 _063_
*1049 _064_
*1050 _065_
*1051 _066_
*1052 _067_
*1053 _068_
*1054 _069_
*1055 _070_
*1056 _071_
*1057 _072_
*1058 _073_
*1059 _074_
*1060 _075_
*1061 _076_
*1062 _077_
*1063 _078_
*1064 _079_
*1065 _080_
*1066 _081_
*1067 _082_
*1068 _083_
*1069 _084_
*1070 _085_
*1071 _086_
*1072 _087_
*1073 _088_
*1074 _089_
*1075 _090_
*1076 _091_
*1077 _092_
*1078 _093_
*1079 _094_
*1080 _095_
*1081 _096_
*1082 _097_
*1083 _098_
*1084 _099_
*1085 _100_
*1086 _101_
*1087 _102_
*1088 _103_
*1089 _104_
*1090 _105_
*1091 _106_
*1092 _107_
*1093 _108_
*1094 _109_
*1095 _110_
*1096 _111_
*1097 _112_
*1098 _113_
*1099 _114_
*1100 _115_
*1101 _116_
*1102 _117_
*1103 _118_
*1104 _119_
*1105 _120_
*1106 _121_
*1107 _122_
*1108 _123_
*1109 _124_
*1110 _125_
*1111 _126_
*1112 _127_
*1113 _128_
*1114 _129_
*1115 _130_
*1116 _131_
*1117 _133_
*1118 _134_
*1119 _135_
*1120 _136_
*1121 _137_
*1122 _138_
*1123 _139_
*1124 _140_
*1125 _141_
*1126 _142_
*1127 _143_
*1128 _144_
*1129 _145_
*1130 _146_
*1131 _147_
*1132 _148_
*1133 _149_
*1134 _150_
*1135 _151_
*1136 _152_
*1137 _153_
*1138 _154_
*1139 _155_
*1140 _156_
*1141 _157_
*1142 _158_
*1143 _159_
*1144 _160_
*1145 _161_
*1146 _162_
*1147 _163_
*1148 _164_
*1149 _165_
*1150 _166_
*1151 _167_
*1152 _168_
*1153 _169_
*1154 _170_
*1155 _171_
*1156 _172_
*1157 _173_
*1158 _174_
*1159 _175_
*1160 _176_
*1161 _177_
*1162 _178_
*1163 _179_
*1164 _180_
*1165 _181_
*1166 _182_
*1167 _183_
*1168 _184_
*1169 _185_
*1170 _186_
*1171 _187_
*1172 _188_
*1173 _189_
*1174 _190_
*1175 _191_
*1176 _192_
*1177 _193_
*1178 _194_
*1179 _195_
*1180 _196_
*1181 _197_
*1182 _198_
*1183 _199_
*1184 _200_
*1185 _201_
*1186 _202_
*1187 _203_
*1188 _204_
*1189 _205_
*1190 _206_
*1191 _207_
*1192 _208_
*1193 _209_
*1194 _210_
*1195 _211_
*1196 _212_
*1197 _213_
*1198 _214_
*1199 _215_
*1200 _216_
*1201 _217_
*1202 _218_
*1203 _219_
*1204 _220_
*1205 _221_
*1206 _222_
*1207 _223_
*1208 _224_
*1209 _225_
*1210 _226_
*1211 _227_
*1212 _228_
*1213 _229_
*1214 _230_
*1215 _231_
*1216 _232_
*1217 _233_
*1218 _234_
*1219 _235_
*1220 _236_
*1221 _237_
*1222 fanout1
*1223 fanout2
*1224 fanout3
*1225 input1
*1226 input10
*1227 input11
*1228 input12
*1229 input13
*1230 input14
*1231 input15
*1232 input16
*1233 input17
*1234 input18
*1235 input19
*1236 input2
*1237 input20
*1238 input21
*1239 input22
*1240 input23
*1241 input24
*1242 input25
*1243 input26
*1244 input27
*1245 input28
*1246 input29
*1247 input3
*1248 input30
*1249 input31
*1250 input32
*1251 input33
*1252 input34
*1253 input35
*1254 input36
*1255 input37
*1256 input38
*1257 input39
*1258 input4
*1259 input40
*1260 input41
*1261 input42
*1262 input43
*1263 input44
*1264 input45
*1265 input46
*1266 input47
*1267 input48
*1268 input49
*1269 input5
*1270 input50
*1271 input51
*1272 input52
*1273 input53
*1274 input6
*1275 input7
*1276 input8
*1277 input9
*1278 output100
*1279 output101
*1280 output102
*1281 output103
*1282 output104
*1283 output105
*1284 output106
*1285 output107
*1286 output108
*1287 output109
*1288 output110
*1289 output111
*1290 output112
*1291 output113
*1292 output114
*1293 output115
*1294 output116
*1295 output117
*1296 output118
*1297 output119
*1298 output120
*1299 output121
*1300 output122
*1301 output123
*1302 output124
*1303 output125
*1304 output126
*1305 output127
*1306 output128
*1307 output129
*1308 output130
*1309 output131
*1310 output132
*1311 output133
*1312 output134
*1313 output135
*1314 output136
*1315 output137
*1316 output138
*1317 output139
*1318 output140
*1319 output141
*1320 output142
*1321 output143
*1322 output144
*1323 output145
*1324 output146
*1325 output147
*1326 output148
*1327 output149
*1328 output150
*1329 output151
*1330 output152
*1331 output153
*1332 output154
*1333 output155
*1334 output156
*1335 output157
*1336 output158
*1337 output159
*1338 output160
*1339 output161
*1340 output162
*1341 output163
*1342 output54
*1343 output55
*1344 output56
*1345 output57
*1346 output58
*1347 output59
*1348 output60
*1349 output61
*1350 output62
*1351 output63
*1352 output64
*1353 output65
*1354 output66
*1355 output67
*1356 output68
*1357 output69
*1358 output70
*1359 output71
*1360 output72
*1361 output73
*1362 output74
*1363 output75
*1364 output76
*1365 output77
*1366 output78
*1367 output79
*1368 output80
*1369 output81
*1370 output82
*1371 output83
*1372 output84
*1373 output85
*1374 output86
*1375 output87
*1376 output88
*1377 output89
*1378 output90
*1379 output91
*1380 output92
*1381 output93
*1382 output94
*1383 output95
*1384 output96
*1385 output97
*1386 output98
*1387 output99

*PORTS
BOOT_top O
CONFIGURED_top I
Co O
FrameData[0] I
FrameData[10] I
FrameData[11] I
FrameData[12] I
FrameData[13] I
FrameData[14] I
FrameData[15] I
FrameData[16] I
FrameData[17] I
FrameData[18] I
FrameData[19] I
FrameData[1] I
FrameData[20] I
FrameData[21] I
FrameData[22] I
FrameData[23] I
FrameData[24] I
FrameData[25] I
FrameData[26] I
FrameData[27] I
FrameData[28] I
FrameData[29] I
FrameData[2] I
FrameData[30] I
FrameData[31] I
FrameData[3] I
FrameData[4] I
FrameData[5] I
FrameData[6] I
FrameData[7] I
FrameData[8] I
FrameData[9] I
FrameData_O[0] O
FrameData_O[10] O
FrameData_O[11] O
FrameData_O[12] O
FrameData_O[13] O
FrameData_O[14] O
FrameData_O[15] O
FrameData_O[16] O
FrameData_O[17] O
FrameData_O[18] O
FrameData_O[19] O
FrameData_O[1] O
FrameData_O[20] O
FrameData_O[21] O
FrameData_O[22] O
FrameData_O[23] O
FrameData_O[24] O
FrameData_O[25] O
FrameData_O[26] O
FrameData_O[27] O
FrameData_O[28] O
FrameData_O[29] O
FrameData_O[2] O
FrameData_O[30] O
FrameData_O[31] O
FrameData_O[3] O
FrameData_O[4] O
FrameData_O[5] O
FrameData_O[6] O
FrameData_O[7] O
FrameData_O[8] O
FrameData_O[9] O
FrameStrobe[0] I
FrameStrobe[10] I
FrameStrobe[11] I
FrameStrobe[12] I
FrameStrobe[13] I
FrameStrobe[14] I
FrameStrobe[15] I
FrameStrobe[16] I
FrameStrobe[17] I
FrameStrobe[18] I
FrameStrobe[19] I
FrameStrobe[1] I
FrameStrobe[2] I
FrameStrobe[3] I
FrameStrobe[4] I
FrameStrobe[5] I
FrameStrobe[6] I
FrameStrobe[7] I
FrameStrobe[8] I
FrameStrobe[9] I
FrameStrobe_O[0] O
FrameStrobe_O[10] O
FrameStrobe_O[11] O
FrameStrobe_O[12] O
FrameStrobe_O[13] O
FrameStrobe_O[14] O
FrameStrobe_O[15] O
FrameStrobe_O[16] O
FrameStrobe_O[17] O
FrameStrobe_O[18] O
FrameStrobe_O[19] O
FrameStrobe_O[1] O
FrameStrobe_O[2] O
FrameStrobe_O[3] O
FrameStrobe_O[4] O
FrameStrobe_O[5] O
FrameStrobe_O[6] O
FrameStrobe_O[7] O
FrameStrobe_O[8] O
FrameStrobe_O[9] O
N1BEG[0] O
N1BEG[1] O
N1BEG[2] O
N1BEG[3] O
N2BEG[0] O
N2BEG[1] O
N2BEG[2] O
N2BEG[3] O
N2BEG[4] O
N2BEG[5] O
N2BEG[6] O
N2BEG[7] O
N2BEGb[0] O
N2BEGb[1] O
N2BEGb[2] O
N2BEGb[3] O
N2BEGb[4] O
N2BEGb[5] O
N2BEGb[6] O
N2BEGb[7] O
N4BEG[0] O
N4BEG[10] O
N4BEG[11] O
N4BEG[12] O
N4BEG[13] O
N4BEG[14] O
N4BEG[15] O
N4BEG[1] O
N4BEG[2] O
N4BEG[3] O
N4BEG[4] O
N4BEG[5] O
N4BEG[6] O
N4BEG[7] O
N4BEG[8] O
N4BEG[9] O
NN4BEG[0] O
NN4BEG[10] O
NN4BEG[11] O
NN4BEG[12] O
NN4BEG[13] O
NN4BEG[14] O
NN4BEG[15] O
NN4BEG[1] O
NN4BEG[2] O
NN4BEG[3] O
NN4BEG[4] O
NN4BEG[5] O
NN4BEG[6] O
NN4BEG[7] O
NN4BEG[8] O
NN4BEG[9] O
RESET_top I
S1END[0] I
S1END[1] I
S1END[2] I
S1END[3] I
S2END[0] I
S2END[1] I
S2END[2] I
S2END[3] I
S2END[4] I
S2END[5] I
S2END[6] I
S2END[7] I
S2MID[0] I
S2MID[1] I
S2MID[2] I
S2MID[3] I
S2MID[4] I
S2MID[5] I
S2MID[6] I
S2MID[7] I
S4END[0] I
S4END[10] I
S4END[11] I
S4END[12] I
S4END[13] I
S4END[14] I
S4END[15] I
S4END[1] I
S4END[2] I
S4END[3] I
S4END[4] I
S4END[5] I
S4END[6] I
S4END[7] I
S4END[8] I
S4END[9] I
SLOT_top0 O
SLOT_top1 O
SLOT_top2 O
SLOT_top3 O
SS4END[0] I
SS4END[10] I
SS4END[11] I
SS4END[12] I
SS4END[13] I
SS4END[14] I
SS4END[15] I
SS4END[1] I
SS4END[2] I
SS4END[3] I
SS4END[4] I
SS4END[5] I
SS4END[6] I
SS4END[7] I
SS4END[8] I
SS4END[9] I
UserCLK I
UserCLKo O

*D_NET *1 0.000484225
*CONN
*P BOOT_top O
*I *1342:X O *D sg13g2_buf_1
*CAP
1 BOOT_top 0.000242113
2 *1342:X 0.000242113
*RES
1 *1342:X BOOT_top 22.678 
*END

*D_NET *2 0.000630616
*CONN
*P CONFIGURED_top I
*I *1225:A I *D sg13g2_buf_1
*CAP
1 CONFIGURED_top 0.000315308
2 *1225:A 0.000315308
3 *1225:A *1118:A 0
*RES
1 CONFIGURED_top *1225:A 23.3269 
*END

*D_NET *3 0.00285887
*CONN
*P Co O
*I *1036:L_LO O *D sg13g2_tielo
*CAP
1 Co 0.000174944
2 *1036:L_LO 0.000476476
3 *3:10 0.000651421
4 Co NN4BEG[15] 0
5 Co *161:13 0
6 *3:10 *178:13 0.00020894
7 *3:10 *179:11 0.00020894
8 *3:10 *392:14 0.00113814
9 *3:10 *409:18 0
*RES
1 *1036:L_LO *3:10 46.695 
2 *3:10 Co 21.4626 
*END

*D_NET *4 0.0190703
*CONN
*P FrameData[0] I
*I *1117:A I *D sg13g2_buf_1
*CAP
1 FrameData[0] 0.00139529
2 *1117:A 0.000179382
3 *4:9 0.00788594
4 *4:7 0.00910185
5 *1117:A FrameData_O[0] 0
6 *1117:A *77:19 0.000273103
7 *4:7 *1118:A 0
8 *4:9 FrameData_O[1] 0.000234727
9 *4:9 FrameData_O[2] 0
10 *4:9 *29:5 0
11 *4:9 *76:9 0
12 *4:9 *79:9 0
13 *4:9 *81:9 0
14 *4:9 *368:18 0
15 *4:9 *428:18 0
*RES
1 FrameData[0] *4:7 17.3555 
2 *4:7 *4:9 88.6933 
3 *4:9 *1117:A 41.8334 
*END

*D_NET *5 0.00123286
*CONN
*P FrameData[10] I
*I *1127:A I *D sg13g2_buf_1
*CAP
1 FrameData[10] 0.000495439
2 *1127:A 0.000495439
3 *1127:A *1129:A 0
4 *1127:A *6:11 0
5 *1127:A *35:11 0
6 *1127:A *179:17 0
7 *1127:A *341:18 0.000241983
8 *1127:A *341:24 0
*RES
1 FrameData[10] *1127:A 45.2118 
*END

*D_NET *6 0.0293821
*CONN
*P FrameData[11] I
*I *462:A I *D sg13g2_antennanp
*I *1128:A I *D sg13g2_buf_1
*CAP
1 FrameData[11] 0.000510588
2 *462:A 9.68527e-05
3 *1128:A 0
4 *6:21 0.000558654
5 *6:13 0.0102371
6 *6:11 0.0102859
7 *462:A FrameData_O[10] 0
8 *462:A FrameData_O[13] 0
9 *462:A *422:26 0
10 *6:11 *1129:A 0
11 *6:11 *35:11 0
12 *6:11 *417:12 0
13 *6:13 *31:11 0
14 *6:13 *34:13 0
15 *6:13 *35:13 0
16 *6:13 *448:16 0.0054439
17 *6:13 *448:18 0
18 *6:13 *448:26 0.00216953
19 *6:21 *34:19 0
20 *6:21 *417:22 0
21 *6:21 *448:26 7.962e-05
22 *1127:A *6:11 0
*RES
1 FrameData[11] *6:11 45.7371 
2 *6:11 *6:13 105.163 
3 *6:13 *6:21 44.9955 
4 *6:21 *1128:A 40 
5 *6:21 *462:A 41.0918 
*END

*D_NET *7 0.000797312
*CONN
*P FrameData[12] I
*I *1129:A I *D sg13g2_buf_1
*CAP
1 FrameData[12] 0.000398656
2 *1129:A 0.000398656
3 *1129:A *1236:A 0
4 *1129:A *341:24 0
5 *1129:A *418:12 0
6 *1127:A *1129:A 0
7 *6:11 *1129:A 0
*RES
1 FrameData[12] *1129:A 44.4702 
*END

*D_NET *8 0.000894885
*CONN
*P FrameData[13] I
*I *1236:A I *D sg13g2_buf_1
*CAP
1 FrameData[13] 0.000359258
2 *1236:A 0.000359258
3 *1236:A *1247:A 0
4 *1236:A *1258:A 0
5 *1236:A *308:14 0
6 *1236:A *341:18 0.000176369
7 *1236:A *418:12 0
8 *1129:A *1236:A 0
*RES
1 FrameData[13] *1236:A 43.8522 
*END

*D_NET *9 0.000361488
*CONN
*P FrameData[14] I
*I *1247:A I *D sg13g2_buf_1
*CAP
1 FrameData[14] 0.000172983
2 *1247:A 0.000172983
3 *1247:A *1258:A 0
4 *1247:A *308:12 1.55212e-05
5 *1236:A *1247:A 0
*RES
1 FrameData[14] *1247:A 41.9982 
*END

*D_NET *10 0.00134058
*CONN
*P FrameData[15] I
*I *1258:A I *D sg13g2_buf_1
*CAP
1 FrameData[15] 0.000364695
2 *1258:A 0.000364695
3 *1258:A *1269:A 0
4 *1258:A *297:10 0.000241512
5 *1258:A *308:14 0
6 *1258:A *341:18 0.000241512
7 *1258:A *440:12 0.00012816
8 *1236:A *1258:A 0
9 *1247:A *1258:A 0
*RES
1 FrameData[15] *1258:A 44.2848 
*END

*D_NET *11 0.000543276
*CONN
*P FrameData[16] I
*I *1269:A I *D sg13g2_buf_1
*CAP
1 FrameData[16] 0.00021531
2 *1269:A 0.00021531
3 *1269:A *1274:A 0
4 *1269:A *308:12 0.000112656
5 *1258:A *1269:A 0
*RES
1 FrameData[16] *1269:A 42.4308 
*END

*D_NET *12 0.00113566
*CONN
*P FrameData[17] I
*I *1274:A I *D sg13g2_buf_1
*CAP
1 FrameData[17] 0.000391928
2 *1274:A 0.000391928
3 *1274:A *1275:A 0
4 *1274:A *297:10 0.00014417
5 *1274:A *308:12 0
6 *1274:A *319:12 0.000192175
7 *1274:A *330:16 1.54556e-05
8 *1274:A *341:18 0
9 *1269:A *1274:A 0
*RES
1 FrameData[17] *1274:A 44.3878 
*END

*D_NET *13 0.000545979
*CONN
*P FrameData[18] I
*I *1275:A I *D sg13g2_buf_1
*CAP
1 FrameData[18] 0.000216774
2 *1275:A 0.000216774
3 *1275:A *1276:A 0
4 *1275:A *308:12 0.00011243
5 *1274:A *1275:A 0
*RES
1 FrameData[18] *1275:A 42.4308 
*END

*D_NET *14 0.000915446
*CONN
*P FrameData[19] I
*I *1276:A I *D sg13g2_buf_1
*CAP
1 FrameData[19] 0.000345728
2 *1276:A 0.000345728
3 *1276:A *1226:A 4.77702e-05
4 *1276:A *1277:A 0
5 *1276:A *308:12 0.00017622
6 *1276:A *330:16 0
7 *1275:A *1276:A 0
*RES
1 FrameData[19] *1276:A 43.8316 
*END

*D_NET *15 0.00162945
*CONN
*P FrameData[1] I
*I *1118:A I *D sg13g2_buf_1
*CAP
1 FrameData[1] 0.000814724
2 *1118:A 0.000814724
3 *1118:A *1123:A 0
4 *1118:A *26:11 0
5 *1118:A *29:5 0
6 *1118:A *379:10 0
7 *1118:A *396:8 0
8 *1118:A *428:8 0
9 *1225:A *1118:A 0
10 *4:7 *1118:A 0
*RES
1 FrameData[1] *1118:A 48.5846 
*END

*D_NET *16 0.000955152
*CONN
*P FrameData[20] I
*I *1277:A I *D sg13g2_buf_1
*CAP
1 FrameData[20] 0.000349444
2 *1277:A 0.000349444
3 *1277:A *1226:A 0
4 *1277:A *319:12 7.94462e-05
5 *1277:A *330:16 0.000176817
6 *1277:A *341:18 0
7 *1276:A *1277:A 0
*RES
1 FrameData[20] *1277:A 43.8522 
*END

*D_NET *17 0.000773509
*CONN
*P FrameData[21] I
*I *1226:A I *D sg13g2_buf_1
*CAP
1 FrameData[21] 0.000338984
2 *1226:A 0.000338984
3 *1226:A *1227:A 0
4 *1226:A *1228:A 4.77702e-05
5 *1226:A *330:16 0
6 *1276:A *1226:A 4.77702e-05
7 *1277:A *1226:A 0
*RES
1 FrameData[21] *1226:A 43.8316 
*END

*D_NET *18 0.000877383
*CONN
*P FrameData[22] I
*I *1227:A I *D sg13g2_buf_1
*CAP
1 FrameData[22] 0.000358821
2 *1227:A 0.000358821
3 *1227:A *1173:A 0
4 *1227:A *1228:A 0
5 *1227:A *1229:A 0
6 *1227:A *330:16 0.000111828
7 *1227:A *341:18 0
8 *1227:A *372:10 4.79124e-05
9 *1226:A *1227:A 0
*RES
1 FrameData[22] *1227:A 43.8522 
*END

*D_NET *19 0.000821338
*CONN
*P FrameData[23] I
*I *1228:A I *D sg13g2_buf_1
*CAP
1 FrameData[23] 0.000386784
2 *1228:A 0.000386784
3 *1228:A *1229:A 0
4 *1228:A *1230:A 0
5 *1228:A *352:8 0
6 *1228:A *372:10 0
7 *1226:A *1228:A 4.77702e-05
8 *1227:A *1228:A 0
*RES
1 FrameData[23] *1228:A 44.2642 
*END

*D_NET *20 0.00114213
*CONN
*P FrameData[24] I
*I *1229:A I *D sg13g2_buf_1
*CAP
1 FrameData[24] 0.000385976
2 *1229:A 0.000385976
3 *1229:A *1230:A 0
4 *1229:A *1231:A 0
5 *1229:A *352:8 0
6 *1229:A *352:12 0.000128662
7 *1229:A *372:10 0.000241512
8 *1227:A *1229:A 0
9 *1228:A *1229:A 0
*RES
1 FrameData[24] *1229:A 44.2848 
*END

*D_NET *21 0.00103192
*CONN
*P FrameData[25] I
*I *1230:A I *D sg13g2_buf_1
*CAP
1 FrameData[25] 0.000452388
2 *1230:A 0.000452388
3 *1230:A *1231:A 0
4 *1230:A *352:8 1.54008e-05
5 *1230:A *371:12 0.00011174
6 *1228:A *1230:A 0
7 *1229:A *1230:A 0
*RES
1 FrameData[25] *1230:A 44.7586 
*END

*D_NET *22 0.00100236
*CONN
*P FrameData[26] I
*I *1231:A I *D sg13g2_buf_1
*CAP
1 FrameData[26] 0.00042949
2 *1231:A 0.00042949
3 *1231:A *1232:A 0
4 *1231:A *371:12 0
5 *1231:A *372:10 0.000143379
6 *1229:A *1231:A 0
7 *1230:A *1231:A 0
*RES
1 FrameData[26] *1231:A 44.3878 
*END

*D_NET *23 0.000909151
*CONN
*P FrameData[27] I
*I *1232:A I *D sg13g2_buf_1
*CAP
1 FrameData[27] 0.000454576
2 *1232:A 0.000454576
3 *1232:A *1233:A 0
4 *1232:A *1235:A 0
5 *1232:A *371:12 0
6 *1232:A *372:10 0
7 *1232:A *373:12 0
8 *1231:A *1232:A 0
*RES
1 FrameData[27] *1232:A 44.4084 
*END

*D_NET *24 0.00090829
*CONN
*P FrameData[28] I
*I *1233:A I *D sg13g2_buf_1
*CAP
1 FrameData[28] 0.000454145
2 *1233:A 0.000454145
3 *1233:A *1234:A 0
4 *1233:A *371:12 0
5 *1232:A *1233:A 0
*RES
1 FrameData[28] *1233:A 44.9646 
*END

*D_NET *25 0.00125828
*CONN
*P FrameData[29] I
*I *1234:A I *D sg13g2_buf_1
*CAP
1 FrameData[29] 0.00062914
2 *1234:A 0.00062914
3 *1234:A *1235:A 0
4 *1234:A *1237:A 0
5 *1234:A *371:12 0
6 *1233:A *1234:A 0
*RES
1 FrameData[29] *1234:A 46.8186 
*END

*D_NET *26 0.0248894
*CONN
*P FrameData[2] I
*I *463:A I *D sg13g2_antennanp
*I *1119:A I *D sg13g2_buf_1
*CAP
1 FrameData[2] 0.000184127
2 *463:A 4.72978e-05
3 *1119:A 3.30826e-05
4 *26:25 0.000170662
5 *26:21 0.00072772
6 *26:13 0.0108626
7 *26:11 0.0104093
8 *463:A *1345:A 0
9 *26:11 *29:5 0
10 *26:13 *31:11 0
11 *26:13 *417:14 0
12 *26:21 FrameData_O[4] 0.00140677
13 *26:21 FrameData_O[5] 0
14 *26:21 *29:17 0
15 *26:21 *428:18 0
16 *26:21 *441:12 0.00104778
17 *26:21 *445:12 0
18 *1118:A *26:11 0
*RES
1 FrameData[2] *26:11 41.9673 
2 *26:11 *26:13 99.2302 
3 *26:13 *26:21 49.3833 
4 *26:21 *26:25 20.7519 
5 *26:25 *1119:A 20.3193 
6 *26:25 *463:A 20.5974 
*END

*D_NET *27 0.0018358
*CONN
*P FrameData[30] I
*I *1235:A I *D sg13g2_buf_1
*CAP
1 FrameData[30] 0.00080237
2 *1235:A 0.00080237
3 *1235:A *1237:A 0
4 *1235:A *373:12 0.000231056
5 *1235:A *375:10 0
6 *1232:A *1235:A 0
7 *1234:A *1235:A 0
*RES
1 FrameData[30] *1235:A 48.5284 
*END

*D_NET *28 0.0016244
*CONN
*P FrameData[31] I
*I *1237:A I *D sg13g2_buf_1
*CAP
1 FrameData[31] 0.000812201
2 *1237:A 0.000812201
3 *1234:A *1237:A 0
4 *1235:A *1237:A 0
*RES
1 FrameData[31] *1237:A 49.5378 
*END

*D_NET *29 0.0393869
*CONN
*P FrameData[3] I
*I *1120:A I *D sg13g2_buf_1
*I *464:A I *D sg13g2_antennanp
*CAP
1 FrameData[3] 0.00318099
2 *1120:A 0
3 *464:A 0
4 *29:38 0.000229967
5 *29:21 0.000263251
6 *29:17 0.00333825
7 *29:15 0.00385125
8 *29:11 0.000737729
9 *29:5 0.00337243
10 *29:5 *30:7 0
11 *29:5 *368:18 0.00552381
12 *29:5 *379:12 0.00723834
13 *29:5 *428:10 0
14 *29:5 *428:18 0
15 *29:5 *439:10 0
16 *29:11 *83:27 0
17 *29:15 *80:11 0.00211994
18 *29:15 *370:12 0.00146087
19 *29:15 *439:10 0
20 *29:17 FrameData_O[5] 7.52149e-05
21 *29:17 *1122:A 0
22 *29:17 *77:19 0
23 *29:17 *79:19 0
24 *29:17 *80:11 0
25 *29:17 *426:10 0
26 *29:17 *427:10 0
27 *29:17 *428:18 0
28 *29:17 *439:10 0.00694495
29 *29:17 *441:12 0.000665174
30 *29:21 FrameData_O[5] 1.54008e-05
31 *29:38 FrameData_O[5] 0.000133747
32 *29:38 FrameData_O[6] 0
33 *29:38 *1122:A 0.000235556
34 *29:38 *447:24 0
35 *1118:A *29:5 0
36 *4:9 *29:5 0
37 *26:11 *29:5 0
38 *26:21 *29:17 0
*RES
1 FrameData[3] *29:5 51.8605 
2 *29:5 *29:11 41.8334 
3 *29:11 *29:15 10.1558 
4 *29:15 *29:17 43.7647 
5 *29:17 *29:21 20.3193 
6 *29:21 *464:A 20 
7 *29:21 *29:38 43.0385 
8 *29:38 *1120:A 20 
*END

*D_NET *30 0.0361019
*CONN
*P FrameData[4] I
*I *1121:A I *D sg13g2_buf_1
*CAP
1 FrameData[4] 0.00230463
2 *1121:A 0
3 *30:17 0
4 *30:13 0.00456883
5 *30:11 0.00465254
6 *30:7 0.00238834
7 *30:7 *1123:A 0
8 *30:7 *31:9 0
9 *30:7 *179:13 0
10 *30:7 *379:12 0
11 *30:7 *428:10 0.00520569
12 *30:7 *439:10 0
13 *30:13 *31:11 0
14 *30:13 *417:14 0.0169819
15 *30:13 *447:12 0
16 *29:5 *30:7 0
*RES
1 FrameData[4] *30:7 49.3653 
2 *30:7 *30:11 20.7519 
3 *30:11 *30:13 78.9598 
4 *30:13 *30:17 40 
5 *30:17 *1121:A 40 
*END

*D_NET *31 0.0276279
*CONN
*P FrameData[5] I
*I *1122:A I *D sg13g2_buf_1
*I *465:A I *D sg13g2_antennanp
*CAP
1 FrameData[5] 0.000280262
2 *1122:A 0.00016025
3 *465:A 0
4 *31:15 0.00016025
5 *31:11 0.00719582
6 *31:9 0.00747608
7 *1122:A FrameData_O[5] 0.000288588
8 *1122:A *77:19 7.52149e-05
9 *31:9 *1123:A 0
10 *31:11 *34:13 0
11 *31:11 *417:14 0
12 *31:11 *447:12 0.0117559
13 *6:13 *31:11 0
14 *26:13 *31:11 0
15 *29:17 *1122:A 0
16 *29:38 *1122:A 0.000235556
17 *30:7 *31:9 0
18 *30:13 *31:11 0
*RES
1 FrameData[5] *31:9 43.1621 
2 *31:9 *31:11 101.208 
3 *31:11 *31:15 40 
4 *31:15 *465:A 40 
5 *31:15 *1122:A 42.3999 
*END

*D_NET *32 0.000854451
*CONN
*P FrameData[6] I
*I *1123:A I *D sg13g2_buf_1
*CAP
1 FrameData[6] 0.000427225
2 *1123:A 0.000427225
3 *1123:A *1124:A 0
4 *1123:A *34:5 0
5 *1123:A *396:8 0
6 *1118:A *1123:A 0
7 *30:7 *1123:A 0
8 *31:9 *1123:A 0
*RES
1 FrameData[6] *1123:A 44.6556 
*END

*D_NET *33 0.000836479
*CONN
*P FrameData[7] I
*I *1124:A I *D sg13g2_buf_1
*CAP
1 FrameData[7] 0.00041824
2 *1124:A 0.00041824
3 *1124:A *34:5 0
4 *1124:A *448:8 0
5 *1123:A *1124:A 0
*RES
1 FrameData[7] *1124:A 44.4084 
*END

*D_NET *34 0.0204522
*CONN
*P FrameData[8] I
*I *1125:A I *D sg13g2_buf_1
*CAP
1 FrameData[8] 0.00294238
2 *1125:A 0
3 *34:19 0.000481584
4 *34:13 0.00706993
5 *34:11 0.00680211
6 *34:5 0.00315615
7 *34:5 *35:11 0
8 *34:5 *179:13 0
9 *34:5 *180:9 0
10 *34:5 *331:10 0
11 *34:5 *341:24 0
12 *34:5 *367:16 0
13 *34:5 *396:12 0
14 *34:19 *432:16 0
15 *1123:A *34:5 0
16 *1124:A *34:5 0
17 *6:13 *34:13 0
18 *6:21 *34:19 0
19 *31:11 *34:13 0
*RES
1 FrameData[8] *34:5 32.5789 
2 *34:5 *34:11 41.8334 
3 *34:11 *34:13 72.2854 
4 *34:13 *34:19 45.5105 
5 *34:19 *1125:A 40 
*END

*D_NET *35 0.0225607
*CONN
*P FrameData[9] I
*I *1126:A I *D sg13g2_buf_1
*I *466:A I *D sg13g2_antennanp
*CAP
1 FrameData[9] 0.000335147
2 *1126:A 0.000180614
3 *466:A 0
4 *35:21 0.000882043
5 *35:13 0.0107569
6 *35:11 0.0103906
7 *1126:A FrameData_O[12] 0
8 *1126:A FrameData_O[9] 0
9 *1126:A *1374:A 1.54008e-05
10 *35:11 *417:12 0
11 *35:13 *420:14 0
12 *35:13 *448:16 0
13 *35:13 *448:18 0
14 *35:13 *448:26 0
15 *1127:A *35:11 0
16 *6:11 *35:11 0
17 *6:13 *35:13 0
18 *34:5 *35:11 0
*RES
1 FrameData[9] *35:11 43.4814 
2 *35:11 *35:13 97.0054 
3 *35:13 *35:21 47.8383 
4 *35:21 *466:A 40 
5 *35:21 *1126:A 42.0909 
*END

*D_NET *36 0.00121428
*CONN
*P FrameData_O[0] O
*I *1343:X O *D sg13g2_buf_1
*CAP
1 FrameData_O[0] 0.000607138
2 *1343:X 0.000607138
3 FrameData_O[0] FrameData_O[1] 0
4 FrameData_O[0] FrameData_O[3] 0
5 FrameData_O[0] *77:19 0
6 FrameData_O[0] *78:13 0
7 *1117:A FrameData_O[0] 0
*RES
1 *1343:X FrameData_O[0] 46.6641 
*END

*D_NET *37 0.000660541
*CONN
*P FrameData_O[10] O
*I *1344:X O *D sg13g2_buf_1
*CAP
1 FrameData_O[10] 0.00029031
2 *1344:X 0.00029031
3 FrameData_O[10] FrameData_O[11] 0
4 FrameData_O[10] FrameData_O[12] 0
5 FrameData_O[10] FrameData_O[9] 0
6 FrameData_O[10] *1345:A 7.99213e-05
7 FrameData_O[10] *1374:A 0
8 *462:A FrameData_O[10] 0
*RES
1 *1344:X FrameData_O[10] 43.2033 
*END

*D_NET *38 0.000899664
*CONN
*P FrameData_O[11] O
*I *1345:X O *D sg13g2_buf_1
*CAP
1 FrameData_O[11] 0.00040974
2 *1345:X 0.00040974
3 FrameData_O[11] FrameData_O[12] 8.01846e-05
4 FrameData_O[11] *1345:A 0
5 FrameData_O[10] FrameData_O[11] 0
*RES
1 *1345:X FrameData_O[11] 44.2642 
*END

*D_NET *39 0.000651398
*CONN
*P FrameData_O[12] O
*I *1346:X O *D sg13g2_buf_1
*CAP
1 FrameData_O[12] 0.000285607
2 *1346:X 0.000285607
3 FrameData_O[12] FrameData_O[13] 0
4 FrameData_O[12] *1345:A 0
5 FrameData_O[10] FrameData_O[12] 0
6 FrameData_O[11] FrameData_O[12] 8.01846e-05
7 *1126:A FrameData_O[12] 0
*RES
1 *1346:X FrameData_O[12] 43.0797 
*END

*D_NET *40 0.000640732
*CONN
*P FrameData_O[13] O
*I *1347:X O *D sg13g2_buf_1
*CAP
1 FrameData_O[13] 0.000320366
2 *1347:X 0.000320366
3 FrameData_O[13] FrameData_O[14] 0
4 FrameData_O[13] FrameData_O[15] 0
5 FrameData_O[13] *422:26 0
6 FrameData_O[12] FrameData_O[13] 0
7 *462:A FrameData_O[13] 0
*RES
1 *1347:X FrameData_O[13] 43.4196 
*END

*D_NET *41 0.000297607
*CONN
*P FrameData_O[14] O
*I *1348:X O *D sg13g2_buf_1
*CAP
1 FrameData_O[14] 0.000148804
2 *1348:X 0.000148804
3 FrameData_O[14] FrameData_O[15] 0
4 FrameData_O[13] FrameData_O[14] 0
*RES
1 *1348:X FrameData_O[14] 41.6789 
*END

*D_NET *42 0.000683026
*CONN
*P FrameData_O[15] O
*I *1349:X O *D sg13g2_buf_1
*CAP
1 FrameData_O[15] 0.000341513
2 *1349:X 0.000341513
3 FrameData_O[15] FrameData_O[16] 0
4 FrameData_O[15] FrameData_O[17] 0
5 FrameData_O[15] *422:26 0
6 FrameData_O[13] FrameData_O[15] 0
7 FrameData_O[14] FrameData_O[15] 0
*RES
1 *1349:X FrameData_O[15] 43.6359 
*END

*D_NET *43 0.000297607
*CONN
*P FrameData_O[16] O
*I *1350:X O *D sg13g2_buf_1
*CAP
1 FrameData_O[16] 0.000148804
2 *1350:X 0.000148804
3 FrameData_O[16] FrameData_O[17] 0
4 FrameData_O[15] FrameData_O[16] 0
*RES
1 *1350:X FrameData_O[16] 41.6789 
*END

*D_NET *44 0.000895795
*CONN
*P FrameData_O[17] O
*I *1351:X O *D sg13g2_buf_1
*CAP
1 FrameData_O[17] 0.00033794
2 *1351:X 0.00033794
3 FrameData_O[17] FrameData_O[18] 0
4 FrameData_O[17] *1356:A 0.0001447
5 FrameData_O[17] *426:22 0
6 FrameData_O[17] *431:16 7.52158e-05
7 FrameData_O[15] FrameData_O[17] 0
8 FrameData_O[16] FrameData_O[17] 0
*RES
1 *1351:X FrameData_O[17] 43.8522 
*END

*D_NET *45 0.000352109
*CONN
*P FrameData_O[18] O
*I *1352:X O *D sg13g2_buf_1
*CAP
1 FrameData_O[18] 0.000176055
2 *1352:X 0.000176055
3 FrameData_O[18] FrameData_O[19] 0
4 FrameData_O[18] *426:22 0
5 FrameData_O[17] FrameData_O[18] 0
*RES
1 *1352:X FrameData_O[18] 41.9982 
*END

*D_NET *46 0.00061009
*CONN
*P FrameData_O[19] O
*I *1353:X O *D sg13g2_buf_1
*CAP
1 FrameData_O[19] 0.000305045
2 *1353:X 0.000305045
3 FrameData_O[19] FrameData_O[20] 0
4 FrameData_O[19] *1356:A 0
5 FrameData_O[18] FrameData_O[19] 0
*RES
1 *1353:X FrameData_O[19] 43.0797 
*END

*D_NET *47 0.00173914
*CONN
*P FrameData_O[1] O
*I *1354:X O *D sg13g2_buf_1
*CAP
1 FrameData_O[1] 0.000752209
2 *1354:X 0.000752209
3 FrameData_O[1] FrameData_O[2] 0
4 FrameData_O[1] *77:19 0
5 FrameData_O[0] FrameData_O[1] 0
6 *4:9 FrameData_O[1] 0.000234727
*RES
1 *1354:X FrameData_O[1] 48.2709 
*END

*D_NET *48 0.000678743
*CONN
*P FrameData_O[20] O
*I *1355:X O *D sg13g2_buf_1
*CAP
1 FrameData_O[20] 0.000299648
2 *1355:X 0.000299648
3 FrameData_O[20] FrameData_O[21] 0
4 FrameData_O[20] FrameData_O[22] 0
5 FrameData_O[20] *1356:A 7.94462e-05
6 FrameData_O[20] *426:22 0
7 FrameData_O[20] *427:20 0
8 FrameData_O[19] FrameData_O[20] 0
*RES
1 *1355:X FrameData_O[20] 43.2033 
*END

*D_NET *49 0.00064976
*CONN
*P FrameData_O[21] O
*I *1356:X O *D sg13g2_buf_1
*CAP
1 FrameData_O[21] 0.00032488
2 *1356:X 0.00032488
3 FrameData_O[21] FrameData_O[22] 0
4 FrameData_O[21] *1356:A 0
5 FrameData_O[20] FrameData_O[21] 0
*RES
1 *1356:X FrameData_O[21] 43.296 
*END

*D_NET *50 0.000759375
*CONN
*P FrameData_O[22] O
*I *1357:X O *D sg13g2_buf_1
*CAP
1 FrameData_O[22] 0.000323773
2 *1357:X 0.000323773
3 FrameData_O[22] FrameData_O[23] 0
4 FrameData_O[22] FrameData_O[24] 0
5 FrameData_O[22] *1356:A 0.000111828
6 FrameData_O[22] *1361:A 0
7 FrameData_O[22] *427:20 0
8 FrameData_O[20] FrameData_O[22] 0
9 FrameData_O[21] FrameData_O[22] 0
*RES
1 *1357:X FrameData_O[22] 43.4196 
*END

*D_NET *51 0.000716932
*CONN
*P FrameData_O[23] O
*I *1358:X O *D sg13g2_buf_1
*CAP
1 FrameData_O[23] 0.000350738
2 *1358:X 0.000350738
3 FrameData_O[23] FrameData_O[24] 0
4 FrameData_O[23] FrameData_O[25] 1.54556e-05
5 FrameData_O[23] *1356:A 0
6 FrameData_O[23] *1358:A 0
7 FrameData_O[22] FrameData_O[23] 0
*RES
1 *1358:X FrameData_O[23] 43.6153 
*END

*D_NET *52 0.000805531
*CONN
*P FrameData_O[24] O
*I *1359:X O *D sg13g2_buf_1
*CAP
1 FrameData_O[24] 0.000363138
2 *1359:X 0.000363138
3 FrameData_O[24] FrameData_O[25] 0
4 FrameData_O[24] FrameData_O[26] 0
5 FrameData_O[24] *1358:A 0
6 FrameData_O[24] *434:28 0
7 FrameData_O[24] *435:32 7.92542e-05
8 FrameData_O[22] FrameData_O[24] 0
9 FrameData_O[23] FrameData_O[24] 0
*RES
1 *1359:X FrameData_O[24] 43.6359 
*END

*D_NET *53 0.000753143
*CONN
*P FrameData_O[25] O
*I *1360:X O *D sg13g2_buf_1
*CAP
1 FrameData_O[25] 0.000368844
2 *1360:X 0.000368844
3 FrameData_O[25] FrameData_O[26] 0
4 FrameData_O[25] *1358:A 0
5 FrameData_O[25] *435:32 0
6 FrameData_O[23] FrameData_O[25] 1.54556e-05
7 FrameData_O[24] FrameData_O[25] 0
*RES
1 *1360:X FrameData_O[25] 43.8316 
*END

*D_NET *54 0.000903945
*CONN
*P FrameData_O[26] O
*I *1361:X O *D sg13g2_buf_1
*CAP
1 FrameData_O[26] 0.000363717
2 *1361:X 0.000363717
3 FrameData_O[26] FrameData_O[27] 0
4 FrameData_O[26] *1361:A 0
5 FrameData_O[26] *435:32 0.000176511
6 FrameData_O[24] FrameData_O[26] 0
7 FrameData_O[25] FrameData_O[26] 0
*RES
1 *1361:X FrameData_O[26] 43.8522 
*END

*D_NET *55 0.000763696
*CONN
*P FrameData_O[27] O
*I *1362:X O *D sg13g2_buf_1
*CAP
1 FrameData_O[27] 0.000374114
2 *1362:X 0.000374114
3 FrameData_O[27] FrameData_O[28] 0
4 FrameData_O[27] *57:10 1.54676e-05
5 FrameData_O[26] FrameData_O[27] 0
*RES
1 *1362:X FrameData_O[27] 44.0788 
*END

*D_NET *56 0.00104437
*CONN
*P FrameData_O[28] O
*I *1363:X O *D sg13g2_buf_1
*CAP
1 FrameData_O[28] 0.000482074
2 *1363:X 0.000482074
3 FrameData_O[28] FrameData_O[29] 0
4 FrameData_O[28] FrameData_O[31] 8.02267e-05
5 FrameData_O[28] *1363:A 0
6 FrameData_O[27] FrameData_O[28] 0
*RES
1 *1363:X FrameData_O[28] 45.1809 
*END

*D_NET *57 0.00147891
*CONN
*P FrameData_O[29] O
*I *1364:X O *D sg13g2_buf_1
*CAP
1 FrameData_O[29] 0.000581517
2 *1364:X 7.76666e-05
3 *57:10 0.000659183
4 FrameData_O[29] FrameData_O[30] 0
5 FrameData_O[29] FrameData_O[31] 0
6 FrameData_O[29] *1361:A 0
7 FrameData_O[29] *1362:A 0.000145071
8 FrameData_O[27] *57:10 1.54676e-05
9 FrameData_O[28] FrameData_O[29] 0
*RES
1 *1364:X *57:10 40.8858 
2 *57:10 FrameData_O[29] 45.9534 
*END

*D_NET *58 0.00169675
*CONN
*P FrameData_O[2] O
*I *1365:X O *D sg13g2_buf_1
*CAP
1 FrameData_O[2] 0.000848377
2 *1365:X 0.000848377
3 FrameData_O[2] FrameData_O[3] 0
4 FrameData_O[2] *78:13 0
5 FrameData_O[2] *428:18 0
6 FrameData_O[1] FrameData_O[2] 0
7 *4:9 FrameData_O[2] 0
*RES
1 *1365:X FrameData_O[2] 48.3945 
*END

*D_NET *59 0.00127566
*CONN
*P FrameData_O[30] O
*I *1366:X O *D sg13g2_buf_1
*CAP
1 FrameData_O[30] 0.000637828
2 *1366:X 0.000637828
3 FrameData_O[30] FrameData_O[31] 0
4 FrameData_O[29] FrameData_O[30] 0
*RES
1 *1366:X FrameData_O[30] 47.0349 
*END

*D_NET *60 0.00192401
*CONN
*P FrameData_O[31] O
*I *1367:X O *D sg13g2_buf_1
*CAP
1 FrameData_O[31] 0.000816955
2 *1367:X 0.000816955
3 FrameData_O[31] *1362:A 0.000209871
4 FrameData_O[31] *1363:A 0
5 FrameData_O[28] FrameData_O[31] 8.02267e-05
6 FrameData_O[29] FrameData_O[31] 0
7 FrameData_O[30] FrameData_O[31] 0
*RES
1 *1367:X FrameData_O[31] 49.1773 
*END

*D_NET *61 0.000977965
*CONN
*P FrameData_O[3] O
*I *1368:X O *D sg13g2_buf_1
*CAP
1 FrameData_O[3] 0.000344731
2 *1368:X 0.000344731
3 FrameData_O[3] FrameData_O[4] 0
4 FrameData_O[3] *78:13 0.000288502
5 FrameData_O[3] *445:12 0
6 FrameData_O[0] FrameData_O[3] 0
7 FrameData_O[2] FrameData_O[3] 0
*RES
1 *1368:X FrameData_O[3] 43.8569 
*END

*D_NET *62 0.00290077
*CONN
*P FrameData_O[4] O
*I *1369:X O *D sg13g2_buf_1
*CAP
1 FrameData_O[4] 0.000746999
2 *1369:X 0.000746999
3 FrameData_O[4] FrameData_O[5] 0
4 FrameData_O[4] *1365:A 0
5 FrameData_O[4] *445:12 0
6 FrameData_O[3] FrameData_O[4] 0
7 *26:21 FrameData_O[4] 0.00140677
*RES
1 *1369:X FrameData_O[4] 49.3833 
*END

*D_NET *63 0.00216727
*CONN
*P FrameData_O[5] O
*I *1370:X O *D sg13g2_buf_1
*CAP
1 FrameData_O[5] 0.000667304
2 *1370:X 0.000667304
3 FrameData_O[5] FrameData_O[6] 0
4 FrameData_O[5] *1370:A 0.000144606
5 FrameData_O[5] *298:8 0
6 FrameData_O[5] *426:14 0
7 FrameData_O[5] *441:12 0.000175111
8 FrameData_O[4] FrameData_O[5] 0
9 *1122:A FrameData_O[5] 0.000288588
10 *26:21 FrameData_O[5] 0
11 *29:17 FrameData_O[5] 7.52149e-05
12 *29:21 FrameData_O[5] 1.54008e-05
13 *29:38 FrameData_O[5] 0.000133747
*RES
1 *1370:X FrameData_O[5] 47.4675 
*END

*D_NET *64 0.000873186
*CONN
*P FrameData_O[6] O
*I *1371:X O *D sg13g2_buf_1
*CAP
1 FrameData_O[6] 0.000436593
2 *1371:X 0.000436593
3 FrameData_O[6] FrameData_O[7] 0
4 FrameData_O[6] FrameData_O[8] 0
5 FrameData_O[6] *1370:A 0
6 FrameData_O[5] FrameData_O[6] 0
7 *29:38 FrameData_O[6] 0
*RES
1 *1371:X FrameData_O[6] 44.6247 
*END

*D_NET *65 0.000474601
*CONN
*P FrameData_O[7] O
*I *1372:X O *D sg13g2_buf_1
*CAP
1 FrameData_O[7] 0.000237301
2 *1372:X 0.000237301
3 FrameData_O[7] FrameData_O[8] 0
4 FrameData_O[6] FrameData_O[7] 0
*RES
1 *1372:X FrameData_O[7] 42.6677 
*END

*D_NET *66 0.000949547
*CONN
*P FrameData_O[8] O
*I *1373:X O *D sg13g2_buf_1
*CAP
1 FrameData_O[8] 0.000467059
2 *1373:X 0.000467059
3 FrameData_O[8] FrameData_O[9] 0
4 FrameData_O[8] *1345:A 0
5 FrameData_O[8] *1374:A 1.54285e-05
6 FrameData_O[6] FrameData_O[8] 0
7 FrameData_O[7] FrameData_O[8] 0
*RES
1 *1373:X FrameData_O[8] 44.3834 
*END

*D_NET *67 0.00107443
*CONN
*P FrameData_O[9] O
*I *1374:X O *D sg13g2_buf_1
*CAP
1 FrameData_O[9] 0.000537215
2 *1374:X 0.000537215
3 FrameData_O[9] *1374:A 0
4 FrameData_O[9] *447:24 0
5 FrameData_O[10] FrameData_O[9] 0
6 FrameData_O[8] FrameData_O[9] 0
7 *1126:A FrameData_O[9] 0
*RES
1 *1374:X FrameData_O[9] 45.5002 
*END

*D_NET *68 0.00647387
*CONN
*P FrameStrobe[0] I
*I *1224:A I *D sg13g2_buf_2
*CAP
1 FrameStrobe[0] 0.00168958
2 *1224:A 0.000748342
3 *68:11 0.00243792
4 *1224:A *1138:A 0
5 *1224:A *354:34 0.000144542
6 *1224:A *368:6 0
7 *1224:A *368:14 0.000208035
8 *1224:A *430:8 4.78498e-05
9 *68:11 *136:8 0
10 *68:11 *180:9 0
11 *68:11 *339:12 0
12 *68:11 *344:24 0.0011976
13 *68:11 *367:16 0
*RES
1 FrameStrobe[0] *68:11 36.7478 
2 *68:11 *1224:A 46.6126 
*END

*D_NET *69 0.00518853
*CONN
*P FrameStrobe[10] I
*I *1159:A I *D sg13g2_buf_1
*CAP
1 FrameStrobe[10] 0.00250595
2 *1159:A 0.00250595
3 *1159:A *1150:A 0
4 *1159:A *70:9 0
5 *1159:A *206:9 0.000176624
6 *1159:A *302:8 0
7 *1159:A *408:16 0
8 *1159:A *412:14 0
9 *1159:A *414:8 0
*RES
1 FrameStrobe[10] *1159:A 45.9457 
*END

*D_NET *70 0.0063216
*CONN
*P FrameStrobe[11] I
*I *1160:A I *D sg13g2_buf_1
*CAP
1 FrameStrobe[11] 0.00169666
2 *1160:A 0.000610187
3 *70:9 0.00230685
4 *1160:A *370:20 0
5 *1160:A *452:14 0.000950571
6 *70:9 *1152:A 0
7 *70:9 *301:12 0
8 *70:9 *370:20 0.000757331
9 *70:9 *412:14 0
10 *70:9 *431:16 0
11 *70:9 *438:24 0
12 *1159:A *70:9 0
*RES
1 FrameStrobe[11] *70:9 36.8932 
2 *70:9 *1160:A 46.3757 
*END

*D_NET *71 0.00502855
*CONN
*P FrameStrobe[12] I
*I *1161:A I *D sg13g2_buf_1
*CAP
1 FrameStrobe[12] 0.00181027
2 *1161:A 0.000704005
3 *71:9 0.00251428
4 *1161:A *301:12 0
5 *1161:A *306:12 0
6 *1161:A *427:14 0
7 *1161:A *455:10 0
8 *71:9 *301:12 0
9 *71:9 *427:14 0
10 *71:9 *431:16 0
*RES
1 FrameStrobe[12] *71:9 37.2628 
2 *71:9 *1161:A 46.3757 
*END

*D_NET *72 0.00665729
*CONN
*P FrameStrobe[13] I
*I *1162:A I *D sg13g2_buf_1
*CAP
1 FrameStrobe[13] 0.00211014
2 *1162:A 0.00211014
3 *1162:A *1163:A 0.00243701
4 *1162:A *1379:A 0
5 *1162:A *461:10 0
*RES
1 FrameStrobe[13] *1162:A 43.1441 
*END

*D_NET *73 0.00787426
*CONN
*P FrameStrobe[14] I
*I *1163:A I *D sg13g2_buf_1
*CAP
1 FrameStrobe[14] 0.000866336
2 *1163:A 0.00149262
3 *73:11 0.00235895
4 *1163:A FrameStrobe_O[17] 0
5 *1163:A FrameStrobe_O[19] 0
6 *1163:A *460:12 0
7 *1163:A *460:26 0
8 *1163:A *461:10 0
9 *73:11 *1166:A 0
10 *73:11 *426:10 0.00071935
11 *73:11 *447:24 0
12 *73:11 *460:12 0
13 *1162:A *1163:A 0.00243701
*RES
1 FrameStrobe[14] *73:11 49.5378 
2 *73:11 *1163:A 36.6757 
*END

*D_NET *74 0.00747679
*CONN
*P FrameStrobe[15] I
*I *1164:A I *D sg13g2_buf_1
*CAP
1 FrameStrobe[15] 0.00119359
2 *1164:A 0
3 *74:15 0.0014199
4 *74:11 0.0026135
5 *74:11 *1166:A 0
6 *74:11 *298:18 0
7 *74:11 *426:10 0
8 *74:11 *439:14 0
9 *74:15 *85:21 0.00104406
10 *74:15 *298:18 0
11 *74:15 *459:16 0.00120573
12 *74:15 *460:12 0
*RES
1 FrameStrobe[15] *74:11 31.0622 
2 *74:11 *74:15 35.8929 
3 *74:15 *1164:A 20 
*END

*D_NET *75 0.000976267
*CONN
*P FrameStrobe[16] I
*I *1165:A I *D sg13g2_buf_1
*CAP
1 FrameStrobe[16] 0.000488133
2 *1165:A 0.000488133
*RES
1 FrameStrobe[16] *1165:A 25.0573 
*END

*D_NET *76 0.00318752
*CONN
*P FrameStrobe[17] I
*I *1166:A I *D sg13g2_buf_1
*CAP
1 FrameStrobe[17] 0.00127087
2 *1166:A 0.000322892
3 *76:9 0.00159376
4 *76:9 *428:18 0
5 *4:9 *76:9 0
6 *73:11 *1166:A 0
7 *74:11 *1166:A 0
*RES
1 FrameStrobe[17] *76:9 31.4227 
2 *76:9 *1166:A 43.1312 
*END

*D_NET *77 0.00505449
*CONN
*P FrameStrobe[18] I
*I *1167:A I *D sg13g2_buf_1
*CAP
1 FrameStrobe[18] 0.00235309
2 *1167:A 0
3 *77:19 0.00235309
4 *77:19 *1343:A 0
5 *77:19 *1368:A 0
6 *77:19 *78:13 0
7 *77:19 *426:10 0
8 *77:19 *447:24 0
9 *77:19 *460:8 0
10 FrameData_O[0] *77:19 0
11 FrameData_O[1] *77:19 0
12 *1117:A *77:19 0.000273103
13 *1122:A *77:19 7.52149e-05
14 *29:17 *77:19 0
*RES
1 FrameStrobe[18] *77:19 44.6016 
2 *77:19 *1167:A 40 
*END

*D_NET *78 0.00249989
*CONN
*P FrameStrobe[19] I
*I *1168:A I *D sg13g2_buf_1
*CAP
1 FrameStrobe[19] 0.00103802
2 *1168:A 2.77263e-05
3 *78:13 0.00106575
4 *78:13 *1354:A 7.98942e-05
5 *78:13 *1365:A 0
6 *78:13 *445:12 0
7 FrameData_O[0] *78:13 0
8 FrameData_O[2] *78:13 0
9 FrameData_O[3] *78:13 0.000288502
10 *77:19 *78:13 0
*RES
1 FrameStrobe[19] *78:13 49.8571 
2 *78:13 *1168:A 20.3502 
*END

*D_NET *79 0.0196341
*CONN
*P FrameStrobe[1] I
*I *1150:A I *D sg13g2_buf_1
*CAP
1 FrameStrobe[1] 0.00146769
2 *1150:A 0.0018836
3 *79:19 0.00256015
4 *79:15 0.00112821
5 *79:9 0.00191934
6 *1150:A *1151:A 0
7 *1150:A *1157:A 0
8 *1150:A *213:15 0
9 *1150:A *215:17 0
10 *1150:A *302:8 0.00143469
11 *1150:A *408:16 0
12 *1150:A *411:8 0
13 *1150:A *413:8 4.75151e-05
14 *1150:A *431:14 0
15 *1150:A *442:26 0
16 *79:9 *81:9 0.00221651
17 *79:15 *83:27 0
18 *79:15 *84:9 0
19 *79:19 *80:11 0.0033817
20 *79:19 *427:10 0.00359466
21 *1159:A *1150:A 0
22 *4:9 *79:9 0
23 *29:17 *79:19 0
*RES
1 FrameStrobe[1] *79:9 38.746 
2 *79:9 *79:15 44.429 
3 *79:15 *79:19 36.6654 
4 *79:19 *1150:A 35.2015 
*END

*D_NET *80 0.0164185
*CONN
*P FrameStrobe[2] I
*I *1151:A I *D sg13g2_buf_1
*CAP
1 FrameStrobe[2] 0.000490215
2 *1151:A 0.00195619
3 *80:11 0.00464639
4 *80:7 0.00318041
5 *1151:A *1157:A 0.000628252
6 *1151:A *1205:A 1.54008e-05
7 *1151:A *187:13 0
8 *1151:A *331:6 0
9 *1151:A *348:8 0
10 *1151:A *431:14 0
11 *1151:A *442:26 0
12 *80:7 *368:14 0
13 *80:11 *370:12 0
14 *80:11 *427:10 0
15 *1150:A *1151:A 0
16 *29:15 *80:11 0.00211994
17 *29:17 *80:11 0
18 *79:19 *80:11 0.0033817
*RES
1 FrameStrobe[2] *80:7 24.7071 
2 *80:7 *80:11 49.767 
3 *80:11 *1151:A 35.9722 
*END

*D_NET *81 0.00825528
*CONN
*P FrameStrobe[3] I
*I *1152:A I *D sg13g2_buf_1
*CAP
1 FrameStrobe[3] 3.79905e-05
2 *1152:A 0.00049734
3 *81:9 0.00298139
4 *81:7 0.00252205
5 *4:9 *81:9 0
6 *70:9 *1152:A 0
7 *79:9 *81:9 0.00221651
*RES
1 FrameStrobe[3] *81:7 20.3811 
2 *81:7 *81:9 32.239 
3 *81:9 *1152:A 44.429 
*END

*D_NET *82 0.00781856
*CONN
*P FrameStrobe[4] I
*I *1153:A I *D sg13g2_buf_1
*CAP
1 FrameStrobe[4] 0.00108845
2 *1153:A 0
3 *82:15 0.00237012
4 *82:11 0.00345856
5 *82:11 *354:14 0.000288975
6 *82:11 *398:12 0
7 *82:11 *431:10 0.000612457
8 *82:15 *398:12 0
9 *82:15 *402:14 0
10 *82:15 *412:18 0
11 *82:15 *431:10 0
12 *82:15 *447:24 0
*RES
1 FrameStrobe[4] *82:11 31.5257 
2 *82:11 *82:15 39.879 
3 *82:15 *1153:A 20 
*END

*D_NET *83 0.0176768
*CONN
*P FrameStrobe[5] I
*I *1154:A I *D sg13g2_buf_1
*CAP
1 FrameStrobe[5] 0.00241913
2 *1154:A 0.00019589
3 *83:33 0.00244559
4 *83:27 0.00466884
5 *1154:A FrameStrobe_O[13] 0.000143544
6 *1154:A FrameStrobe_O[15] 8.00842e-05
7 *1154:A *1379:A 0
8 *83:27 *1072:A0 4.77425e-05
9 *83:27 *1187:A 0.00030531
10 *83:27 *1199:A 0
11 *83:27 *177:15 0
12 *83:27 *179:11 0
13 *83:27 *332:8 0.000352602
14 *83:27 *344:20 0
15 *83:27 *362:8 0.000209455
16 *83:33 *206:9 0.000188462
17 *83:33 *300:12 0
18 *83:33 *400:10 0
19 *83:33 *404:10 0
20 *83:33 *413:10 0.00395483
21 *83:33 *436:22 0
22 *83:33 *437:28 0.00129804
23 *83:33 *442:32 0.00136731
24 *29:11 *83:27 0
25 *79:15 *83:27 0
*RES
1 FrameStrobe[5] *83:27 43.2007 
2 *83:27 *83:33 30.4365 
3 *83:33 *1154:A 42.1012 
*END

*D_NET *84 0.0186433
*CONN
*P FrameStrobe[6] I
*I *1155:A I *D sg13g2_buf_1
*CAP
1 FrameStrobe[6] 0.0010168
2 *1155:A 0.000788915
3 *84:17 0.00294812
4 *84:15 0.0021592
5 *84:13 0.00109629
6 *84:9 0.00211309
7 *84:9 *428:18 0
8 *84:9 *439:10 0
9 *84:13 *86:9 0.00172354
10 *84:13 *358:10 0.000144276
11 *84:13 *398:6 0
12 *84:13 *399:10 0
13 *84:17 *85:11 0.00508113
14 *84:17 *403:12 0
15 *84:17 *431:16 0
16 *84:17 *459:16 0.00157197
17 *79:15 *84:9 0
*RES
1 FrameStrobe[6] *84:9 30.9592 
2 *84:9 *84:13 31.5669 
3 *84:13 *84:15 20 
4 *84:15 *84:17 31.4974 
5 *84:17 *1155:A 47.8898 
*END

*D_NET *85 0.019595
*CONN
*P FrameStrobe[7] I
*I *1156:A I *D sg13g2_buf_1
*CAP
1 FrameStrobe[7] 0.00156933
2 *1156:A 0
3 *85:21 0.000852862
4 *85:11 0.00208159
5 *85:7 0.00279806
6 *85:7 *370:12 0
7 *85:7 *390:6 0.000272631
8 *85:7 *398:6 0
9 *85:11 *86:9 0
10 *85:11 *338:20 0.00183015
11 *85:11 *358:16 0
12 *85:11 *431:16 0.00364425
13 *85:21 *298:18 0
14 *85:21 *305:10 0.000180603
15 *85:21 *458:10 0.000240333
16 *85:21 *461:20 0
17 *74:15 *85:21 0.00104406
18 *84:17 *85:11 0.00508113
*RES
1 FrameStrobe[7] *85:7 34.8732 
2 *85:7 *85:11 47.295 
3 *85:11 *85:21 49.1155 
4 *85:21 *1156:A 20 
*END

*D_NET *86 0.00814506
*CONN
*P FrameStrobe[8] I
*I *1157:A I *D sg13g2_buf_1
*CAP
1 FrameStrobe[8] 0.00226933
2 *1157:A 0.000378923
3 *86:9 0.00264825
4 *1157:A *442:26 0.000209083
5 *86:9 *338:20 0
6 *86:9 *342:12 0.000287672
7 *86:9 *358:10 0
8 *86:9 *402:10 0
9 *86:9 *406:12 0
10 *86:9 *408:20 0
11 *1150:A *1157:A 0
12 *1151:A *1157:A 0.000628252
13 *84:13 *86:9 0.00172354
14 *85:11 *86:9 0
*RES
1 FrameStrobe[8] *86:9 42.454 
2 *86:9 *1157:A 44.2127 
*END

*D_NET *87 0.00812775
*CONN
*P FrameStrobe[9] I
*I *1158:A I *D sg13g2_buf_1
*CAP
1 FrameStrobe[9] 0.00251523
2 *1158:A 0.000170354
3 *87:9 0.00268559
4 *1158:A *215:17 4.75151e-05
5 *87:9 *205:19 0.000499799
6 *87:9 *331:6 0
7 *87:9 *339:6 0.00220926
8 *87:9 *403:8 0
9 *87:9 *406:10 0
*RES
1 FrameStrobe[9] *87:9 45.2041 
2 *87:9 *1158:A 41.4008 
*END

*D_NET *88 0.000872922
*CONN
*P FrameStrobe_O[0] O
*I *1375:X O *D sg13g2_buf_1
*CAP
1 FrameStrobe_O[0] 0.000363968
2 *1375:X 0.000363968
3 FrameStrobe_O[0] FrameStrobe_O[1] 0
4 FrameStrobe_O[0] FrameStrobe_O[2] 0.000144985
5 FrameStrobe_O[0] UserCLKo 0
*RES
1 *1375:X FrameStrobe_O[0] 23.708 
*END

*D_NET *89 0.00164818
*CONN
*P FrameStrobe_O[10] O
*I *1376:X O *D sg13g2_buf_1
*CAP
1 FrameStrobe_O[10] 0.000624021
2 *1376:X 0.000624021
3 FrameStrobe_O[10] FrameStrobe_O[11] 0
4 FrameStrobe_O[10] FrameStrobe_O[13] 0
5 FrameStrobe_O[10] FrameStrobe_O[7] 0
6 FrameStrobe_O[10] FrameStrobe_O[9] 0
7 FrameStrobe_O[10] *1280:A 0
8 FrameStrobe_O[10] *1282:A 0.000241052
9 FrameStrobe_O[10] *103:10 7.9225e-05
10 FrameStrobe_O[10] *306:12 7.98567e-05
*RES
1 *1376:X FrameStrobe_O[10] 26.1182 
*END

*D_NET *90 0.00202508
*CONN
*P FrameStrobe_O[11] O
*I *1377:X O *D sg13g2_buf_1
*CAP
1 FrameStrobe_O[11] 0.000245766
2 *1377:X 0.000367726
3 *90:10 0.000613492
4 FrameStrobe_O[11] FrameStrobe_O[12] 0
5 FrameStrobe_O[11] FrameStrobe_O[13] 0
6 *90:10 FrameStrobe_O[17] 0.000111229
7 *90:10 FrameStrobe_O[18] 0.000111229
8 *90:10 *91:10 0
9 *90:10 *93:10 0.000394441
10 *90:10 *95:10 0.000181192
11 *90:10 *107:10 0
12 *90:10 *454:10 0
13 FrameStrobe_O[10] FrameStrobe_O[11] 0
*RES
1 *1377:X *90:10 44.0685 
2 *90:10 FrameStrobe_O[11] 22.1115 
*END

*D_NET *91 0.00204067
*CONN
*P FrameStrobe_O[12] O
*I *1378:X O *D sg13g2_buf_1
*CAP
1 FrameStrobe_O[12] 0.000199229
2 *1378:X 0.000430833
3 *91:10 0.000630061
4 FrameStrobe_O[12] FrameStrobe_O[13] 0
5 *91:10 FrameStrobe_O[19] 0.000175693
6 *91:10 *93:10 0.000604852
7 FrameStrobe_O[11] FrameStrobe_O[12] 0
8 *90:10 *91:10 0
*RES
1 *1378:X *91:10 44.9955 
2 *91:10 FrameStrobe_O[12] 21.6789 
*END

*D_NET *92 0.00192266
*CONN
*P FrameStrobe_O[13] O
*I *1379:X O *D sg13g2_buf_1
*CAP
1 FrameStrobe_O[13] 0.000793395
2 *1379:X 0.000793395
3 FrameStrobe_O[13] FrameStrobe_O[14] 0
4 FrameStrobe_O[13] FrameStrobe_O[15] 0
5 FrameStrobe_O[13] *1282:A 0.000144585
6 FrameStrobe_O[13] *1376:A 4.77425e-05
7 FrameStrobe_O[13] *306:12 0
8 FrameStrobe_O[13] *306:20 0
9 FrameStrobe_O[10] FrameStrobe_O[13] 0
10 FrameStrobe_O[11] FrameStrobe_O[13] 0
11 FrameStrobe_O[12] FrameStrobe_O[13] 0
12 *1154:A FrameStrobe_O[13] 0.000143544
*RES
1 *1379:X FrameStrobe_O[13] 26.9222 
*END

*D_NET *93 0.00225085
*CONN
*P FrameStrobe_O[14] O
*I *1380:X O *D sg13g2_buf_1
*CAP
1 FrameStrobe_O[14] 0.000228227
2 *1380:X 0.000397554
3 *93:10 0.000625781
4 FrameStrobe_O[14] FrameStrobe_O[15] 0
5 *93:10 *95:10 0
6 FrameStrobe_O[13] FrameStrobe_O[14] 0
7 *90:10 *93:10 0.000394441
8 *91:10 *93:10 0.000604852
*RES
1 *1380:X *93:10 44.7792 
2 *93:10 FrameStrobe_O[14] 21.8952 
*END

*D_NET *94 0.00194644
*CONN
*P FrameStrobe_O[15] O
*I *1381:X O *D sg13g2_buf_1
*CAP
1 FrameStrobe_O[15] 0.00074915
2 *1381:X 0.00074915
3 FrameStrobe_O[15] FrameStrobe_O[16] 0
4 FrameStrobe_O[15] FrameStrobe_O[17] 0
5 FrameStrobe_O[15] *1379:A 0.000144142
6 FrameStrobe_O[15] *107:10 4.75425e-05
7 FrameStrobe_O[15] *306:20 0.000176369
8 FrameStrobe_O[13] FrameStrobe_O[15] 0
9 FrameStrobe_O[14] FrameStrobe_O[15] 0
10 *1154:A FrameStrobe_O[15] 8.00842e-05
*RES
1 *1381:X FrameStrobe_O[15] 27.107 
*END

*D_NET *95 0.00177234
*CONN
*P FrameStrobe_O[16] O
*I *1382:X O *D sg13g2_buf_1
*CAP
1 FrameStrobe_O[16] 0.000291476
2 *1382:X 0.000504098
3 *95:10 0.000795575
4 FrameStrobe_O[16] FrameStrobe_O[17] 0
5 *95:10 *454:10 0
6 FrameStrobe_O[15] FrameStrobe_O[16] 0
7 *90:10 *95:10 0.000181192
8 *93:10 *95:10 0
*RES
1 *1382:X *95:10 44.3466 
2 *95:10 FrameStrobe_O[16] 22.3278 
*END

*D_NET *96 0.00196755
*CONN
*P FrameStrobe_O[17] O
*I *1383:X O *D sg13g2_buf_1
*CAP
1 FrameStrobe_O[17] 0.000732515
2 *1383:X 6.5303e-05
3 *96:8 0.000797818
4 FrameStrobe_O[17] FrameStrobe_O[18] 0
5 FrameStrobe_O[17] FrameStrobe_O[19] 0
6 FrameStrobe_O[17] *107:10 0
7 FrameStrobe_O[17] *307:12 8.00842e-05
8 *96:8 *305:10 0.000180603
9 FrameStrobe_O[15] FrameStrobe_O[17] 0
10 FrameStrobe_O[16] FrameStrobe_O[17] 0
11 *1163:A FrameStrobe_O[17] 0
12 *90:10 FrameStrobe_O[17] 0.000111229
*RES
1 *1383:X *96:8 40.8446 
2 *96:8 FrameStrobe_O[17] 26.4758 
*END

*D_NET *97 0.00158651
*CONN
*P FrameStrobe_O[18] O
*I *1384:X O *D sg13g2_buf_1
*CAP
1 FrameStrobe_O[18] 0.00033207
2 *1384:X 0.000405571
3 *97:8 0.000737641
4 FrameStrobe_O[18] FrameStrobe_O[19] 0
5 FrameStrobe_O[17] FrameStrobe_O[18] 0
6 *90:10 FrameStrobe_O[18] 0.000111229
*RES
1 *1384:X *97:8 43.811 
2 *97:8 FrameStrobe_O[18] 22.7604 
*END

*D_NET *98 0.00187548
*CONN
*P FrameStrobe_O[19] O
*I *1385:X O *D sg13g2_buf_1
*CAP
1 FrameStrobe_O[19] 0.000849893
2 *1385:X 0.000849893
3 FrameStrobe_O[19] *1378:A 0
4 FrameStrobe_O[19] *460:26 0
5 FrameStrobe_O[17] FrameStrobe_O[19] 0
6 FrameStrobe_O[18] FrameStrobe_O[19] 0
7 *1163:A FrameStrobe_O[19] 0
8 *91:10 FrameStrobe_O[19] 0.000175693
*RES
1 *1385:X FrameStrobe_O[19] 28.3018 
*END

*D_NET *99 0.00122109
*CONN
*P FrameStrobe_O[1] O
*I *1386:X O *D sg13g2_buf_1
*CAP
1 FrameStrobe_O[1] 0.000173734
2 *1386:X 0.000244041
3 *99:10 0.000417775
4 FrameStrobe_O[1] FrameStrobe_O[2] 0
5 *99:10 FrameStrobe_O[3] 0.000176599
6 *99:10 FrameStrobe_O[4] 0.00020894
7 *99:10 *100:8 0
8 FrameStrobe_O[0] FrameStrobe_O[1] 0
*RES
1 *1386:X *99:10 42.7398 
2 *99:10 FrameStrobe_O[1] 21.4626 
*END

*D_NET *100 0.00133718
*CONN
*P FrameStrobe_O[2] O
*I *1387:X O *D sg13g2_buf_1
*CAP
1 FrameStrobe_O[2] 0.000306911
2 *1387:X 0.000145101
3 *100:8 0.000452011
4 FrameStrobe_O[2] FrameStrobe_O[3] 0
5 *100:8 *101:10 0.000288173
6 *100:8 *307:12 0
7 *100:8 *454:10 0
8 FrameStrobe_O[0] FrameStrobe_O[2] 0.000144985
9 FrameStrobe_O[1] FrameStrobe_O[2] 0
10 *99:10 *100:8 0
*RES
1 *1387:X *100:8 41.8334 
2 *100:8 FrameStrobe_O[2] 22.7604 
*END

*D_NET *101 0.00177131
*CONN
*P FrameStrobe_O[3] O
*I *1278:X O *D sg13g2_buf_1
*CAP
1 FrameStrobe_O[3] 0.000284948
2 *1278:X 0.000176901
3 *101:10 0.000461849
4 FrameStrobe_O[3] FrameStrobe_O[4] 0
5 *101:10 FrameStrobe_O[7] 4.75425e-05
6 *101:10 FrameStrobe_O[8] 4.75425e-05
7 *101:10 *103:10 0.000287757
8 *101:10 *454:10 0
9 FrameStrobe_O[2] FrameStrobe_O[3] 0
10 *99:10 FrameStrobe_O[3] 0.000176599
11 *100:8 *101:10 0.000288173
*RES
1 *1278:X *101:10 42.6471 
2 *101:10 FrameStrobe_O[3] 22.5441 
*END

*D_NET *102 0.00151317
*CONN
*P FrameStrobe_O[4] O
*I *1279:X O *D sg13g2_buf_1
*CAP
1 FrameStrobe_O[4] 0.00056393
2 *1279:X 0.00056393
3 FrameStrobe_O[4] FrameStrobe_O[5] 0
4 FrameStrobe_O[4] FrameStrobe_O[6] 0
5 FrameStrobe_O[4] *1386:A 0.000176369
6 FrameStrobe_O[4] *454:10 0
7 FrameStrobe_O[3] FrameStrobe_O[4] 0
8 *99:10 FrameStrobe_O[4] 0.00020894
*RES
1 *1279:X FrameStrobe_O[4] 25.2736 
*END

*D_NET *103 0.00152135
*CONN
*P FrameStrobe_O[5] O
*I *1280:X O *D sg13g2_buf_1
*CAP
1 FrameStrobe_O[5] 0.000282133
2 *1280:X 0.000234046
3 *103:10 0.000516178
4 FrameStrobe_O[5] FrameStrobe_O[6] 0
5 *103:10 FrameStrobe_O[9] 4.68833e-05
6 *103:10 *106:8 0
7 *103:10 *107:10 7.51285e-05
8 *103:10 *454:10 0
9 FrameStrobe_O[10] *103:10 7.9225e-05
10 FrameStrobe_O[4] FrameStrobe_O[5] 0
11 *101:10 *103:10 0.000287757
*RES
1 *1280:X *103:10 42.8634 
2 *103:10 FrameStrobe_O[5] 22.3278 
*END

*D_NET *104 0.0013719
*CONN
*P FrameStrobe_O[6] O
*I *1281:X O *D sg13g2_buf_1
*CAP
1 FrameStrobe_O[6] 0.000597414
2 *1281:X 0.000597414
3 FrameStrobe_O[6] FrameStrobe_O[7] 0
4 FrameStrobe_O[6] *1386:A 0
5 FrameStrobe_O[6] *1387:A 0.000177069
6 FrameStrobe_O[4] FrameStrobe_O[6] 0
7 FrameStrobe_O[5] FrameStrobe_O[6] 0
*RES
1 *1281:X FrameStrobe_O[6] 25.2736 
*END

*D_NET *105 0.0021325
*CONN
*P FrameStrobe_O[7] O
*I *1282:X O *D sg13g2_buf_1
*CAP
1 FrameStrobe_O[7] 0.000424499
2 *1282:X 9.28535e-05
3 *105:8 0.000517353
4 FrameStrobe_O[7] FrameStrobe_O[8] 0
5 FrameStrobe_O[7] *1387:A 4.77425e-05
6 *105:8 *307:12 0.000501461
7 *105:8 *454:10 0.000501046
8 FrameStrobe_O[10] FrameStrobe_O[7] 0
9 FrameStrobe_O[6] FrameStrobe_O[7] 0
10 *101:10 FrameStrobe_O[7] 4.75425e-05
*RES
1 *1282:X *105:8 42.3278 
2 *105:8 FrameStrobe_O[7] 23.6256 
*END

*D_NET *106 0.0016804
*CONN
*P FrameStrobe_O[8] O
*I *1283:X O *D sg13g2_buf_1
*CAP
1 FrameStrobe_O[8] 0.000335286
2 *1283:X 0.00023095
3 *106:8 0.000566235
4 FrameStrobe_O[8] FrameStrobe_O[9] 0
5 *106:8 *107:10 0.000500388
6 *106:8 *454:10 0
7 FrameStrobe_O[7] FrameStrobe_O[8] 0
8 *101:10 FrameStrobe_O[8] 4.75425e-05
9 *103:10 *106:8 0
*RES
1 *1283:X *106:8 42.8222 
2 *106:8 FrameStrobe_O[8] 22.7604 
*END

*D_NET *107 0.00191846
*CONN
*P FrameStrobe_O[9] O
*I *1284:X O *D sg13g2_buf_1
*CAP
1 FrameStrobe_O[9] 0.000308131
2 *1284:X 0.00031613
3 *107:10 0.000624261
4 *107:10 *454:10 0
5 FrameStrobe_O[10] FrameStrobe_O[9] 0
6 FrameStrobe_O[15] *107:10 4.75425e-05
7 FrameStrobe_O[17] *107:10 0
8 FrameStrobe_O[8] FrameStrobe_O[9] 0
9 *90:10 *107:10 0
10 *103:10 FrameStrobe_O[9] 4.68833e-05
11 *103:10 *107:10 7.51285e-05
12 *106:8 *107:10 0.000500388
*RES
1 *1284:X *107:10 43.6359 
2 *107:10 FrameStrobe_O[9] 22.5441 
*END

*D_NET *108 0.00528009
*CONN
*P N1BEG[0] O
*I *1285:X O *D sg13g2_buf_1
*CAP
1 N1BEG[0] 0.000938164
2 *1285:X 0.000375073
3 *108:8 0.00131324
4 N1BEG[0] N1BEG[1] 0
5 N1BEG[0] N2BEG[2] 0
6 N1BEG[0] *1045:C 8.00842e-05
7 N1BEG[0] *112:28 2.19989e-05
8 N1BEG[0] *126:10 0
9 N1BEG[0] *237:37 0
10 N1BEG[0] *340:24 7.33225e-05
11 N1BEG[0] *364:18 0.00172493
12 N1BEG[0] *405:64 0.000240377
13 *108:8 *1297:A 0.000240377
14 *108:8 *120:12 0.000272528
15 *108:8 *364:10 0
*RES
1 *1285:X *108:8 43.5638 
2 *108:8 N1BEG[0] 31.2064 
*END

*D_NET *109 0.00737528
*CONN
*P N1BEG[1] O
*I *1286:X O *D sg13g2_buf_1
*CAP
1 N1BEG[1] 0.000443721
2 *1286:X 9.21055e-05
3 *109:14 0.00116071
4 *109:8 0.00080909
5 N1BEG[1] N1BEG[2] 0
6 N1BEG[1] N2BEG[3] 0.000287758
7 N1BEG[1] N2BEGb[3] 0.000503098
8 N1BEG[1] *1045:C 0
9 *109:8 *310:14 0
10 *109:8 *315:16 0
11 *109:14 N2BEG[2] 0
12 *109:14 N2BEG[7] 0.00172236
13 *109:14 *1043:B_N 0
14 *109:14 *1115:GATE 0.000207845
15 *109:14 *237:29 0
16 *109:14 *371:18 0.0021486
17 N1BEG[0] N1BEG[1] 0
*RES
1 *1286:X *109:8 40.7519 
2 *109:8 *109:14 32.257 
3 *109:14 N1BEG[1] 44.6556 
*END

*D_NET *110 0.00625989
*CONN
*P N1BEG[2] O
*I *1287:X O *D sg13g2_buf_1
*CAP
1 N1BEG[2] 0.00162204
2 *1287:X 2.41961e-05
3 *110:8 0.00164624
4 N1BEG[2] N1BEG[3] 1.54008e-05
5 N1BEG[2] *1041:S0 0
6 N1BEG[2] *1045:A 0.000149048
7 N1BEG[2] *1114:D 0.000675796
8 N1BEG[2] *234:34 0.000178734
9 N1BEG[2] *237:25 0.000127853
10 N1BEG[2] *237:37 8.00842e-05
11 N1BEG[2] *237:53 0.000210008
12 N1BEG[2] *272:8 7.33225e-05
13 N1BEG[2] *326:18 0
14 N1BEG[2] *363:12 0
15 N1BEG[2] *377:12 0
16 N1BEG[2] *401:40 0.00134474
17 N1BEG[2] *414:55 0.000112426
18 N1BEG[1] N1BEG[2] 0
*RES
1 *1287:X *110:8 40.3193 
2 *110:8 N1BEG[2] 37.2113 
*END

*D_NET *111 0.00597454
*CONN
*P N1BEG[3] O
*I *1288:X O *D sg13g2_buf_1
*CAP
1 N1BEG[3] 0.00152544
2 *1288:X 0.000285249
3 *111:10 0.00181069
4 N1BEG[3] N2BEG[0] 8.00842e-05
5 N1BEG[3] *1050:B 0.000240935
6 N1BEG[3] *1052:B_N 4.77425e-05
7 N1BEG[3] *1054:A2 2.20736e-05
8 N1BEG[3] *1055:B1 0.000112198
9 N1BEG[3] *1060:B1 0.000240377
10 N1BEG[3] *237:37 8.00842e-05
11 N1BEG[3] *278:10 0.000434199
12 *111:10 *313:16 0.000287256
13 *111:10 *330:26 0.000713587
14 *111:10 *375:16 6.38242e-05
15 *111:10 *375:24 1.54008e-05
16 *111:10 *451:14 0
17 N1BEG[2] N1BEG[3] 1.54008e-05
*RES
1 *1288:X *111:10 43.8522 
2 *111:10 N1BEG[3] 34.0745 
*END

*D_NET *112 0.00589118
*CONN
*P N2BEG[0] O
*I *1289:X O *D sg13g2_buf_1
*CAP
1 N2BEG[0] 0.000398105
2 *1289:X 0.00101709
3 *112:28 0.000996176
4 *112:16 0.00161516
5 N2BEG[0] N2BEG[1] 0
6 N2BEG[0] *414:70 1.54008e-05
7 *112:16 *1181:A 0.000112426
8 *112:16 *115:26 0.000143865
9 *112:16 *234:8 7.48178e-05
10 *112:16 *235:24 8.00842e-05
11 *112:16 *401:40 7.33225e-05
12 *112:16 *410:40 0.000208035
13 *112:28 *178:25 0
14 *112:28 *237:37 0.000336709
15 *112:28 *364:18 0.00012816
16 *112:28 *401:40 0.000211071
17 *112:28 *405:18 0
18 *112:28 *410:64 0.000305351
19 *112:28 *414:70 7.33256e-05
20 N1BEG[0] *112:28 2.19989e-05
21 N1BEG[3] N2BEG[0] 8.00842e-05
*RES
1 *1289:X *112:16 48.6085 
2 *112:16 *112:28 46.4993 
3 *112:28 N2BEG[0] 23.193 
*END

*D_NET *113 0.00493551
*CONN
*P N2BEG[1] O
*I *1290:X O *D sg13g2_buf_1
*CAP
1 N2BEG[1] 0.000304469
2 *1290:X 0
3 *113:10 0.00202595
4 *113:6 0.00172148
5 N2BEG[1] N2BEG[2] 0
6 *113:10 *274:18 0.000883609
7 *113:10 *396:18 0
8 *113:10 *401:30 0
9 *113:10 *405:64 0
10 *113:10 *414:70 0
11 N2BEG[0] N2BEG[1] 0
*RES
1 *1290:X *113:6 40 
2 *113:6 *113:10 34.1625 
3 *113:10 N2BEG[1] 42.3278 
*END

*D_NET *114 0.00606007
*CONN
*P N2BEG[2] O
*I *1291:X O *D sg13g2_buf_1
*CAP
1 N2BEG[2] 0.00152764
2 *1291:X 0
3 *114:6 0.00152764
4 N2BEG[2] N2BEG[3] 0
5 N2BEG[2] N2BEG[7] 0
6 N2BEG[2] *126:10 0.000178707
7 N2BEG[2] *237:37 0.000549896
8 N2BEG[2] *270:16 8.00842e-05
9 N2BEG[2] *274:10 4.76977e-05
10 N2BEG[2] *333:28 0
11 N2BEG[2] *334:14 0.00214841
12 N2BEG[2] *364:18 0
13 N2BEG[2] *414:70 0
14 N1BEG[0] N2BEG[2] 0
15 N2BEG[1] N2BEG[2] 0
16 *109:14 N2BEG[2] 0
*RES
1 *1291:X *114:6 40 
2 *114:6 N2BEG[2] 37.5471 
*END

*D_NET *115 0.00759948
*CONN
*P N2BEG[3] O
*I *1292:X O *D sg13g2_buf_1
*CAP
1 N2BEG[3] 0.000721425
2 *1292:X 0.000449393
3 *115:26 0.00196887
4 *115:10 0.00169684
5 N2BEG[3] N2BEG[4] 0
6 N2BEG[3] N2BEGb[3] 0
7 N2BEG[3] *1045:C 0.000234224
8 N2BEG[3] *270:8 0.000441617
9 N2BEG[3] *364:18 0
10 *115:10 *320:20 0.000501045
11 *115:10 *330:26 0.000500629
12 *115:26 *1043:B_N 8.00842e-05
13 *115:26 *1058:B 0.000111894
14 *115:26 *1145:A 1.54008e-05
15 *115:26 *1148:A 4.77425e-05
16 *115:26 *1181:A 4.77425e-05
17 *115:26 *139:8 4.77425e-05
18 *115:26 *234:19 0
19 *115:26 *237:29 0.000272718
20 *115:26 *315:8 1.54008e-05
21 *115:26 *375:16 0
22 *115:26 *378:22 1.51e-05
23 N1BEG[1] N2BEG[3] 0.000287758
24 N2BEG[2] N2BEG[3] 0
25 *112:16 *115:26 0.000143865
*RES
1 *1292:X *115:10 45.2427 
2 *115:10 *115:26 31.3156 
3 *115:26 N2BEG[3] 46.8495 
*END

*D_NET *116 0.0062436
*CONN
*P N2BEG[4] O
*I *1293:X O *D sg13g2_buf_1
*CAP
1 N2BEG[4] 0.000611848
2 *1293:X 0.000776494
3 *116:18 0.00119431
4 *116:10 0.00135895
5 N2BEG[4] N2BEG[5] 4.77702e-05
6 N2BEG[4] *1049:A2 0
7 *116:10 *1055:A1 0.000232707
8 *116:10 *1185:A 0.000181192
9 *116:10 *180:13 0.00011216
10 *116:10 *236:18 0.00043888
11 *116:10 *317:8 0.00034162
12 *116:10 *322:8 0
13 *116:10 *351:14 0
14 *116:10 *375:16 0
15 *116:10 *405:38 0
16 *116:10 *410:48 0.000874342
17 *116:18 N2BEG[7] 7.33256e-05
18 *116:18 *1041:S0 0
19 *116:18 *392:34 0
20 *116:18 *396:18 0
21 *116:18 *401:30 0
22 N2BEG[3] N2BEG[4] 0
*RES
1 *1293:X *116:10 49.2597 
2 *116:10 *116:18 44.9955 
3 *116:18 N2BEG[4] 24.944 
*END

*D_NET *117 0.00575996
*CONN
*P N2BEG[5] O
*I *1294:X O *D sg13g2_buf_1
*CAP
1 N2BEG[5] 0.00199505
2 *1294:X 0.00199505
3 N2BEG[5] N2BEG[6] 0
4 N2BEG[5] N2BEG[7] 0
5 N2BEG[5] *1059:A2 0.000659207
6 N2BEG[5] *121:10 0
7 N2BEG[5] *130:8 0
8 N2BEG[5] *135:14 0
9 N2BEG[5] *142:12 0
10 N2BEG[5] *235:8 0.000112426
11 N2BEG[5] *236:12 2.20736e-05
12 N2BEG[5] *281:16 0.000159983
13 N2BEG[5] *374:37 1.54008e-05
14 N2BEG[5] *374:52 0.000144542
15 N2BEG[5] *388:40 0
16 N2BEG[5] *397:24 0.000257272
17 N2BEG[5] *397:34 0.000207845
18 N2BEG[5] *418:12 0
19 N2BEG[5] *426:8 0.000143351
20 N2BEG[5] *451:14 0
21 N2BEG[4] N2BEG[5] 4.77702e-05
*RES
1 *1294:X N2BEG[5] 38.6945 
*END

*D_NET *118 0.00598523
*CONN
*P N2BEG[6] O
*I *1295:X O *D sg13g2_buf_1
*CAP
1 N2BEG[6] 0.00073332
2 *1295:X 0.000691995
3 *118:8 0.00142532
4 N2BEG[6] N2BEG[7] 0
5 N2BEG[6] N2BEGb[6] 0.00236513
6 *118:8 *1303:A 0.000240377
7 *118:8 *126:10 0.000208035
8 *118:8 *126:16 0
9 *118:8 *137:8 0.000273536
10 *118:8 *269:12 4.75151e-05
11 N2BEG[5] N2BEG[6] 0
*RES
1 *1295:X *118:8 46.3757 
2 *118:8 N2BEG[6] 31.3609 
*END

*D_NET *119 0.00829024
*CONN
*P N2BEG[7] O
*I *1296:X O *D sg13g2_buf_1
*CAP
1 N2BEG[7] 0.00157765
2 *1296:X 4.5984e-05
3 *119:8 0.00162363
4 N2BEG[7] N2BEGb[0] 0
5 N2BEG[7] *1041:S0 0
6 N2BEG[7] *130:8 7.94445e-05
7 N2BEG[7] *142:12 0.000273936
8 N2BEG[7] *274:10 0
9 N2BEG[7] *334:14 0.00273478
10 N2BEG[7] *371:18 0
11 N2BEG[7] *396:18 0
12 *119:8 *1296:A 7.99019e-05
13 *119:8 *1300:A 7.92265e-05
14 N2BEG[2] N2BEG[7] 0
15 N2BEG[5] N2BEG[7] 0
16 N2BEG[6] N2BEG[7] 0
17 *109:14 N2BEG[7] 0.00172236
18 *116:18 N2BEG[7] 7.33256e-05
*RES
1 *1296:X *119:8 40.5356 
2 *119:8 N2BEG[7] 39.6627 
*END

*D_NET *120 0.00844571
*CONN
*P N2BEGb[0] O
*I *1297:X O *D sg13g2_buf_1
*CAP
1 N2BEGb[0] 0.000723604
2 *1297:X 0.000384762
3 *120:12 0.00110837
4 N2BEGb[0] N2BEGb[5] 0
5 N2BEGb[0] N4BEG[0] 0.00273627
6 N2BEGb[0] N4BEG[3] 0.00252414
7 N2BEGb[0] *131:10 0.000144768
8 N2BEGb[0] *142:12 0.000144768
9 *120:12 *125:8 0.000144142
10 *120:12 *128:8 0
11 *120:12 *331:24 0.000262362
12 N2BEG[7] N2BEGb[0] 0
13 *108:8 *120:12 0.000272528
*RES
1 *1297:X *120:12 44.2333 
2 *120:12 N2BEGb[0] 34.6981 
*END

*D_NET *121 0.00701763
*CONN
*P N2BEGb[1] O
*I *1298:X O *D sg13g2_buf_1
*CAP
1 N2BEGb[1] 0.00144934
2 *1298:X 0.000582478
3 *121:10 0.00203182
4 N2BEGb[1] N2BEGb[2] 0.000870412
5 N2BEGb[1] *1041:A3 4.77425e-05
6 N2BEGb[1] *1116:D 3.15993e-05
7 N2BEGb[1] *1133:A 8.00842e-05
8 N2BEGb[1] *131:10 0.000369936
9 N2BEGb[1] *132:16 4.76082e-05
10 N2BEGb[1] *142:12 0
11 N2BEGb[1] *234:59 8.01118e-05
12 N2BEGb[1] *335:34 0.00014391
13 N2BEGb[1] *440:14 0.000175693
14 *121:10 *1312:A 8.00842e-05
15 *121:10 *321:16 0.000500166
16 *121:10 *407:39 0.000287776
17 *121:10 *427:8 0.000143351
18 *121:10 *451:14 4.77702e-05
19 *121:10 *451:22 4.77425e-05
20 N2BEG[5] *121:10 0
*RES
1 *1298:X *121:10 46.1079 
2 *121:10 N2BEGb[1] 34.0698 
*END

*D_NET *122 0.00656156
*CONN
*P N2BEGb[2] O
*I *1299:X O *D sg13g2_buf_1
*CAP
1 N2BEGb[2] 0.00199323
2 *1299:X 0.00199323
3 N2BEGb[2] *1037:A 0.000207922
4 N2BEGb[2] *1042:B 0.000564023
5 N2BEGb[2] *132:16 4.75166e-05
6 N2BEGb[2] *133:8 0
7 N2BEGb[2] *141:22 0.000692719
8 N2BEGb[2] *336:48 8.00842e-05
9 N2BEGb[2] *440:22 0.000112426
10 N2BEGb[1] N2BEGb[2] 0.000870412
*RES
1 *1299:X N2BEGb[2] 39.6318 
*END

*D_NET *123 0.00718041
*CONN
*P N2BEGb[3] O
*I *1300:X O *D sg13g2_buf_1
*CAP
1 N2BEGb[3] 0.00133922
2 *1300:X 8.54266e-05
3 *123:8 0.00142464
4 N2BEGb[3] N2BEGb[5] 0.00327449
5 N2BEGb[3] N4BEG[11] 0.000553538
6 N2BEGb[3] *1045:C 0
7 N2BEGb[3] *364:18 0
8 *123:8 *125:8 0
9 N1BEG[1] N2BEGb[3] 0.000503098
10 N2BEG[3] N2BEGb[3] 0
*RES
1 *1300:X *123:8 40.7519 
2 *123:8 N2BEGb[3] 38.2825 
*END

*D_NET *124 0.00984109
*CONN
*P N2BEGb[4] O
*I *1301:X O *D sg13g2_buf_1
*CAP
1 N2BEGb[4] 0.000547532
2 *1301:X 4.7542e-05
3 *124:14 0.00161132
4 *124:8 0.00111133
5 N2BEGb[4] N2BEGb[5] 0.000177109
6 N2BEGb[4] N2BEGb[7] 0
7 N2BEGb[4] N4BEG[7] 0.000125175
8 N2BEGb[4] *133:8 0.000240569
9 N2BEGb[4] *335:34 0.000125261
10 N2BEGb[4] *336:48 0.00011101
11 *124:8 *334:8 7.92265e-05
12 *124:8 *401:48 7.92265e-05
13 *124:14 *1041:S1 0.00157945
14 *124:14 *141:22 0.000273165
15 *124:14 *238:12 0.000388934
16 *124:14 *278:10 0.000124859
17 *124:14 *309:16 0
18 *124:14 *336:48 0.000176997
19 *124:14 *352:12 0.0017648
20 *124:14 *377:12 0.000337302
21 *124:14 *383:61 0.000549119
22 *124:14 *383:71 0.000391177
23 *124:14 *401:40 0
*RES
1 *1301:X *124:8 40.5356 
2 *124:8 *124:14 36.274 
3 *124:14 N2BEGb[4] 45.5414 
*END

*D_NET *125 0.00730835
*CONN
*P N2BEGb[5] O
*I *1302:X O *D sg13g2_buf_1
*CAP
1 N2BEGb[5] 0.00155564
2 *1302:X 9.46667e-05
3 *125:8 0.00165031
4 N2BEGb[5] N4BEG[0] 0
5 N2BEGb[5] N4BEG[11] 0
6 N2BEGb[5] *392:20 0.000126552
7 N2BEGb[5] *405:64 0.00028545
8 N2BEGb[0] N2BEGb[5] 0
9 N2BEGb[3] N2BEGb[5] 0.00327449
10 N2BEGb[4] N2BEGb[5] 0.000177109
11 *120:12 *125:8 0.000144142
12 *123:8 *125:8 0
*RES
1 *1302:X *125:8 40.9682 
2 *125:8 N2BEGb[5] 38.0662 
*END

*D_NET *126 0.00781645
*CONN
*P N2BEGb[6] O
*I *1303:X O *D sg13g2_buf_1
*CAP
1 N2BEGb[6] 0.00144966
2 *1303:X 0.000188266
3 *126:16 0.00179621
4 *126:10 0.000534812
5 N2BEGb[6] N4BEG[12] 0.000605447
6 N2BEGb[6] N4BEG[3] 0
7 *126:10 *269:12 0.000208035
8 *126:10 *340:24 7.33225e-05
9 *126:16 *128:8 0.000208825
10 *126:16 *331:24 0
11 N1BEG[0] *126:10 0
12 N2BEG[2] *126:10 0.000178707
13 N2BEG[6] N2BEGb[6] 0.00236513
14 *118:8 *126:10 0.000208035
15 *118:8 *126:16 0
*RES
1 *1303:X *126:10 42.2454 
2 *126:10 *126:16 43.1312 
3 *126:16 N2BEGb[6] 36.0268 
*END

*D_NET *127 0.00646549
*CONN
*P N2BEGb[7] O
*I *1304:X O *D sg13g2_buf_1
*CAP
1 N2BEGb[7] 0.00258459
2 *1304:X 0.00258459
3 N2BEGb[7] N4BEG[0] 0
4 N2BEGb[7] N4BEG[1] 0
5 N2BEGb[7] *1040:A 1.53561e-05
6 N2BEGb[7] *1042:B 0
7 N2BEGb[7] *1098:D 0
8 N2BEGb[7] *1103:GATE 4.75525e-05
9 N2BEGb[7] *1104:GATE 1.54008e-05
10 N2BEGb[7] *1116:GATE 0
11 N2BEGb[7] *1216:A 0
12 N2BEGb[7] *1304:A 7.94445e-05
13 N2BEGb[7] *129:10 0
14 N2BEGb[7] *226:16 0
15 N2BEGb[7] *266:10 4.77425e-05
16 N2BEGb[7] *316:10 0
17 N2BEGb[7] *332:14 0.000208067
18 N2BEGb[7] *336:48 0
19 N2BEGb[7] *337:20 0
20 N2BEGb[7] *350:8 0
21 N2BEGb[7] *356:24 0.000208035
22 N2BEGb[7] *374:16 0.000192634
23 N2BEGb[7] *406:46 0.000242186
24 N2BEGb[7] *407:39 0
25 N2BEGb[7] *422:10 0.000239882
26 N2BEGb[4] N2BEGb[7] 0
*RES
1 *1304:X N2BEGb[7] 43.5355 
*END

*D_NET *128 0.00722394
*CONN
*P N4BEG[0] O
*I *1305:X O *D sg13g2_buf_1
*CAP
1 N4BEG[0] 0.0016367
2 *1305:X 0.000136402
3 *128:8 0.00177311
4 N4BEG[0] N4BEG[14] 0.000447182
5 N4BEG[0] N4BEG[1] 0
6 N4BEG[0] *392:20 0
7 N4BEG[0] *405:64 0.00028545
8 N2BEGb[0] N4BEG[0] 0.00273627
9 N2BEGb[5] N4BEG[0] 0
10 N2BEGb[7] N4BEG[0] 0
11 *120:12 *128:8 0
12 *126:16 *128:8 0.000208825
*RES
1 *1305:X *128:8 41.4008 
2 *128:8 N4BEG[0] 38.128 
*END

*D_NET *129 0.00569614
*CONN
*P N4BEG[10] O
*I *1306:X O *D sg13g2_buf_1
*CAP
1 N4BEG[10] 0.000942517
2 *1306:X 0.000368672
3 *129:10 0.00131119
4 N4BEG[10] N4BEG[11] 0
5 N4BEG[10] N4BEG[9] 0.000112541
6 N4BEG[10] *143:16 0
7 N4BEG[10] *144:10 8.00842e-05
8 N4BEG[10] *145:10 0.000175809
9 N4BEG[10] *361:12 0.000240448
10 N4BEG[10] *380:24 0.000304493
11 N4BEG[10] *383:34 0.000272718
12 *129:10 N4BEG[2] 7.50241e-05
13 *129:10 *1098:D 7.9225e-05
14 *129:10 *336:48 0.00107731
15 *129:10 *362:18 0.000656111
16 *129:10 *410:34 0
17 N2BEGb[7] *129:10 0
*RES
1 *1306:X *129:10 45.5826 
2 *129:10 N4BEG[10] 29.5509 
*END

*D_NET *130 0.00539494
*CONN
*P N4BEG[11] O
*I *1307:X O *D sg13g2_buf_1
*CAP
1 N4BEG[11] 0.000921957
2 *1307:X 5.741e-05
3 *130:8 0.000979367
4 N4BEG[11] N4BEG[12] 0
5 N4BEG[11] *134:8 0
6 N4BEG[11] *151:10 0.00118788
7 N4BEG[11] *388:28 0
8 N4BEG[11] *392:20 0.00161534
9 N2BEG[5] *130:8 0
10 N2BEG[7] *130:8 7.94445e-05
11 N2BEGb[3] N4BEG[11] 0.000553538
12 N2BEGb[5] N4BEG[11] 0
13 N4BEG[10] N4BEG[11] 0
*RES
1 *1307:X *130:8 40.5356 
2 *130:8 N4BEG[11] 32.8132 
*END

*D_NET *131 0.00546161
*CONN
*P N4BEG[12] O
*I *1308:X O *D sg13g2_buf_1
*CAP
1 N4BEG[12] 0.000599992
2 *1308:X 0.000274957
3 *131:10 0.000874949
4 N4BEG[12] N4BEG[13] 0
5 N4BEG[12] N4BEG[3] 0
6 N4BEG[12] N4BEG[8] 0.00166659
7 N4BEG[12] NN4BEG[7] 0.000924972
8 *131:10 *1056:S 0
9 *131:10 *142:12 0
10 N2BEGb[0] *131:10 0.000144768
11 N2BEGb[1] *131:10 0.000369936
12 N2BEGb[6] N4BEG[12] 0.000605447
13 N4BEG[11] N4BEG[12] 0
*RES
1 *1308:X *131:10 42.8325 
2 *131:10 N4BEG[12] 30.1249 
*END

*D_NET *132 0.00534574
*CONN
*P N4BEG[13] O
*I *1309:X O *D sg13g2_buf_1
*CAP
1 N4BEG[13] 0.000643265
2 *1309:X 0.000666745
3 *132:16 0.00131001
4 N4BEG[13] N4BEG[14] 0
5 N4BEG[13] *152:10 0
6 N4BEG[13] *351:28 0
7 N4BEG[13] *383:34 0.000286638
8 *132:16 N4BEG[7] 0.00139774
9 *132:16 *143:16 2.20966e-05
10 *132:16 *152:10 0.000178206
11 *132:16 *383:34 8.85668e-05
12 *132:16 *401:22 0.000657349
13 N2BEGb[1] *132:16 4.76082e-05
14 N2BEGb[2] *132:16 4.75166e-05
15 N4BEG[12] N4BEG[13] 0
*RES
1 *1309:X *132:16 49.0743 
2 *132:16 N4BEG[13] 25.8504 
*END

*D_NET *133 0.00428679
*CONN
*P N4BEG[14] O
*I *1310:X O *D sg13g2_buf_1
*CAP
1 N4BEG[14] 0.000891986
2 *1310:X 0.000170904
3 *133:8 0.00106289
4 N4BEG[14] N4BEG[15] 0
5 N4BEG[14] N4BEG[3] 0.000765374
6 N4BEG[14] NN4BEG[4] 0
7 N4BEG[14] *159:10 0.000660142
8 N4BEG[14] *384:18 4.77425e-05
9 N4BEG[14] *392:20 0
10 N2BEGb[2] *133:8 0
11 N2BEGb[4] *133:8 0.000240569
12 N4BEG[0] N4BEG[14] 0.000447182
13 N4BEG[13] N4BEG[14] 0
*RES
1 *1310:X *133:8 41.6171 
2 *133:8 N4BEG[14] 30.2485 
*END

*D_NET *134 0.00524791
*CONN
*P N4BEG[15] O
*I *1311:X O *D sg13g2_buf_1
*CAP
1 N4BEG[15] 0.00029398
2 *1311:X 0.000401901
3 *134:8 0.000695881
4 N4BEG[15] NN4BEG[0] 0
5 N4BEG[15] *384:18 0.000272718
6 N4BEG[15] *392:14 0.000144542
7 *134:8 *151:10 0.00161246
8 *134:8 *388:28 0.00182643
9 N4BEG[11] *134:8 0
10 N4BEG[14] N4BEG[15] 0
*RES
1 *1311:X *134:8 48.5078 
2 *134:8 N4BEG[15] 22.7604 
*END

*D_NET *135 0.00640694
*CONN
*P N4BEG[1] O
*I *1312:X O *D sg13g2_buf_1
*CAP
1 N4BEG[1] 0.00170392
2 *1312:X 0.000793707
3 *135:14 0.00249763
4 N4BEG[1] N4BEG[2] 0
5 N4BEG[1] *1057:A0 0
6 N4BEG[1] *1098:D 0.00030506
7 N4BEG[1] *1185:A 0
8 N4BEG[1] *234:59 0
9 N4BEG[1] *262:8 0.00054686
10 N4BEG[1] *351:14 0
11 N4BEG[1] *359:28 8.00842e-05
12 N4BEG[1] *410:34 0
13 N4BEG[1] *418:47 0
14 *135:14 *1130:A 0
15 *135:14 *1312:A 4.77425e-05
16 *135:14 *142:12 0.000240264
17 *135:14 *281:16 0.000176279
18 *135:14 *407:39 1.54008e-05
19 *135:14 *440:14 0
20 *135:14 *451:14 0
21 N2BEG[5] *135:14 0
22 N2BEGb[7] N4BEG[1] 0
23 N4BEG[0] N4BEG[1] 0
*RES
1 *1312:X *135:14 46.6247 
2 *135:14 N4BEG[1] 34.5333 
*END

*D_NET *136 0.00613495
*CONN
*P N4BEG[2] O
*I *1313:X O *D sg13g2_buf_1
*CAP
1 N4BEG[2] 0.000977578
2 *1313:X 6.94725e-05
3 *136:12 0.00240784
4 *136:8 0.00149974
5 N4BEG[2] N4BEG[3] 0
6 N4BEG[2] *154:10 0.000402343
7 N4BEG[2] *359:28 8.00842e-05
8 N4BEG[2] *362:18 0
9 N4BEG[2] *410:34 7.33256e-05
10 *136:8 *367:16 0
11 *136:12 *138:14 0
12 *136:12 *225:12 0
13 *136:12 *225:22 0
14 *136:12 *253:14 0.000306906
15 *136:12 *333:12 0
16 *136:12 *350:12 0
17 *136:12 *379:26 0
18 *136:12 *424:14 0.000242629
19 N4BEG[1] N4BEG[2] 0
20 *68:11 *136:8 0
21 *129:10 N4BEG[2] 7.50241e-05
*RES
1 *1313:X *136:8 40.5974 
2 *136:8 *136:12 32.4321 
3 *136:12 N4BEG[2] 48.755 
*END

*D_NET *137 0.00741193
*CONN
*P N4BEG[3] O
*I *1314:X O *D sg13g2_buf_1
*CAP
1 N4BEG[3] 0.00163869
2 *1314:X 0.000176558
3 *137:8 0.00181525
4 N4BEG[3] NN4BEG[4] 7.51285e-05
5 N4BEG[3] *154:10 4.77425e-05
6 N4BEG[3] *157:10 8.00842e-05
7 *137:8 *269:12 1.54285e-05
8 N2BEGb[0] N4BEG[3] 0.00252414
9 N2BEGb[6] N4BEG[3] 0
10 N4BEG[12] N4BEG[3] 0
11 N4BEG[14] N4BEG[3] 0.000765374
12 N4BEG[2] N4BEG[3] 0
13 *118:8 *137:8 0.000273536
*RES
1 *1314:X *137:8 41.8334 
2 *137:8 N4BEG[3] 38.1898 
*END

*D_NET *138 0.00785478
*CONN
*P N4BEG[4] O
*I *1315:X O *D sg13g2_buf_1
*CAP
1 N4BEG[4] 0.000271604
2 *1315:X 0
3 *138:18 0.00143886
4 *138:14 0.0020849
5 *138:6 0.000917635
6 N4BEG[4] N4BEG[5] 0
7 N4BEG[4] *157:10 0.000209681
8 N4BEG[4] *392:20 0.000182121
9 *138:14 *1180:A 7.33256e-05
10 *138:14 *333:12 0
11 *138:14 *374:12 0.000177812
12 *138:14 *379:26 0.000495798
13 *138:18 N4BEG[5] 0.000175693
14 *138:18 N4BEG[6] 0.000240377
15 *138:18 *1097:A1 0.00020799
16 *138:18 *1132:A 0
17 *138:18 *1180:A 8.0039e-05
18 *138:18 *155:10 4.77425e-05
19 *138:18 *296:38 0
20 *138:18 *342:22 0.000272528
21 *138:18 *383:38 7.92265e-05
22 *138:18 *383:48 0.000433493
23 *138:18 *418:47 0.000465953
24 *138:18 *429:20 0
25 *136:12 *138:14 0
*RES
1 *1315:X *138:6 40 
2 *138:6 *138:14 47.8692 
3 *138:14 *138:18 31.5669 
4 *138:18 N4BEG[4] 42.7398 
*END

*D_NET *139 0.00846108
*CONN
*P N4BEG[5] O
*I *1316:X O *D sg13g2_buf_1
*CAP
1 N4BEG[5] 0.00170137
2 *1316:X 2.60565e-05
3 *139:8 0.00172743
4 N4BEG[5] N4BEG[6] 0
5 N4BEG[5] *152:10 7.9812e-05
6 N4BEG[5] *234:8 0
7 N4BEG[5] *296:40 0.000391933
8 N4BEG[5] *296:58 0.00106649
9 N4BEG[5] *296:92 0.000181297
10 N4BEG[5] *309:16 0.00206695
11 N4BEG[5] *350:22 0
12 N4BEG[5] *362:18 0
13 N4BEG[5] *383:38 6.42734e-05
14 N4BEG[5] *383:48 0.000111567
15 N4BEG[5] *383:61 0
16 N4BEG[5] *383:71 0
17 N4BEG[5] *401:30 0.000542144
18 N4BEG[5] *401:40 0.000230578
19 *139:8 *315:8 4.77425e-05
20 N4BEG[4] N4BEG[5] 0
21 *115:26 *139:8 4.77425e-05
22 *138:18 N4BEG[5] 0.000175693
*RES
1 *1316:X *139:8 40.3193 
2 *139:8 N4BEG[5] 40.2807 
*END

*D_NET *140 0.00718326
*CONN
*P N4BEG[6] O
*I *1317:X O *D sg13g2_buf_1
*CAP
1 N4BEG[6] 0.00238084
2 *1317:X 0.00238084
3 N4BEG[6] N4BEG[7] 0
4 N4BEG[6] *1083:A1 8.01642e-05
5 N4BEG[6] *1087:A2 0.000337779
6 N4BEG[6] *1092:B2 0
7 N4BEG[6] *1092:C1 7.99213e-05
8 N4BEG[6] *1094:S 0.000272528
9 N4BEG[6] *1097:S 0.000240187
10 N4BEG[6] *1336:A 1.54282e-05
11 N4BEG[6] *143:16 0
12 N4BEG[6] *155:10 4.77425e-05
13 N4BEG[6] *261:12 0
14 N4BEG[6] *296:109 0
15 N4BEG[6] *342:22 0.000273394
16 N4BEG[6] *379:32 0.000562187
17 N4BEG[6] *383:48 4.77425e-05
18 N4BEG[6] *418:47 0.000176396
19 N4BEG[6] *418:55 4.77425e-05
20 N4BEG[5] N4BEG[6] 0
21 *138:18 N4BEG[6] 0.000240377
*RES
1 *1317:X N4BEG[6] 42.5061 
*END

*D_NET *141 0.00804718
*CONN
*P N4BEG[7] O
*I *1318:X O *D sg13g2_buf_1
*CAP
1 N4BEG[7] 0.00102312
2 *1318:X 0.00036122
3 *141:22 0.00176148
4 *141:12 0.00109959
5 N4BEG[7] *1336:A 0.000166085
6 N4BEG[7] *143:16 7.92265e-05
7 N4BEG[7] *152:10 0.000443366
8 N4BEG[7] *159:10 0
9 N4BEG[7] *335:34 0
10 N4BEG[7] *356:24 0
11 *141:12 *1037:A 0
12 *141:12 *320:14 0
13 *141:12 *345:24 2.21831e-05
14 *141:12 *346:16 0
15 *141:12 *424:8 0.000232837
16 *141:12 *440:22 0
17 *141:22 *1037:A 0
18 *141:22 *266:10 0
19 *141:22 *336:48 0
20 *141:22 *418:32 0.000336907
21 *141:22 *418:47 3.23694e-05
22 N2BEGb[2] *141:22 0.000692719
23 N2BEGb[4] N4BEG[7] 0.000125175
24 N4BEG[6] N4BEG[7] 0
25 *124:14 *141:22 0.000273165
26 *132:16 N4BEG[7] 0.00139774
*RES
1 *1318:X *141:12 43.4917 
2 *141:12 *141:22 47.725 
3 *141:22 N4BEG[7] 31.7111 
*END

*D_NET *142 0.00694589
*CONN
*P N4BEG[8] O
*I *1319:X O *D sg13g2_buf_1
*CAP
1 N4BEG[8] 0.000632166
2 *1319:X 0.00112001
3 *142:12 0.00175217
4 *142:12 *1056:S 2.50263e-05
5 *142:12 *1057:A0 8.00842e-05
6 *142:12 *1057:A1 4.77425e-05
7 *142:12 *1130:A 0
8 *142:12 *234:59 0
9 *142:12 *281:16 0
10 *142:12 *334:14 0.0001122
11 *142:12 *388:36 0.000272673
12 *142:12 *388:40 0.000337402
13 *142:12 *388:44 0.000240862
14 N2BEG[5] *142:12 0
15 N2BEG[7] *142:12 0.000273936
16 N2BEGb[0] *142:12 0.000144768
17 N2BEGb[1] *142:12 0
18 N4BEG[12] N4BEG[8] 0.00166659
19 *131:10 *142:12 0
20 *135:14 *142:12 0.000240264
*RES
1 *1319:X *142:12 31.3197 
2 *142:12 N4BEG[8] 48.7447 
*END

*D_NET *143 0.00562581
*CONN
*P N4BEG[9] O
*I *1320:X O *D sg13g2_buf_1
*CAP
1 N4BEG[9] 0.000208484
2 *1320:X 0.000230016
3 *143:22 0.000433033
4 *143:16 0.00114791
5 *143:8 0.00115337
6 N4BEG[9] *159:10 0
7 *143:8 *321:16 0
8 *143:8 *347:14 0.000604547
9 *143:8 *374:12 0
10 *143:16 *1097:S 0
11 *143:16 *158:10 7.33225e-05
12 *143:16 *296:109 0.000241052
13 *143:16 *380:24 0.00094789
14 *143:16 *383:34 0.000294504
15 *143:22 *349:24 7.78179e-05
16 N4BEG[10] N4BEG[9] 0.000112541
17 N4BEG[10] *143:16 0
18 N4BEG[6] *143:16 0
19 N4BEG[7] *143:16 7.92265e-05
20 *132:16 *143:16 2.20966e-05
*RES
1 *1320:X *143:8 42.8222 
2 *143:8 *143:16 49.1052 
3 *143:16 *143:22 42.0497 
4 *143:22 N4BEG[9] 21.8952 
*END

*D_NET *144 0.00424904
*CONN
*P NN4BEG[0] O
*I *1321:X O *D sg13g2_buf_1
*CAP
1 NN4BEG[0] 0.000410295
2 *1321:X 0.000715439
3 *144:10 0.00112573
4 NN4BEG[0] NN4BEG[1] 0
5 NN4BEG[0] *392:14 0.000144542
6 *144:10 *1140:A 0
7 *144:10 *156:10 0.00030506
8 *144:10 *158:10 0.000606365
9 *144:10 *351:14 1.54008e-05
10 *144:10 *361:12 0.000240256
11 *144:10 *363:38 0
12 *144:10 *401:22 0.000605863
13 N4BEG[10] *144:10 8.00842e-05
14 N4BEG[15] NN4BEG[0] 0
*RES
1 *1321:X *144:10 48.1164 
2 *144:10 NN4BEG[0] 23.4093 
*END

*D_NET *145 0.00477292
*CONN
*P NN4BEG[10] O
*I *1322:X O *D sg13g2_buf_1
*CAP
1 NN4BEG[10] 0.000207976
2 *1322:X 0.000526533
3 *145:10 0.000734509
4 NN4BEG[10] NN4BEG[11] 0
5 NN4BEG[10] NN4BEG[9] 0
6 *145:10 *146:10 0.00151155
7 *145:10 *159:10 0.00161654
8 N4BEG[10] *145:10 0.000175809
*RES
1 *1322:X *145:10 49.1979 
2 *145:10 NN4BEG[10] 21.6789 
*END

*D_NET *146 0.00452732
*CONN
*P NN4BEG[11] O
*I *1323:X O *D sg13g2_buf_1
*CAP
1 NN4BEG[11] 0.0002035
2 *1323:X 0.000509726
3 *146:10 0.000713226
4 NN4BEG[11] *161:13 0.000209271
5 *146:10 *149:10 0.000985792
6 *146:10 *392:20 0.000394248
7 NN4BEG[10] NN4BEG[11] 0
8 *145:10 *146:10 0.00151155
*RES
1 *1323:X *146:10 48.4872 
2 *146:10 NN4BEG[11] 21.8952 
*END

*D_NET *147 0.00424801
*CONN
*P NN4BEG[12] O
*I *1324:X O *D sg13g2_buf_1
*CAP
1 NN4BEG[12] 0.000254805
2 *1324:X 0.000449302
3 *147:10 0.000704107
4 NN4BEG[12] NN4BEG[13] 0
5 NN4BEG[12] *161:13 0.000272985
6 *147:10 *149:10 0.00109159
7 *147:10 *150:10 0.000874517
8 *147:10 *151:10 0.000340288
9 *147:10 *384:18 7.9225e-05
10 *147:10 *392:20 0.000181192
*RES
1 *1324:X *147:10 47.5602 
2 *147:10 NN4BEG[12] 22.3278 
*END

*D_NET *148 0.00428936
*CONN
*P NN4BEG[13] O
*I *1325:X O *D sg13g2_buf_1
*CAP
1 NN4BEG[13] 0.000421709
2 *1325:X 0.000380185
3 *148:8 0.000801894
4 NN4BEG[13] NN4BEG[14] 0
5 NN4BEG[13] *162:13 0.000369974
6 NN4BEG[13] *381:14 1.54008e-05
7 *148:8 *158:10 0.000871603
8 *148:8 *327:10 7.51285e-05
9 *148:8 *388:22 0
10 *148:8 *397:16 0.00135347
11 NN4BEG[12] NN4BEG[13] 0
*RES
1 *1325:X *148:8 46.5302 
2 *148:8 NN4BEG[13] 23.8419 
*END

*D_NET *149 0.00369052
*CONN
*P NN4BEG[14] O
*I *1326:X O *D sg13g2_buf_1
*CAP
1 NN4BEG[14] 0.000237186
2 *1326:X 0.000425224
3 *149:10 0.00066241
4 NN4BEG[14] NN4BEG[15] 0
5 NN4BEG[14] *162:13 0.000177114
6 *149:10 NN4BEG[2] 0.000111202
7 *149:10 NN4BEG[3] 0
8 *149:10 *150:10 0
9 *149:10 *392:14 0
10 NN4BEG[13] NN4BEG[14] 0
11 *146:10 *149:10 0.000985792
12 *147:10 *149:10 0.00109159
*RES
1 *1326:X *149:10 46.7877 
2 *149:10 NN4BEG[14] 22.1115 
*END

*D_NET *150 0.00309556
*CONN
*P NN4BEG[15] O
*I *1327:X O *D sg13g2_buf_1
*CAP
1 NN4BEG[15] 0.000311356
2 *1327:X 0.000388437
3 *150:10 0.000699793
4 NN4BEG[15] *163:11 0
5 *150:10 NN4BEG[3] 0
6 *150:10 NN4BEG[5] 0
7 *150:10 *382:8 0.000821455
8 *150:10 *392:14 0
9 *150:10 *401:22 0
10 Co NN4BEG[15] 0
11 NN4BEG[14] NN4BEG[15] 0
12 *147:10 *150:10 0.000874517
13 *149:10 *150:10 0
*RES
1 *1327:X *150:10 45.8607 
2 *150:10 NN4BEG[15] 22.5441 
*END

*D_NET *151 0.00492284
*CONN
*P NN4BEG[1] O
*I *1328:X O *D sg13g2_buf_1
*CAP
1 NN4BEG[1] 0.000309121
2 *1328:X 0.000510305
3 *151:10 0.000819426
4 NN4BEG[1] NN4BEG[2] 0.000143351
5 *151:10 *388:28 0
6 *151:10 *392:20 0
7 N4BEG[11] *151:10 0.00118788
8 NN4BEG[0] NN4BEG[1] 0
9 *134:8 *151:10 0.00161246
10 *147:10 *151:10 0.000340288
*RES
1 *1328:X *151:10 48.8271 
2 *151:10 NN4BEG[1] 22.5441 
*END

*D_NET *152 0.00491936
*CONN
*P NN4BEG[2] O
*I *1329:X O *D sg13g2_buf_1
*CAP
1 NN4BEG[2] 0.000530764
2 *1329:X 0.000485717
3 *152:10 0.00101648
4 NN4BEG[2] NN4BEG[3] 0
5 NN4BEG[2] *354:34 0.000175693
6 *152:10 *156:10 0.000711598
7 *152:10 *356:24 0.000549119
8 *152:10 *360:12 0
9 *152:10 *362:18 4.76977e-05
10 *152:10 *383:34 0.000446352
11 N4BEG[13] *152:10 0
12 N4BEG[5] *152:10 7.9812e-05
13 N4BEG[7] *152:10 0.000443366
14 NN4BEG[1] NN4BEG[2] 0.000143351
15 *132:16 *152:10 0.000178206
16 *149:10 NN4BEG[2] 0.000111202
*RES
1 *1329:X *152:10 47.313 
2 *152:10 NN4BEG[2] 24.944 
*END

*D_NET *153 0.00404276
*CONN
*P NN4BEG[3] O
*I *1330:X O *D sg13g2_buf_1
*CAP
1 NN4BEG[3] 0.00144447
2 *1330:X 0.00144447
3 NN4BEG[3] NN4BEG[4] 0
4 NN4BEG[3] NN4BEG[5] 0
5 NN4BEG[3] *1062:A 1.54008e-05
6 NN4BEG[3] *1062:B_N 0.0001122
7 NN4BEG[3] *1108:GATE 0.000337136
8 NN4BEG[3] *285:10 0.00052977
9 NN4BEG[3] *355:26 0
10 NN4BEG[3] *355:38 0.00014391
11 NN4BEG[3] *385:23 0
12 NN4BEG[3] *385:30 0
13 NN4BEG[3] *388:22 1.54008e-05
14 NN4BEG[2] NN4BEG[3] 0
15 *149:10 NN4BEG[3] 0
16 *150:10 NN4BEG[3] 0
*RES
1 *1330:X NN4BEG[3] 33.4003 
*END

*D_NET *154 0.00518364
*CONN
*P NN4BEG[4] O
*I *1331:X O *D sg13g2_buf_1
*CAP
1 NN4BEG[4] 0.000744622
2 *1331:X 0.000354671
3 *154:10 0.00109929
4 NN4BEG[4] NN4BEG[5] 0
5 NN4BEG[4] NN4BEG[7] 0.00177381
6 NN4BEG[4] *384:18 0.000605949
7 *154:10 *157:10 0
8 *154:10 *362:18 8.00842e-05
9 N4BEG[14] NN4BEG[4] 0
10 N4BEG[2] *154:10 0.000402343
11 N4BEG[3] NN4BEG[4] 7.51285e-05
12 N4BEG[3] *154:10 4.77425e-05
13 NN4BEG[3] NN4BEG[4] 0
*RES
1 *1331:X *154:10 43.4814 
2 *154:10 NN4BEG[4] 29.5687 
*END

*D_NET *155 0.00545713
*CONN
*P NN4BEG[5] O
*I *1332:X O *D sg13g2_buf_1
*CAP
1 NN4BEG[5] 0.000587836
2 *1332:X 0.000374527
3 *155:10 0.000962363
4 NN4BEG[5] NN4BEG[6] 0
5 NN4BEG[5] *1066:S 0.00030506
6 *155:10 *222:8 0
7 *155:10 *293:10 0.000443782
8 *155:10 *360:12 0.00160833
9 *155:10 *397:20 0.00107975
10 N4BEG[6] *155:10 4.77425e-05
11 NN4BEG[3] NN4BEG[5] 0
12 NN4BEG[4] NN4BEG[5] 0
13 *138:18 *155:10 4.77425e-05
14 *150:10 NN4BEG[5] 0
*RES
1 *1332:X *155:10 47.8383 
2 *155:10 NN4BEG[5] 25.1397 
*END

*D_NET *156 0.00530184
*CONN
*P NN4BEG[6] O
*I *1333:X O *D sg13g2_buf_1
*CAP
1 NN4BEG[6] 0.000513568
2 *1333:X 0.000420067
3 *156:10 0.000933634
4 NN4BEG[6] NN4BEG[7] 0
5 NN4BEG[6] *1066:S 0.000240377
6 NN4BEG[6] *382:12 0
7 NN4BEG[6] *409:24 0.000272746
8 *156:10 *350:22 0.000272718
9 *156:10 *360:12 0.00118664
10 *156:10 *383:16 0.000445433
11 *156:10 *383:34 0
12 NN4BEG[5] NN4BEG[6] 0
13 *144:10 *156:10 0.00030506
14 *152:10 *156:10 0.000711598
*RES
1 *1333:X *156:10 47.5911 
2 *156:10 NN4BEG[6] 24.7071 
*END

*D_NET *157 0.0053322
*CONN
*P NN4BEG[7] O
*I *1334:X O *D sg13g2_buf_1
*CAP
1 NN4BEG[7] 0.000625696
2 *1334:X 0.000378379
3 *157:10 0.00100407
4 NN4BEG[7] NN4BEG[8] 0
5 NN4BEG[7] *384:18 0.000287758
6 *157:10 *362:18 4.77425e-05
7 N4BEG[12] NN4BEG[7] 0.000924972
8 N4BEG[3] *157:10 8.00842e-05
9 N4BEG[4] *157:10 0.000209681
10 NN4BEG[4] NN4BEG[7] 0.00177381
11 NN4BEG[6] NN4BEG[7] 0
12 *154:10 *157:10 0
*RES
1 *1334:X *157:10 43.4814 
2 *157:10 NN4BEG[7] 30.3412 
*END

*D_NET *158 0.00497719
*CONN
*P NN4BEG[8] O
*I *1335:X O *D sg13g2_buf_1
*CAP
1 NN4BEG[8] 0.000415533
2 *1335:X 0.00066316
3 *158:10 0.00107869
4 NN4BEG[8] NN4BEG[9] 0
5 NN4BEG[8] *380:14 4.77425e-05
6 NN4BEG[8] *395:35 8.00842e-05
7 *158:10 *349:32 7.44237e-05
8 *158:10 *383:34 0.000444965
9 *158:10 *388:22 0.000605613
10 *158:10 *401:22 1.56814e-05
11 NN4BEG[7] NN4BEG[8] 0
12 *143:16 *158:10 7.33225e-05
13 *144:10 *158:10 0.000606365
14 *148:8 *158:10 0.000871603
*RES
1 *1335:X *158:10 49.3215 
2 *158:10 NN4BEG[8] 22.9744 
*END

*D_NET *159 0.00487686
*CONN
*P NN4BEG[9] O
*I *1336:X O *D sg13g2_buf_1
*CAP
1 NN4BEG[9] 0.000182905
2 *1336:X 0.000601712
3 *159:10 0.000784617
4 *159:10 *392:14 0.00103095
5 *159:10 *392:20 0
6 N4BEG[14] *159:10 0.000660142
7 N4BEG[7] *159:10 0
8 N4BEG[9] *159:10 0
9 NN4BEG[10] NN4BEG[9] 0
10 NN4BEG[8] NN4BEG[9] 0
11 *145:10 *159:10 0.00161654
*RES
1 *1336:X *159:10 49.9086 
2 *159:10 NN4BEG[9] 21.4626 
*END

*D_NET *160 0.000586375
*CONN
*P RESET_top I
*I *1238:A I *D sg13g2_buf_2
*CAP
1 RESET_top 0.000293188
2 *1238:A 0.000293188
*RES
1 RESET_top *1238:A 23.1106 
*END

*D_NET *161 0.00220397
*CONN
*P S1END[0] I
*I *1239:A I *D sg13g2_buf_1
*CAP
1 S1END[0] 0.000558209
2 *1239:A 0
3 *161:13 0.000558209
4 *161:13 *162:13 0
5 *161:13 *384:18 0.000605298
6 Co *161:13 0
7 NN4BEG[11] *161:13 0.000209271
8 NN4BEG[12] *161:13 0.000272985
*RES
1 S1END[0] *161:13 46.3345 
2 *161:13 *1239:A 20 
*END

*D_NET *162 0.00246088
*CONN
*P S1END[1] I
*I *1240:A I *D sg13g2_buf_1
*CAP
1 S1END[1] 0.000448918
2 *1240:A 0
3 *162:13 0.000448918
4 *162:13 *163:11 0
5 *162:13 *384:18 0.000499668
6 *162:13 *388:14 1.54008e-05
7 *162:13 *392:14 0.000500888
8 NN4BEG[13] *162:13 0.000369974
9 NN4BEG[14] *162:13 0.000177114
10 *161:13 *162:13 0
*RES
1 S1END[1] *162:13 45.8401 
2 *162:13 *1240:A 20 
*END

*D_NET *163 0.00174832
*CONN
*P S1END[2] I
*I *1241:A I *D sg13g2_buf_1
*CAP
1 S1END[2] 0.000485674
2 *1241:A 0
3 *163:11 0.000485674
4 *163:11 *1252:A 1.54845e-05
5 *163:11 *164:13 0
6 *163:11 *327:10 7.49633e-05
7 *163:11 *401:22 0.000395604
8 *163:11 *410:22 0.00029092
9 NN4BEG[15] *163:11 0
10 *162:13 *163:11 0
*RES
1 S1END[2] *163:11 45.2427 
2 *163:11 *1241:A 20 
*END

*D_NET *164 0.00143319
*CONN
*P S1END[3] I
*I *1242:A I *D sg13g2_buf_1
*CAP
1 S1END[3] 0.000535078
2 *1242:A 0
3 *164:13 0.000535078
4 *164:13 *1252:A 0
5 *164:13 *401:22 7.56308e-05
6 *164:13 *409:18 0.000287399
7 *163:11 *164:13 0
*RES
1 S1END[3] *164:13 44.8513 
2 *164:13 *1242:A 20 
*END

*D_NET *165 0.00119096
*CONN
*P S2END[0] I
*I *1243:A I *D sg13g2_buf_1
*CAP
1 S2END[0] 0.000442437
2 *1243:A 0.000442437
3 *1243:A *166:13 0
4 *1243:A *180:7 0
5 *1243:A *384:8 0.000306081
*RES
1 S2END[0] *1243:A 24.2539 
*END

*D_NET *166 0.00167856
*CONN
*P S2END[1] I
*I *1244:A I *D sg13g2_buf_1
*CAP
1 S2END[1] 0.000493316
2 *1244:A 0
3 *166:13 0.000493316
4 *166:13 *1248:A 0.000273509
5 *166:13 *167:11 0
6 *166:13 *202:21 0.000273509
7 *166:13 *384:8 0.00014491
8 *166:13 *409:18 0
9 *1243:A *166:13 0
*RES
1 S2END[1] *166:13 44.8513 
2 *166:13 *1244:A 20 
*END

*D_NET *167 0.00168324
*CONN
*P S2END[2] I
*I *1245:A I *D sg13g2_buf_1
*CAP
1 S2END[2] 0.000503607
2 *1245:A 0
3 *167:11 0.000503607
4 *167:11 *168:13 0
5 *167:11 *202:21 0
6 *167:11 *384:8 0
7 *167:11 *387:12 0.000284859
8 *167:11 *388:14 0
9 *167:11 *410:22 0.000391165
10 *166:13 *167:11 0
*RES
1 S2END[2] *167:11 45.2427 
2 *167:11 *1245:A 20 
*END

*D_NET *168 0.00206225
*CONN
*P S2END[3] I
*I *1246:A I *D sg13g2_buf_1
*CAP
1 S2END[3] 0.000573378
2 *1246:A 0
3 *168:13 0.000573378
4 *168:13 *1248:A 0
5 *168:13 *170:13 0.000287256
6 *168:13 *172:11 0.000403106
7 *168:13 *181:13 0.00014491
8 *168:13 *202:21 8.02269e-05
9 *168:13 *392:14 0
10 *167:11 *168:13 0
*RES
1 S2END[3] *168:13 45.8401 
2 *168:13 *1246:A 20 
*END

*D_NET *169 0.00162525
*CONN
*P S2END[4] I
*I *1248:A I *D sg13g2_buf_1
*CAP
1 S2END[4] 0.000603487
2 *1248:A 0.000603487
3 *1248:A *1250:A 0
4 *1248:A *170:13 0
5 *1248:A *202:21 0.000144768
6 *1248:A *386:8 0
7 *166:13 *1248:A 0.000273509
8 *168:13 *1248:A 0
*RES
1 S2END[4] *1248:A 25.9843 
*END

*D_NET *170 0.00221666
*CONN
*P S2END[5] I
*I *1249:A I *D sg13g2_buf_1
*CAP
1 S2END[5] 0.00048945
2 *1249:A 0
3 *170:13 0.00048945
4 *170:13 *1250:A 0
5 *170:13 *1259:A 0.000370534
6 *170:13 *188:13 8.00842e-05
7 *170:13 *392:14 0.000499885
8 *1248:A *170:13 0
9 *168:13 *170:13 0.000287256
*RES
1 S2END[5] *170:13 45.8401 
2 *170:13 *1249:A 20 
*END

*D_NET *171 0.00140211
*CONN
*P S2END[6] I
*I *1250:A I *D sg13g2_buf_1
*CAP
1 S2END[6] 0.000645139
2 *1250:A 0.000645139
3 *1250:A *1259:A 0
4 *1250:A *172:11 0
5 *1250:A *388:8 0.000111828
6 *1248:A *1250:A 0
7 *170:13 *1250:A 0
*RES
1 S2END[6] *1250:A 25.9843 
*END

*D_NET *172 0.00199424
*CONN
*P S2END[7] I
*I *1251:A I *D sg13g2_buf_1
*CAP
1 S2END[7] 0.000544999
2 *1251:A 0
3 *172:11 0.000544999
4 *172:11 *181:13 0
5 *172:11 *182:15 0
6 *172:11 *359:10 0
7 *172:11 *410:22 0.000501132
8 *1250:A *172:11 0
9 *168:13 *172:11 0.000403106
*RES
1 S2END[7] *172:11 45.7371 
2 *172:11 *1251:A 20 
*END

*D_NET *173 0.00101601
*CONN
*P S2MID[0] I
*I *1252:A I *D sg13g2_buf_1
*CAP
1 S2MID[0] 0.000500263
2 *1252:A 0.000500263
3 *1252:A *1211:A 0
4 *1252:A *1253:A 0
5 *1252:A *394:10 0
6 *163:11 *1252:A 1.54845e-05
7 *164:13 *1252:A 0
*RES
1 S2MID[0] *1252:A 24.2771 
*END

*D_NET *174 0.000920137
*CONN
*P S2MID[1] I
*I *1253:A I *D sg13g2_buf_1
*CAP
1 S2MID[1] 0.000460069
2 *1253:A 0.000460069
3 *1253:A *1254:A 0
4 *1253:A *394:10 0
5 *1252:A *1253:A 0
*RES
1 S2MID[1] *1253:A 23.7595 
*END

*D_NET *175 0.000928561
*CONN
*P S2MID[2] I
*I *1254:A I *D sg13g2_buf_1
*CAP
1 S2MID[2] 0.000464281
2 *1254:A 0.000464281
3 *1254:A *176:11 0
4 *1253:A *1254:A 0
*RES
1 S2MID[2] *1254:A 23.7595 
*END

*D_NET *176 0.00129736
*CONN
*P S2MID[3] I
*I *1255:A I *D sg13g2_buf_1
*CAP
1 S2MID[3] 0.000467236
2 *1255:A 0
3 *176:11 0.000467236
4 *176:11 *177:15 0
5 *176:11 *387:12 0.000181694
6 *176:11 *410:22 0.000181192
7 *1254:A *176:11 0
*RES
1 S2MID[3] *176:11 44.2539 
2 *176:11 *1255:A 20 
*END

*D_NET *177 0.0116799
*CONN
*P S2MID[4] I
*I *1176:A I *D sg13g2_buf_1
*CAP
1 S2MID[4] 0.00227713
2 *1176:A 0
3 *177:15 0.00227713
4 *177:15 *1212:A 0.000144542
5 *177:15 *178:13 0.0001118
6 *177:15 *336:48 0
7 *177:15 *345:12 0.000466143
8 *177:15 *348:10 0.00330208
9 *177:15 *351:14 0
10 *177:15 *351:28 0.000498411
11 *177:15 *362:8 0
12 *177:15 *383:48 0.000179389
13 *177:15 *418:47 0.000498098
14 *177:15 *442:20 0.00192519
15 *83:27 *177:15 0
16 *176:11 *177:15 0
*RES
1 S2MID[4] *177:15 48.9739 
2 *177:15 *1176:A 40 
*END

*D_NET *178 0.0133588
*CONN
*P S2MID[5] I
*I *1175:A I *D sg13g2_buf_1
*CAP
1 S2MID[5] 0.00105106
2 *1175:A 0
3 *178:29 0
4 *178:25 0.00170614
5 *178:19 0.00179132
6 *178:13 0.00113624
7 *178:13 *1196:A 0
8 *178:13 *179:11 0
9 *178:13 *216:27 0.000554164
10 *178:13 *231:44 0
11 *178:13 *293:10 7.30101e-05
12 *178:13 *360:12 0.00134726
13 *178:25 *343:14 0
14 *178:25 *352:16 0
15 *178:25 *414:14 0.0048759
16 *178:25 *414:22 0.000502972
17 *3:10 *178:13 0.00020894
18 *112:28 *178:25 0
19 *177:15 *178:13 0.0001118
*RES
1 S2MID[5] *178:13 31.8759 
2 *178:13 *178:19 40.5356 
3 *178:19 *178:25 45.3586 
4 *178:25 *178:29 40 
5 *178:29 *1175:A 20 
*END

*D_NET *179 0.0298593
*CONN
*P S2MID[6] I
*I *1174:A I *D sg13g2_buf_1
*CAP
1 S2MID[6] 0.0025362
2 *1174:A 0
3 *179:17 0.00183271
4 *179:13 0.00446045
5 *179:11 0.00516394
6 *179:11 *1199:A 0
7 *179:11 *180:7 0
8 *179:11 *336:10 0.000724484
9 *179:11 *345:12 0
10 *179:13 *331:10 0.0084109
11 *179:13 *427:10 0.00579579
12 *179:13 *439:10 0
13 *179:17 *313:8 0
14 *179:17 *314:6 0
15 *179:17 *341:18 0
16 *179:17 *373:12 0
17 *179:17 *375:10 0.000725917
18 *179:17 *376:10 0
19 *179:17 *378:8 0
20 *179:17 *396:8 0
21 *179:17 *448:8 0
22 *1127:A *179:17 0
23 *3:10 *179:11 0.00020894
24 *30:7 *179:13 0
25 *34:5 *179:13 0
26 *83:27 *179:11 0
27 *178:13 *179:11 0
*RES
1 S2MID[6] *179:11 42.6806 
2 *179:11 *179:13 49.7902 
3 *179:13 *179:17 37.1907 
4 *179:17 *1174:A 20 
*END

*D_NET *180 0.0250891
*CONN
*P S2MID[7] I
*I *1173:A I *D sg13g2_buf_1
*CAP
1 S2MID[7] 0.00247013
2 *1173:A 0.000332998
3 *180:17 0.00191634
4 *180:13 0.00308499
5 *180:9 0.00434392
6 *180:7 0.0053124
7 *1173:A *313:8 0
8 *1173:A *341:18 0
9 *1173:A *372:10 0
10 *1173:A *373:12 0
11 *180:7 *1210:A 0
12 *180:7 *370:12 0
13 *180:7 *386:8 0
14 *180:9 *331:10 0
15 *180:9 *339:12 0
16 *180:9 *344:24 0
17 *180:9 *367:16 0
18 *180:9 *426:10 0.00621538
19 *180:13 *1147:A 0
20 *180:13 *1293:A 4.76977e-05
21 *180:13 *1295:A 0
22 *180:13 *312:14 0
23 *180:13 *369:16 0
24 *180:13 *405:38 0
25 *180:17 *237:14 0.000181192
26 *180:17 *322:8 0
27 *180:17 *372:12 0
28 *180:17 *375:16 0
29 *180:17 *378:22 0.000655493
30 *180:17 *401:67 0.000179386
31 *180:17 *414:32 0.00023701
32 *1227:A *1173:A 0
33 *1243:A *180:7 0
34 *34:5 *180:9 0
35 *68:11 *180:9 0
36 *116:10 *180:13 0.00011216
37 *179:11 *180:7 0
*RES
1 S2MID[7] *180:7 41.3622 
2 *180:7 *180:9 36.4414 
3 *180:9 *180:13 33.5136 
4 *180:13 *180:17 36.171 
5 *180:17 *1173:A 42.9149 
*END

*D_NET *181 0.00230966
*CONN
*P S4END[0] I
*I *1256:A I *D sg13g2_buf_1
*CAP
1 S4END[0] 0.000552225
2 *1256:A 0
3 *181:13 0.000552225
4 *181:13 *1263:A 0.000272746
5 *181:13 *188:13 0.000499886
6 *181:13 *190:13 0.000287672
7 *181:13 *392:8 0
8 *181:13 *392:14 0
9 *181:13 *409:18 0
10 *168:13 *181:13 0.00014491
11 *172:11 *181:13 0
*RES
1 S4END[0] *181:13 46.3345 
2 *181:13 *1256:A 20 
*END

*D_NET *182 0.00291808
*CONN
*P S4END[10] I
*I *1194:A I *D sg13g2_buf_1
*CAP
1 S4END[10] 0.00103509
2 *1194:A 0
3 *182:15 0.00103509
4 *182:15 *1259:A 0.0001447
5 *182:15 *183:13 0
6 *182:15 *190:13 0.000240519
7 *182:15 *196:9 0
8 *182:15 *203:17 0.00044728
9 *182:15 *359:10 0
10 *182:15 *390:6 0
11 *182:15 *402:10 1.54008e-05
12 *182:15 *410:22 0
13 *172:11 *182:15 0
*RES
1 S4END[10] *182:15 49.8983 
2 *182:15 *1194:A 20 
*END

*D_NET *183 0.00204806
*CONN
*P S4END[11] I
*I *1193:A I *D sg13g2_buf_1
*CAP
1 S4END[11] 0.000661609
2 *1193:A 0
3 *183:13 0.000661609
4 *183:13 *184:15 0.000112198
5 *183:13 *191:13 0.000208178
6 *183:13 *204:13 0.000181192
7 *183:13 *205:19 0
8 *183:13 *402:10 0.00011107
9 *183:13 *403:8 0.000112198
10 *182:15 *183:13 0
*RES
1 S4END[11] *183:13 46.0873 
2 *183:13 *1193:A 20 
*END

*D_NET *184 0.00251563
*CONN
*P S4END[12] I
*I *1192:A I *D sg13g2_buf_1
*CAP
1 S4END[12] 0.000713296
2 *1192:A 0
3 *184:15 0.000713296
4 *184:15 *185:13 0
5 *184:15 *185:21 0.000181192
6 *184:15 *191:13 7.86681e-05
7 *184:15 *192:13 0.000144683
8 *184:15 *205:19 0.000391485
9 *184:15 *216:27 0.000180811
10 *184:15 *403:8 0
11 *183:13 *184:15 0.000112198
*RES
1 S4END[12] *184:15 46.8375 
2 *184:15 *1192:A 20 
*END

*D_NET *185 0.00279643
*CONN
*P S4END[13] I
*I *1191:A I *D sg13g2_buf_1
*CAP
1 S4END[13] 0.000745564
2 *1191:A 0
3 *185:21 0.000148639
4 *185:13 0.000894202
5 *185:13 *1206:A 4.77425e-05
6 *185:13 *186:11 0
7 *185:13 *192:13 0.000177114
8 *185:13 *194:13 0.00020815
9 *185:13 *211:21 0
10 *185:13 *406:10 0
11 *185:21 *205:19 0
12 *185:21 *216:27 0.000393823
13 *184:15 *185:13 0
14 *184:15 *185:21 0.000181192
*RES
1 S4END[13] *185:13 46.5508 
2 *185:13 *185:21 42.1527 
3 *185:21 *1191:A 20 
*END

*D_NET *186 0.00239273
*CONN
*P S4END[14] I
*I *1190:A I *D sg13g2_buf_1
*CAP
1 S4END[14] 0.000618564
2 *1190:A 0
3 *186:11 0.000618564
4 *186:11 *187:13 0
5 *186:11 *192:13 0.000370116
6 *186:11 *194:13 0
7 *186:11 *203:17 7.52158e-05
8 *186:11 *410:22 0.000710273
9 *185:13 *186:11 0
*RES
1 S4END[14] *186:11 46.7259 
2 *186:11 *1190:A 20 
*END

*D_NET *187 0.00325043
*CONN
*P S4END[15] I
*I *1189:A I *D sg13g2_buf_1
*CAP
1 S4END[15] 0.00100333
2 *1189:A 0
3 *187:13 0.00100333
4 *187:13 *1205:A 0.000175693
5 *187:13 *1265:A 0
6 *187:13 *194:13 7.52149e-05
7 *187:13 *202:9 0
8 *187:13 *208:17 0.000340789
9 *187:13 *209:13 0.000234224
10 *187:13 *211:21 0.000177217
11 *187:13 *212:13 0
12 *187:13 *213:15 0
13 *187:13 *348:8 0.000240634
14 *187:13 *409:18 0
15 *1151:A *187:13 0
16 *186:11 *187:13 0
*RES
1 S4END[15] *187:13 49.9807 
2 *187:13 *1189:A 20 
*END

*D_NET *188 0.0024267
*CONN
*P S4END[1] I
*I *1257:A I *D sg13g2_buf_1
*CAP
1 S4END[1] 0.000634903
2 *1257:A 0
3 *188:13 0.000634903
4 *188:13 *1259:A 0
5 *188:13 *1263:A 1.54282e-05
6 *188:13 *190:13 0
7 *188:13 *192:13 0
8 *188:13 *194:13 7.52149e-05
9 *188:13 *195:9 0.000305087
10 *188:13 *202:9 0
11 *188:13 *392:14 0.000181192
12 *170:13 *188:13 8.00842e-05
13 *181:13 *188:13 0.000499886
*RES
1 S4END[1] *188:13 46.8289 
2 *188:13 *1257:A 20 
*END

*D_NET *189 0.00196733
*CONN
*P S4END[2] I
*I *1259:A I *D sg13g2_buf_1
*CAP
1 S4END[2] 0.000605463
2 *1259:A 0.000605463
3 *1259:A *190:13 0
4 *1259:A *392:8 0.000241167
5 *1259:A *398:6 0
6 *1250:A *1259:A 0
7 *170:13 *1259:A 0.000370534
8 *182:15 *1259:A 0.0001447
9 *188:13 *1259:A 0
*RES
1 S4END[2] *1259:A 26.4375 
*END

*D_NET *190 0.002661
*CONN
*P S4END[3] I
*I *1260:A I *D sg13g2_buf_1
*CAP
1 S4END[3] 0.000586266
2 *1260:A 0
3 *190:13 0.000586266
4 *190:13 *191:13 0.000607304
5 *190:13 *196:9 0.000240519
6 *190:13 *392:8 0.000112453
7 *190:13 *409:18 0
8 *1259:A *190:13 0
9 *181:13 *190:13 0.000287672
10 *182:15 *190:13 0.000240519
11 *188:13 *190:13 0
*RES
1 S4END[3] *190:13 46.8289 
2 *190:13 *1260:A 20 
*END

*D_NET *191 0.00237804
*CONN
*P S4END[4] I
*I *1261:A I *D sg13g2_buf_1
*CAP
1 S4END[4] 0.000741943
2 *1261:A 0
3 *191:13 0.000741943
4 *191:13 *1263:A 0
5 *191:13 *192:13 0
6 *191:13 *392:8 0
7 *191:13 *409:18 0
8 *183:13 *191:13 0.000208178
9 *184:15 *191:13 7.86681e-05
10 *190:13 *191:13 0.000607304
*RES
1 S4END[4] *191:13 47.3233 
2 *191:13 *1261:A 20 
*END

*D_NET *192 0.00282457
*CONN
*P S4END[5] I
*I *1262:A I *D sg13g2_buf_1
*CAP
1 S4END[5] 0.000710572
2 *1262:A 0
3 *192:13 0.000710572
4 *192:13 *1263:A 0
5 *192:13 *194:13 0.000711511
6 *184:15 *192:13 0.000144683
7 *185:13 *192:13 0.000177114
8 *186:11 *192:13 0.000370116
9 *188:13 *192:13 0
10 *191:13 *192:13 0
*RES
1 S4END[5] *192:13 47.8177 
2 *192:13 *1262:A 20 
*END

*D_NET *193 0.00255391
*CONN
*P S4END[6] I
*I *1263:A I *D sg13g2_buf_1
*CAP
1 S4END[6] 0.000867478
2 *1263:A 0.000867478
3 *1263:A *194:13 0
4 *1263:A *195:9 0
5 *1263:A *358:10 0
6 *1263:A *399:10 0.000530778
7 *181:13 *1263:A 0.000272746
8 *188:13 *1263:A 1.54282e-05
9 *191:13 *1263:A 0
10 *192:13 *1263:A 0
*RES
1 S4END[6] *1263:A 28.3533 
*END

*D_NET *194 0.00275133
*CONN
*P S4END[7] I
*I *1264:A I *D sg13g2_buf_1
*CAP
1 S4END[7] 0.000671349
2 *1264:A 0
3 *194:13 0.000671349
4 *194:13 *1265:A 0.000338538
5 *194:13 *195:9 0
6 *194:13 *202:9 0
7 *1263:A *194:13 0
8 *185:13 *194:13 0.00020815
9 *186:11 *194:13 0
10 *187:13 *194:13 7.52149e-05
11 *188:13 *194:13 7.52149e-05
12 *192:13 *194:13 0.000711511
*RES
1 S4END[7] *194:13 47.8177 
2 *194:13 *1264:A 20 
*END

*D_NET *195 0.00574462
*CONN
*P S4END[8] I
*I *1196:A I *D sg13g2_buf_1
*CAP
1 S4END[8] 0.0011753
2 *1196:A 2.77984e-05
3 *195:9 0.0012031
4 *195:9 *1208:A 0.000144394
5 *195:9 *196:9 0
6 *195:9 *216:27 0.00199441
7 *195:9 *357:8 0.000606694
8 *195:9 *359:10 0
9 *195:9 *360:12 0.000287845
10 *195:9 *388:14 0
11 *1263:A *195:9 0
12 *178:13 *1196:A 0
13 *188:13 *195:9 0.000305087
14 *194:13 *195:9 0
*RES
1 S4END[8] *195:9 34.3891 
2 *195:9 *1196:A 40.3502 
*END

*D_NET *196 0.00648636
*CONN
*P S4END[9] I
*I *1195:A I *D sg13g2_buf_1
*CAP
1 S4END[9] 0.00167136
2 *1195:A 4.95643e-05
3 *196:9 0.00172093
4 *1195:A *394:10 8.01116e-05
5 *196:9 *1208:A 0.000143795
6 *196:9 *215:17 0
7 *196:9 *216:27 0.00258008
8 *196:9 *402:10 0
9 *196:9 *413:10 0
10 *182:15 *196:9 0
11 *190:13 *196:9 0.000240519
12 *195:9 *196:9 0
*RES
1 S4END[9] *196:9 37.5409 
2 *196:9 *1195:A 40.5356 
*END

*D_NET *197 0.000475626
*CONN
*P SLOT_top0 O
*I *1337:X O *D sg13g2_buf_1
*CAP
1 SLOT_top0 0.000237813
2 *1337:X 0.000237813
*RES
1 *1337:X SLOT_top0 22.678 
*END

*D_NET *198 0.000475626
*CONN
*P SLOT_top1 O
*I *1338:X O *D sg13g2_buf_1
*CAP
1 SLOT_top1 0.000237813
2 *1338:X 0.000237813
*RES
1 *1338:X SLOT_top1 22.678 
*END

*D_NET *199 0.000481639
*CONN
*P SLOT_top2 O
*I *1339:X O *D sg13g2_buf_1
*CAP
1 SLOT_top2 0.00024082
2 *1339:X 0.00024082
*RES
1 *1339:X SLOT_top2 22.678 
*END

*D_NET *200 0.000484225
*CONN
*P SLOT_top3 O
*I *1340:X O *D sg13g2_buf_1
*CAP
1 SLOT_top3 0.000242113
2 *1340:X 0.000242113
*RES
1 *1340:X SLOT_top3 22.678 
*END

*D_NET *201 0.00117383
*CONN
*P SS4END[0] I
*I *1265:A I *D sg13g2_buf_1
*CAP
1 SS4END[0] 0.000417644
2 *1265:A 0.000417644
3 *1265:A *208:17 0
4 *1265:A *209:13 0
5 *1265:A *210:13 0
6 *1265:A *211:21 0
7 *1265:A *406:10 0
8 *187:13 *1265:A 0
9 *194:13 *1265:A 0.000338538
*RES
1 SS4END[0] *1265:A 24.1571 
*END

*D_NET *202 0.0053454
*CONN
*P SS4END[10] I
*I *1210:A I *D sg13g2_buf_1
*CAP
1 SS4END[10] 0.00165718
2 *1210:A 0.000156182
3 *202:21 0.000641403
4 *202:9 0.0021424
5 *1210:A *386:8 0
6 *202:9 *203:17 0
7 *202:9 *208:17 0
8 *202:9 *216:15 0
9 *202:21 *386:8 1.54008e-05
10 *202:21 *387:12 0.000234329
11 *202:21 *388:14 0
12 *1248:A *202:21 0.000144768
13 *166:13 *202:21 0.000273509
14 *167:11 *202:21 0
15 *168:13 *202:21 8.02269e-05
16 *180:7 *1210:A 0
17 *187:13 *202:9 0
18 *188:13 *202:9 0
19 *194:13 *202:9 0
*RES
1 SS4END[10] *202:9 35.5633 
2 *202:9 *202:21 45.1088 
3 *202:21 *1210:A 41.4008 
*END

*D_NET *203 0.0060201
*CONN
*P SS4END[11] I
*I *1209:A I *D sg13g2_buf_1
*CAP
1 SS4END[11] 0.00113555
2 *1209:A 0.000118764
3 *203:17 0.00125432
4 *1209:A *398:6 0
5 *1209:A *399:10 0.000176178
6 *203:17 *204:13 0.00126865
7 *203:17 *207:11 0
8 *203:17 *209:13 0.000338981
9 *203:17 *214:17 0.00039042
10 *203:17 *216:15 0.000241894
11 *203:17 *307:12 0.000391658
12 *203:17 *338:8 0.000181192
13 *203:17 *409:10 0
14 *203:17 *410:22 0
15 *182:15 *203:17 0.00044728
16 *186:11 *203:17 7.52158e-05
17 *202:9 *203:17 0
*RES
1 SS4END[11] *203:17 34.9556 
2 *203:17 *1209:A 41.1845 
*END

*D_NET *204 0.00569774
*CONN
*P SS4END[12] I
*I *1208:A I *D sg13g2_buf_1
*CAP
1 SS4END[12] 0.00117722
2 *1208:A 8.08964e-05
3 *204:13 0.00125812
4 *204:13 *205:19 2.21754e-05
5 *204:13 *207:11 0.000714537
6 *204:13 *209:13 0.000338981
7 *204:13 *299:10 0.000287706
8 *204:13 *410:8 8.00842e-05
9 *183:13 *204:13 0.000181192
10 *195:9 *1208:A 0.000144394
11 *196:9 *1208:A 0.000143795
12 *203:17 *204:13 0.00126865
*RES
1 SS4END[12] *204:13 34.2243 
2 *204:13 *1208:A 40.9682 
*END

*D_NET *205 0.00534868
*CONN
*P SS4END[13] I
*I *1207:A I *D sg13g2_buf_1
*CAP
1 SS4END[13] 0.00140686
2 *1207:A 0
3 *205:19 0.00140686
4 *205:19 *206:9 0
5 *205:19 *210:13 0.000274412
6 *205:19 *211:21 0.00076321
7 *205:19 *214:23 7.4933e-05
8 *205:19 *216:27 0
9 *205:19 *299:10 0
10 *205:19 *300:12 0
11 *205:19 *408:10 0.000285508
12 *205:19 *410:8 8.00842e-05
13 *205:19 *412:10 0.000143351
14 *87:9 *205:19 0.000499799
15 *183:13 *205:19 0
16 *184:15 *205:19 0.000391485
17 *185:21 *205:19 0
18 *204:13 *205:19 2.21754e-05
*RES
1 SS4END[13] *205:19 35.8929 
2 *205:19 *1207:A 40 
*END

*D_NET *206 0.00551459
*CONN
*P SS4END[14] I
*I *1206:A I *D sg13g2_buf_1
*CAP
1 SS4END[14] 0.00123474
2 *1206:A 0.000131468
3 *206:9 0.0013662
4 *1206:A *403:8 0
5 *206:9 *207:11 0
6 *206:9 *210:13 0
7 *206:9 *212:13 0.000242213
8 *206:9 *215:17 0.000818145
9 *206:9 *300:12 0.000189058
10 *206:9 *412:10 0.000143351
11 *206:9 *412:14 0
12 *206:9 *413:10 0.000976583
13 *1159:A *206:9 0.000176624
14 *83:33 *206:9 0.000188462
15 *185:13 *1206:A 4.77425e-05
16 *205:19 *206:9 0
*RES
1 SS4END[14] *206:9 33.9874 
2 *206:9 *1206:A 41.1845 
*END

*D_NET *207 0.00392577
*CONN
*P SS4END[15] I
*I *1205:A I *D sg13g2_buf_1
*CAP
1 SS4END[15] 0.000797827
2 *1205:A 0.000128049
3 *207:11 0.000925876
4 *207:11 UserCLKo 0
5 *207:11 *212:13 0.000242213
6 *207:11 *299:10 0
7 *207:11 *307:12 0.00092617
8 *207:11 *370:20 0
9 *1151:A *1205:A 1.54008e-05
10 *187:13 *1205:A 0.000175693
11 *203:17 *207:11 0
12 *204:13 *207:11 0.000714537
13 *206:9 *207:11 0
*RES
1 SS4END[15] *207:11 49.3524 
2 *207:11 *1205:A 21.1845 
*END

*D_NET *208 0.00232179
*CONN
*P SS4END[1] I
*I *1266:A I *D sg13g2_buf_1
*CAP
1 SS4END[1] 0.000834552
2 *1266:A 0
3 *208:17 0.000834552
4 *208:17 *209:13 0
5 *208:17 *213:15 7.75564e-05
6 *208:17 *215:17 8.00842e-05
7 *208:17 *216:15 1.54008e-05
8 *208:17 *409:10 0.000138858
9 *1265:A *208:17 0
10 *187:13 *208:17 0.000340789
11 *202:9 *208:17 0
*RES
1 SS4END[1] *208:17 47.4984 
2 *208:17 *1266:A 20 
*END

*D_NET *209 0.00258614
*CONN
*P SS4END[2] I
*I *1267:A I *D sg13g2_buf_1
*CAP
1 SS4END[2] 0.000836977
2 *1267:A 0
3 *209:13 0.000836977
4 *209:13 *210:13 0
5 *209:13 *409:18 0
6 *1265:A *209:13 0
7 *187:13 *209:13 0.000234224
8 *203:17 *209:13 0.000338981
9 *204:13 *209:13 0.000338981
10 *208:17 *209:13 0
*RES
1 SS4END[2] *209:13 47.8177 
2 *209:13 *1267:A 20 
*END

*D_NET *210 0.00282354
*CONN
*P SS4END[3] I
*I *1268:A I *D sg13g2_buf_1
*CAP
1 SS4END[3] 0.000777016
2 *1268:A 0
3 *210:13 0.000777016
4 *210:13 *211:21 0.000177109
5 *210:13 *212:13 0.00081799
6 *210:13 *409:18 0
7 *1265:A *210:13 0
8 *205:19 *210:13 0.000274412
9 *206:9 *210:13 0
10 *209:13 *210:13 0
*RES
1 SS4END[3] *210:13 48.3121 
2 *210:13 *1268:A 20 
*END

*D_NET *211 0.00318476
*CONN
*P SS4END[4] I
*I *1270:A I *D sg13g2_buf_1
*CAP
1 SS4END[4] 0.000969652
2 *1270:A 0
3 *211:21 0.000969652
4 *211:21 *212:13 0
5 *211:21 *216:27 0.00012792
6 *211:21 *300:12 0
7 *1265:A *211:21 0
8 *185:13 *211:21 0
9 *187:13 *211:21 0.000177217
10 *205:19 *211:21 0.00076321
11 *210:13 *211:21 0.000177109
*RES
1 SS4END[4] *211:21 49.9601 
2 *211:21 *1270:A 20 
*END

*D_NET *212 0.00281177
*CONN
*P SS4END[5] I
*I *1271:A I *D sg13g2_buf_1
*CAP
1 SS4END[5] 0.000754679
2 *1271:A 0
3 *212:13 0.000754679
4 *212:13 *213:15 0
5 *212:13 *307:12 0
6 *212:13 *409:18 0
7 *212:13 *410:22 0
8 *187:13 *212:13 0
9 *206:9 *212:13 0.000242213
10 *207:11 *212:13 0.000242213
11 *210:13 *212:13 0.00081799
12 *211:21 *212:13 0
*RES
1 SS4END[5] *212:13 48.3121 
2 *212:13 *1271:A 20 
*END

*D_NET *213 0.00278614
*CONN
*P SS4END[6] I
*I *1272:A I *D sg13g2_buf_1
*CAP
1 SS4END[6] 0.000948905
2 *1272:A 0
3 *213:15 0.000948905
4 *213:15 *214:17 0.000305735
5 *213:15 *299:10 7.98567e-05
6 *213:15 *408:10 0.000143351
7 *213:15 *410:22 0.000234311
8 *213:15 *411:8 0
9 *213:15 *413:8 4.75151e-05
10 *1150:A *213:15 0
11 *187:13 *213:15 0
12 *208:17 *213:15 7.75564e-05
13 *212:13 *213:15 0
*RES
1 SS4END[6] *213:15 48.8477 
2 *213:15 *1272:A 20 
*END

*D_NET *214 0.00317929
*CONN
*P SS4END[7] I
*I *1273:A I *D sg13g2_buf_1
*CAP
1 SS4END[7] 0.000724652
2 *1273:A 0
3 *214:23 2.47642e-05
4 *214:17 0.000749416
5 *214:17 *215:17 0.000360252
6 *214:17 *216:15 0
7 *214:17 *307:12 0
8 *214:17 *410:22 0.000549119
9 *214:23 *300:12 0
10 *203:17 *214:17 0.00039042
11 *205:19 *214:23 7.4933e-05
12 *213:15 *214:17 0.000305735
*RES
1 SS4END[7] *214:17 48.5181 
2 *214:17 *214:23 40.3502 
3 *214:23 *1273:A 20 
*END

*D_NET *215 0.00752059
*CONN
*P SS4END[8] I
*I *1212:A I *D sg13g2_buf_1
*CAP
1 SS4END[8] 0.00288776
2 *1212:A 9.17063e-05
3 *215:17 0.00297947
4 *1212:A *362:8 0
5 *1212:A *394:10 0
6 *215:17 *216:15 0
7 *215:17 *216:27 0
8 *215:17 *408:10 0.000111114
9 *215:17 *413:10 0
10 *1150:A *215:17 0
11 *1158:A *215:17 4.75151e-05
12 *177:15 *1212:A 0.000144542
13 *196:9 *215:17 0
14 *206:9 *215:17 0.000818145
15 *208:17 *215:17 8.00842e-05
16 *214:17 *215:17 0.000360252
*RES
1 SS4END[8] *215:17 44.8127 
2 *215:17 *1212:A 40.9682 
*END

*D_NET *216 0.0105306
*CONN
*P SS4END[9] I
*I *1211:A I *D sg13g2_buf_1
*CAP
1 SS4END[9] 0.000573714
2 *1211:A 6.48182e-05
3 *216:27 0.00153016
4 *216:15 0.00203905
5 *1211:A *344:12 0
6 *1211:A *394:10 0
7 *216:27 *300:12 0.000234311
8 *216:27 *357:8 0
9 *216:27 *360:12 0
10 *1252:A *1211:A 0
11 *178:13 *216:27 0.000554164
12 *184:15 *216:27 0.000180811
13 *185:21 *216:27 0.000393823
14 *195:9 *216:27 0.00199441
15 *196:9 *216:27 0.00258008
16 *202:9 *216:15 0
17 *203:17 *216:15 0.000241894
18 *205:19 *216:27 0
19 *208:17 *216:15 1.54008e-05
20 *211:21 *216:27 0.00012792
21 *214:17 *216:15 0
22 *215:17 *216:15 0
23 *215:17 *216:27 0
*RES
1 SS4END[9] *216:15 45.9122 
2 *216:15 *216:27 41.7124 
3 *216:27 *1211:A 40.6695 
*END

*D_NET *217 0.00237433
*CONN
*P UserCLK I
*I *1221:A I *D sg13g2_buf_1
*CAP
1 UserCLK 0.00118717
2 *1221:A 0
3 *217:9 0.00118717
4 *217:9 *427:10 0
5 *217:9 *439:10 0
*RES
1 UserCLK *217:9 30.7429 
2 *217:9 *1221:A 40 
*END

*D_NET *218 0.000693578
*CONN
*P UserCLKo O
*I *1341:X O *D sg13g2_buf_1
*CAP
1 UserCLKo 0.000346789
2 *1341:X 0.000346789
3 FrameStrobe_O[0] UserCLKo 0
4 *207:11 UserCLKo 0
*RES
1 *1341:X UserCLKo 23.1106 
*END

*D_NET *221 0.000651187
*CONN
*I *1097:S I *D sg13g2_mux2_1
*I *1098:Q O *D sg13g2_dlhq_1
*CAP
1 *1097:S 0.0002055
2 *1098:Q 0.0002055
3 N4BEG[6] *1097:S 0.000240187
4 *143:16 *1097:S 0
*RES
1 *1098:Q *1097:S 41.9673 
*END

*D_NET *222 0.00206205
*CONN
*I *1096:S I *D sg13g2_mux2_1
*I *1099:Q O *D sg13g2_dlhq_1
*CAP
1 *1096:S 2.60565e-05
2 *1099:Q 0.000183911
3 *222:8 0.000209968
4 *1096:S *1066:S 4.77425e-05
5 *1096:S *409:24 4.77425e-05
6 *222:8 *293:10 0.000549931
7 *222:8 *361:12 0.00081542
8 *222:8 *397:20 0.00018128
9 *155:10 *222:8 0
*RES
1 *1099:Q *222:8 43.811 
2 *222:8 *1096:S 40.3193 
*END

*D_NET *223 0.00375689
*CONN
*I *1095:S I *D sg13g2_mux2_1
*I *1100:Q O *D sg13g2_dlhq_1
*CAP
1 *1095:S 3.47831e-05
2 *1100:Q 0.000509867
3 *223:8 0.00054465
4 *223:8 *1095:A1 0.000338311
5 *223:8 *332:14 0
6 *223:8 *353:8 0.000925519
7 *223:8 *379:47 0.00140376
*RES
1 *1100:Q *223:8 48.0134 
2 *223:8 *1095:S 40.3193 
*END

*D_NET *224 0.00170012
*CONN
*I *1094:S I *D sg13g2_mux2_1
*I *1101:Q O *D sg13g2_dlhq_1
*CAP
1 *1094:S 0.000160382
2 *1101:Q 0.000173042
3 *224:8 0.000333424
4 *1094:S *342:22 0.000240187
5 *224:8 *342:12 7.51285e-05
6 *224:8 *406:12 0
7 *224:8 *422:10 0.000445433
8 N4BEG[6] *1094:S 0.000272528
*RES
1 *1101:Q *224:8 42.0806 
2 *224:8 *1094:S 41.8334 
*END

*D_NET *225 0.00815108
*CONN
*I *1089:B I *D sg13g2_nand2b_1
*I *1088:S I *D sg13g2_mux2_1
*I *1090:A I *D sg13g2_nor2_1
*I *1085:A1 I *D sg13g2_o21ai_1
*I *1084:B_N I *D sg13g2_nor2b_1
*I *1083:S I *D sg13g2_mux2_1
*I *1102:Q O *D sg13g2_dlhq_1
*CAP
1 *1089:B 0.000111264
2 *1088:S 0
3 *1090:A 0
4 *1085:A1 0
5 *1084:B_N 0
6 *1083:S 0
7 *1102:Q 0.000128256
8 *225:64 0.000295329
9 *225:55 0.000367837
10 *225:48 0.00011087
11 *225:32 0.000341023
12 *225:22 0.000683957
13 *225:12 0.000586391
14 *225:8 0.000444614
15 *1089:B *1184:A 0.000585703
16 *1089:B *384:57 0.000605758
17 *225:8 *1093:B 1.54008e-05
18 *225:8 *316:10 0.000208412
19 *225:8 *330:32 0.000111114
20 *225:8 *406:32 0
21 *225:12 *350:12 0.000158726
22 *225:22 *1216:A 7.48178e-05
23 *225:22 *1304:A 3.23417e-05
24 *225:22 *337:8 7.30101e-05
25 *225:22 *337:12 0
26 *225:22 *350:12 0.000305466
27 *225:32 *1200:A 0.000112426
28 *225:32 *1304:A 0.000112426
29 *225:32 *341:26 0.000973655
30 *225:32 *355:26 0.000979714
31 *225:48 *1040:A 0
32 *225:48 *406:32 0.000160546
33 *225:55 *261:12 0
34 *225:55 *330:34 0
35 *225:64 *1184:A 0.000181232
36 *225:64 *261:12 0
37 *225:64 *330:34 0
38 *225:64 *384:57 0.000390791
39 *136:12 *225:12 0
40 *136:12 *225:22 0
*RES
1 *1102:Q *225:8 41.4008 
2 *225:8 *225:12 21.1845 
3 *225:12 *225:22 43.3681 
4 *225:22 *225:32 46.0564 
5 *225:32 *1083:S 20 
6 *225:22 *1084:B_N 20 
7 *225:12 *225:48 41.0686 
8 *225:48 *1085:A1 20 
9 *225:8 *225:55 1.339 
10 *225:55 *1090:A 40 
11 *225:55 *225:64 2.3278 
12 *225:64 *1088:S 40 
13 *225:64 *1089:B 42.8222 
*END

*D_NET *226 0.00176047
*CONN
*I *1040:A I *D sg13g2_inv_1
*I *1085:B1 I *D sg13g2_o21ai_1
*I *1103:Q O *D sg13g2_dlhq_1
*CAP
1 *1040:A 8.89362e-05
2 *1085:B1 0
3 *1103:Q 3.33062e-05
4 *226:22 5.51379e-05
5 *226:16 0.00034219
6 *226:6 0.000409294
7 *1040:A *1104:GATE 0
8 *1040:A *406:32 0
9 *226:16 *253:14 0.000113316
10 *226:16 *265:8 0.000341228
11 *226:16 *329:12 0.000234481
12 *226:16 *337:8 0
13 *226:16 *379:26 0
14 *226:16 *406:46 0
15 *226:22 *318:32 0.000127224
16 N2BEGb[7] *1040:A 1.53561e-05
17 N2BEGb[7] *226:16 0
18 *225:48 *1040:A 0
*RES
1 *1103:Q *226:6 20.3502 
2 *226:6 *226:16 43.3681 
3 *226:16 *226:22 40.5974 
4 *226:22 *1085:B1 20 
5 *226:6 *1040:A 21.1716 
*END

*D_NET *227 0.0026025
*CONN
*I *1092:C1 I *D sg13g2_a221oi_1
*I *1086:B1 I *D sg13g2_o21ai_1
*I *1104:Q O *D sg13g2_dlhq_1
*CAP
1 *1092:C1 0.000275562
2 *1086:B1 8.17913e-05
3 *1104:Q 0.000273594
4 *227:10 0.000630947
5 *1086:B1 *1086:A2 1.54282e-05
6 *1086:B1 *256:10 0
7 *1092:C1 *1092:B2 1.53827e-05
8 *1092:C1 *261:12 0
9 *1092:C1 *318:32 0.000180885
10 *1092:C1 *325:16 0.000125963
11 *1092:C1 *342:22 7.33256e-05
12 *227:10 *253:14 0.000127878
13 *227:10 *318:32 0.000229324
14 *227:10 *325:16 0.000492501
15 N4BEG[6] *1092:C1 7.99213e-05
*RES
1 *1104:Q *227:10 43.296 
2 *227:10 *1086:B1 40.7519 
3 *227:10 *1092:C1 42.8325 
*END

*D_NET *228 0.00667654
*CONN
*I *1077:S I *D sg13g2_mux2_1
*I *1073:B_N I *D sg13g2_nor2b_1
*I *1078:B I *D sg13g2_nand2b_1
*I *1072:S I *D sg13g2_mux2_1
*I *1079:A I *D sg13g2_nor2_1
*I *1074:A1 I *D sg13g2_o21ai_1
*I *1105:Q O *D sg13g2_dlhq_1
*CAP
1 *1077:S 0.000362824
2 *1073:B_N 0.000143431
3 *1078:B 0
4 *1072:S 0.000180999
5 *1079:A 0.000512393
6 *1074:A1 7.19408e-05
7 *1105:Q 5.87423e-05
8 *228:31 0.000922297
9 *228:27 0.00035776
10 *228:23 0.000349426
11 *228:19 0.000492414
12 *228:10 0.000124389
13 *228:8 5.87423e-05
14 *1072:S *1072:A0 0.000181192
15 *1072:S *1072:A1 0.000234224
16 *1072:S *389:10 0
17 *1072:S *390:10 0
18 *1073:B_N *1076:B1 0.000175958
19 *1073:B_N *264:12 0.000175958
20 *1073:B_N *430:10 0.000212969
21 *1073:B_N *452:10 0.000234598
22 *1074:A1 *1074:A2 1.54008e-05
23 *1074:A1 *324:10 4.77425e-05
24 *1074:A1 *324:16 8.00842e-05
25 *1077:S *1082:A 0
26 *1077:S *323:14 0.000101896
27 *1077:S *324:10 7.92265e-05
28 *1079:A *1076:A2 1.54008e-05
29 *1079:A *264:23 0
30 *1079:A *344:20 0
31 *1079:A *347:8 0
32 *1079:A *394:10 0
33 *228:8 *230:10 0
34 *228:8 *324:10 7.48178e-05
35 *228:8 *385:67 7.50435e-05
36 *228:8 *430:10 0.000234244
37 *228:19 *324:10 7.9225e-05
38 *228:23 *430:10 0.000337563
39 *228:23 *452:10 0.000337164
40 *228:27 *1183:A 4.75525e-05
41 *228:27 *390:14 1.53561e-05
42 *228:31 *246:8 0.000285563
43 *228:31 *389:10 0
*RES
1 *1105:Q *228:8 41.0918 
2 *228:8 *228:10 20 
3 *228:10 *1074:A1 20.7519 
4 *228:10 *228:19 0.5356 
5 *228:19 *228:23 21.5862 
6 *228:23 *228:27 21.1845 
7 *228:27 *228:31 22.0806 
8 *228:31 *1079:A 44.3466 
9 *228:31 *1072:S 42.0806 
10 *228:27 *1078:B 20 
11 *228:23 *1073:B_N 42.2763 
12 *228:19 *1077:S 23.6153 
*END

*D_NET *229 0.00187359
*CONN
*I *1074:B1 I *D sg13g2_o21ai_1
*I *1039:A I *D sg13g2_inv_1
*I *1106:Q O *D sg13g2_dlhq_1
*CAP
1 *1074:B1 0
2 *1039:A 0.000213078
3 *1106:Q 5.35139e-05
4 *229:12 0.000371511
5 *229:8 0.000211947
6 *1039:A *1074:A2 4.77425e-05
7 *1039:A *244:10 1.54008e-05
8 *1039:A *264:12 0
9 *1039:A *408:36 0.000241052
10 *229:8 *389:10 0.000231618
11 *229:8 *452:10 0.000232131
12 *229:12 *1076:B1 0
13 *229:12 *244:10 7.99033e-05
14 *229:12 *324:10 0.000175693
*RES
1 *1106:Q *229:8 41.0918 
2 *229:8 *229:12 21.6171 
3 *229:12 *1039:A 22.1836 
4 *229:12 *1074:B1 20 
*END

*D_NET *230 0.00242975
*CONN
*I *1075:B1 I *D sg13g2_o21ai_1
*I *1081:C1 I *D sg13g2_a221oi_1
*I *1107:Q O *D sg13g2_dlhq_1
*CAP
1 *1075:B1 5.68246e-05
2 *1081:C1 3.45929e-05
3 *1107:Q 0.000481171
4 *230:18 0.000566854
5 *230:10 0.00107026
6 *1075:B1 *244:10 0
7 *1075:B1 *245:8 7.61838e-05
8 *1081:C1 *323:14 0
9 *230:10 *1107:GATE 0
10 *230:10 *244:10 0
11 *230:10 *324:10 0
12 *230:10 *324:16 0
13 *230:10 *349:10 0
14 *230:10 *385:67 1.53311e-05
15 *230:10 *430:10 0
16 *230:18 *247:10 0.000128537
17 *230:18 *338:20 0
18 *230:18 *358:16 0
19 *230:18 *408:26 0
20 *228:8 *230:10 0
*RES
1 *1107:Q *230:10 43.7286 
2 *230:10 *230:18 44.6247 
3 *230:18 *1081:C1 40.3193 
4 *230:10 *1075:B1 40.5974 
*END

*D_NET *231 0.00629128
*CONN
*I *1063:A1 I *D sg13g2_o21ai_1
*I *1066:S I *D sg13g2_mux2_1
*I *1068:A I *D sg13g2_nor2_1
*I *1061:S I *D sg13g2_mux2_1
*I *1067:B I *D sg13g2_nand2b_1
*I *1062:B_N I *D sg13g2_nor2b_1
*I *1108:Q O *D sg13g2_dlhq_1
*CAP
1 *1063:A1 9.28373e-05
2 *1066:S 0.000258754
3 *1068:A 2.71311e-05
4 *1061:S 0
5 *1067:B 6.47667e-05
6 *1062:B_N 8.00403e-05
7 *1108:Q 0
8 *231:44 0.000478187
9 *231:36 0.000635477
10 *231:21 0.000410441
11 *231:8 0.000295556
12 *231:6 0.000355146
13 *231:4 0.00018923
14 *1062:B_N *361:12 0.00012816
15 *1062:B_N *380:24 0.000129089
16 *1063:A1 *1108:GATE 0
17 *1063:A1 *409:24 8.68588e-05
18 *1063:A1 *409:34 1.53561e-05
19 *1067:B *1067:A_N 0.000111815
20 *1067:B *1070:A2 7.98582e-05
21 *1068:A *293:10 3.23417e-05
22 *231:21 *361:12 0.000761297
23 *231:21 *380:24 0.000317514
24 *231:21 *381:14 0.000177683
25 *231:21 *413:10 0
26 *231:36 *293:10 7.98582e-05
27 *231:36 *361:12 0.000179079
28 *231:36 *413:10 0
29 *231:44 *335:10 0
30 *231:44 *344:12 0
31 *231:44 *361:12 0.00055168
32 *231:44 *393:10 0
33 *231:44 *404:25 4.77425e-05
34 NN4BEG[3] *1062:B_N 0.0001122
35 NN4BEG[5] *1066:S 0.00030506
36 NN4BEG[6] *1066:S 0.000240377
37 *1096:S *1066:S 4.77425e-05
38 *178:13 *231:44 0
*RES
1 *1108:Q *231:4 20 
2 *231:4 *231:6 0.7519 
3 *231:6 *231:8 20 
4 *231:8 *1062:B_N 41.3493 
5 *231:8 *231:21 3.5638 
6 *231:21 *1067:B 40.7493 
7 *231:21 *231:36 21.3802 
8 *231:36 *231:44 44.4393 
9 *231:44 *1061:S 20 
10 *231:36 *1068:A 20.3193 
11 *231:6 *1066:S 22.9149 
12 *231:4 *1063:A1 21.133 
*END

*D_NET *232 0.00425308
*CONN
*I *1063:B1 I *D sg13g2_o21ai_1
*I *1038:A I *D sg13g2_inv_1
*I *1109:Q O *D sg13g2_dlhq_1
*CAP
1 *1063:B1 0
2 *1038:A 0
3 *1109:Q 5.11817e-05
4 *232:31 0.00026013
5 *232:20 0.000333656
6 *232:12 0.000815777
7 *232:8 0.000273173
8 *232:8 *342:12 0.000129479
9 *232:8 *379:47 0
10 *232:12 *379:53 0.000212014
11 *232:12 *442:16 0
12 *232:20 *1070:C1 0
13 *232:20 *233:10 0.000180019
14 *232:20 *336:18 0.000552176
15 *232:20 *345:18 0.00103644
16 *232:31 *355:32 0
17 *232:31 *379:53 0.000409034
18 *232:31 *442:16 0
*RES
1 *1109:Q *232:8 40.5974 
2 *232:8 *232:12 21.8334 
3 *232:12 *232:20 45.3354 
4 *232:20 *1038:A 20 
5 *232:12 *232:31 42.6986 
6 *232:31 *1063:B1 20 
*END

*D_NET *233 0.0027346
*CONN
*I *1070:C1 I *D sg13g2_a221oi_1
*I *1064:B1 I *D sg13g2_o21ai_1
*I *1110:Q O *D sg13g2_dlhq_1
*CAP
1 *1070:C1 0.000571252
2 *1064:B1 0
3 *1110:Q 0.000104391
4 *233:10 0.000675644
5 *1070:C1 *1069:B 7.97475e-05
6 *1070:C1 *1070:B2 0.000255508
7 *1070:C1 *1182:A 4.77425e-05
8 *1070:C1 *293:10 1.54008e-05
9 *1070:C1 *336:18 0.000180391
10 *1070:C1 *348:10 0.000496912
11 *233:10 *285:10 0.000127594
12 *232:20 *1070:C1 0
13 *232:20 *233:10 0.000180019
*RES
1 *1110:Q *233:10 41.4111 
2 *233:10 *1064:B1 40 
3 *233:10 *1070:C1 46.6126 
*END

*D_NET *234 0.00643371
*CONN
*I *1056:S I *D sg13g2_mux2_1
*I *1057:S I *D sg13g2_mux2_1
*I *1052:B_N I *D sg13g2_nor2b_1
*I *1051:S I *D sg13g2_mux2_1
*I *1053:A2 I *D sg13g2_o21ai_1
*I *1111:Q O *D sg13g2_dlhq_1
*CAP
1 *1056:S 6.88694e-05
2 *1057:S 0
3 *1052:B_N 2.98788e-05
4 *1051:S 3.06411e-05
5 *1053:A2 0.000190919
6 *1111:Q 0.000189125
7 *234:59 0.000493049
8 *234:47 0.000896828
9 *234:34 0.000677174
10 *234:19 0.000396394
11 *234:10 0.000244286
12 *234:8 0.000189125
13 *1053:A2 *1053:B1 1.54008e-05
14 *1053:A2 *410:40 0.000208035
15 *1056:S *1116:D 6.39133e-05
16 *234:8 *296:58 0.000126354
17 *234:8 *309:16 0
18 *234:8 *315:16 0
19 *234:8 *378:22 0.000181192
20 *234:8 *414:32 2.20966e-05
21 *234:34 *1041:S1 0.000340045
22 *234:34 *238:12 7.33256e-05
23 *234:34 *238:16 4.75166e-05
24 *234:34 *272:8 0
25 *234:47 *1041:S0 0
26 *234:47 *1048:B1 0.000603305
27 *234:47 *272:8 0.000283034
28 *234:47 *397:20 0.000287256
29 *234:59 *1116:D 0.000369517
30 *234:59 *336:48 0
31 *234:59 *378:45 0
32 *234:59 *410:34 0
33 N1BEG[2] *234:34 0.000178734
34 N1BEG[3] *1052:B_N 4.77425e-05
35 N2BEGb[1] *234:59 8.01118e-05
36 N4BEG[1] *234:59 0
37 N4BEG[5] *234:8 0
38 *112:16 *234:8 7.48178e-05
39 *115:26 *234:19 0
40 *131:10 *1056:S 0
41 *142:12 *1056:S 2.50263e-05
42 *142:12 *234:59 0
*RES
1 *1111:Q *234:8 42.0806 
2 *234:8 *234:10 20 
3 *234:10 *1053:A2 21.8334 
4 *234:10 *234:19 0.5356 
5 *234:19 *1051:S 20.3502 
6 *234:19 *234:34 23.5535 
7 *234:34 *1052:B_N 40.3193 
8 *234:34 *234:47 24.3054 
9 *234:47 *234:59 44.5835 
10 *234:59 *1057:S 20 
11 *234:47 *1056:S 20.945 
*END

*D_NET *235 0.00466914
*CONN
*I *1037:A I *D sg13g2_inv_1
*I *1053:B1 I *D sg13g2_o21ai_1
*I *1058:A I *D sg13g2_nand2_1
*I *1112:Q O *D sg13g2_dlhq_1
*CAP
1 *1037:A 0.000594272
2 *1053:B1 0.000166061
3 *1058:A 0
4 *1112:Q 7.06352e-05
5 *235:24 9.08433e-05
6 *235:16 0.000527021
7 *235:8 0.000935025
8 *1037:A *281:16 0
9 *1037:A *311:10 0
10 *1037:A *346:16 0.000302065
11 *235:16 *1054:A2 0
12 *235:16 *281:16 0
13 *235:16 *282:8 0.000496984
14 *235:16 *346:16 0.000708017
15 *235:24 *1058:B 0
16 *235:24 *281:16 0.000181192
17 *235:24 *282:8 0.000181192
18 N2BEG[5] *235:8 0.000112426
19 N2BEGb[2] *1037:A 0.000207922
20 *1053:A2 *1053:B1 1.54008e-05
21 *112:16 *235:24 8.00842e-05
22 *141:12 *1037:A 0
23 *141:22 *1037:A 0
*RES
1 *1112:Q *235:8 40.7519 
2 *235:8 *235:16 24.2024 
3 *235:16 *235:24 41.3802 
4 *235:24 *1058:A 20 
5 *235:16 *1053:B1 21.4008 
6 *235:8 *1037:A 45.6032 
*END

*D_NET *236 0.00245338
*CONN
*I *1059:B1 I *D sg13g2_a21oi_1
*I *1054:B1 I *D sg13g2_o21ai_1
*I *1113:Q O *D sg13g2_dlhq_1
*CAP
1 *1059:B1 0
2 *1054:B1 0
3 *1113:Q 0.000470642
4 *236:18 0.000105728
5 *236:12 0.00057637
6 *236:12 *1060:A1 0.000143351
7 *236:12 *1060:A2 0
8 *236:12 *374:37 0
9 *236:12 *374:52 0.000255579
10 *236:18 *351:14 0.000440753
11 N2BEG[5] *236:12 2.20736e-05
12 *116:10 *236:18 0.00043888
*RES
1 *1113:Q *236:12 24.3981 
2 *236:12 *236:18 42.0806 
3 *236:18 *1054:B1 20 
4 *236:12 *1059:B1 20 
*END

*D_NET *237 0.00853876
*CONN
*I *1041:S0 I *D sg13g2_mux4_1
*I *1047:A1 I *D sg13g2_o21ai_1
*I *1043:B_N I *D sg13g2_nor2b_1
*I *1046:B_N I *D sg13g2_nor2b_1
*I *1044:A I *D sg13g2_nor2_1
*I *1114:Q O *D sg13g2_dlhq_1
*CAP
1 *1041:S0 0.000649
2 *1047:A1 2.40871e-05
3 *1043:B_N 4.45403e-05
4 *1046:B_N 0
5 *1044:A 0
6 *1114:Q 0
7 *237:53 0.000795199
8 *237:37 0.000205678
9 *237:29 0.000408695
10 *237:25 0.000380998
11 *237:14 0.000820434
12 *237:4 0.000920844
13 *1041:S0 *1041:A0 8.08542e-06
14 *1041:S0 *1059:A2 0.000240377
15 *1041:S0 *272:8 0.000540846
16 *1041:S0 *363:12 0.000335451
17 *1041:S0 *396:18 0.000126013
18 *237:14 *1147:A 0.000176129
19 *237:14 *1148:A 1.51e-05
20 *237:14 *238:12 4.75166e-05
21 *237:14 *269:12 0.000144654
22 *237:14 *296:58 0.000181385
23 *237:14 *322:8 0
24 *237:14 *378:22 0
25 *237:14 *397:34 0.00023464
26 *237:25 *1115:GATE 0
27 *237:25 *238:12 8.00842e-05
28 *237:25 *363:12 0
29 *237:29 *238:12 0.000240377
30 *237:53 *363:12 0
31 N1BEG[0] *237:37 0
32 N1BEG[2] *1041:S0 0
33 N1BEG[2] *237:25 0.000127853
34 N1BEG[2] *237:37 8.00842e-05
35 N1BEG[2] *237:53 0.000210008
36 N1BEG[3] *237:37 8.00842e-05
37 N2BEG[2] *237:37 0.000549896
38 N2BEG[7] *1041:S0 0
39 *109:14 *1043:B_N 0
40 *109:14 *237:29 0
41 *112:28 *237:37 0.000336709
42 *115:26 *1043:B_N 8.00842e-05
43 *115:26 *237:29 0.000272718
44 *116:18 *1041:S0 0
45 *180:17 *237:14 0.000181192
46 *234:47 *1041:S0 0
*RES
1 *1114:Q *237:4 20 
2 *237:4 *237:14 47.725 
3 *237:14 *1044:A 20 
4 *237:4 *237:25 21.133 
5 *237:25 *237:29 21.8334 
6 *237:29 *237:37 43.1106 
7 *237:37 *1046:B_N 20 
8 *237:29 *1043:B_N 20.5356 
9 *237:25 *237:53 1.4111 
10 *237:53 *1047:A1 40.2034 
11 *237:53 *1041:S0 46.9113 
*END

*D_NET *238 0.007124
*CONN
*I *1041:S1 I *D sg13g2_mux4_1
*I *1045:A I *D sg13g2_nor3_1
*I *1047:B1 I *D sg13g2_o21ai_1
*I *1115:Q O *D sg13g2_dlhq_1
*CAP
1 *1041:S1 0.00055363
2 *1045:A 0.000331997
3 *1047:B1 0
4 *1115:Q 0.000372788
5 *238:16 0.000413259
6 *238:12 0.00100768
7 *1041:S1 *1048:B1 0.000762208
8 *1041:S1 *239:8 0.000209142
9 *1041:S1 *336:48 0.000177618
10 *1041:S1 *383:61 2.14736e-05
11 *1045:A *1045:B 4.77425e-05
12 *238:12 *1115:GATE 0
13 *238:12 *315:8 4.75166e-05
14 *238:12 *401:40 0.000232647
15 N1BEG[2] *1045:A 0.000149048
16 *124:14 *1041:S1 0.00157945
17 *124:14 *238:12 0.000388934
18 *234:34 *1041:S1 0.000340045
19 *234:34 *238:12 7.33256e-05
20 *234:34 *238:16 4.75166e-05
21 *237:14 *238:12 4.75166e-05
22 *237:25 *238:12 8.00842e-05
23 *237:29 *238:12 0.000240377
*RES
1 *1115:Q *238:12 44.4496 
2 *238:12 *238:16 20.7519 
3 *238:16 *1047:B1 20 
4 *238:16 *1045:A 23.1724 
5 *238:12 *1041:S1 48.7164 
*END

*D_NET *239 0.0058568
*CONN
*I *1042:A I *D sg13g2_nor2_1
*I *1048:B1 I *D sg13g2_o21ai_1
*I *1116:Q O *D sg13g2_dlhq_1
*CAP
1 *1042:A 0
2 *1048:B1 0.000254293
3 *1116:Q 0.000453292
4 *239:27 0
5 *239:23 0.00142579
6 *239:8 0.00213337
7 *1048:B1 *1049:A2 1.54008e-05
8 *1048:B1 *397:20 0
9 *239:8 *383:61 0
10 *239:8 *397:20 0
11 *239:23 *337:12 0
12 *239:23 *345:18 0
13 *239:23 *392:26 0
14 *239:23 *392:34 0
15 *239:23 *421:12 0
16 *1041:S1 *1048:B1 0.000762208
17 *1041:S1 *239:8 0.000209142
18 *234:47 *1048:B1 0.000603305
*RES
1 *1116:Q *239:8 43.5638 
2 *239:8 *1048:B1 44.0994 
3 *239:8 *239:23 33.081 
4 *239:23 *239:27 40 
5 *239:27 *1042:A 20 
*END

*D_NET *240 0.0016288
*CONN
*I *1169:A I *D sg13g2_buf_1
*I *1097:X O *D sg13g2_mux2_1
*CAP
1 *1169:A 0
2 *1097:X 0.000408523
3 *240:10 0.000408523
4 *240:10 *296:40 0.000370459
5 *240:10 *296:58 7.44734e-05
6 *240:10 *296:92 0.000158785
7 *240:10 *383:48 0.000208035
8 *240:10 *410:34 0
*RES
1 *1097:X *240:10 44.223 
2 *240:10 *1169:A 40 
*END

*D_NET *241 0.00248626
*CONN
*I *1170:A I *D sg13g2_buf_1
*I *1096:X O *D sg13g2_mux2_1
*CAP
1 *1170:A 5.53254e-05
2 *1096:X 5.96781e-05
3 *241:18 0.000848022
4 *241:8 0.000852375
5 *1170:A *318:18 0
6 *1170:A *385:23 0
7 *241:18 *336:32 0
8 *241:18 *347:14 0.000231945
9 *241:18 *379:53 0
10 *241:18 *381:20 0
11 *241:18 *393:16 0
12 *241:18 *393:18 0
13 *241:18 *395:22 0
14 *241:18 *409:34 0.000438918
*RES
1 *1096:X *241:8 40.4274 
2 *241:8 *241:18 47.8177 
3 *241:18 *1170:A 40.5356 
*END

*D_NET *242 0.000252715
*CONN
*I *1171:A I *D sg13g2_buf_1
*I *1095:X O *D sg13g2_mux2_1
*CAP
1 *1171:A 0.000126357
2 *1095:X 0.000126357
3 *1171:A *1077:A0 0
4 *1171:A *1182:A 0
5 *1171:A *264:38 0
*RES
1 *1095:X *1171:A 41.5141 
*END

*D_NET *243 0.00132912
*CONN
*I *1172:A I *D sg13g2_buf_1
*I *1094:X O *D sg13g2_mux2_1
*CAP
1 *1172:A 0.000479805
2 *1094:X 0.000479805
3 *1172:A *1109:D 0
4 *1172:A *296:10 0
5 *1172:A *384:34 0.000289423
6 *1172:A *384:44 8.00842e-05
*RES
1 *1094:X *1172:A 45.0573 
*END

*D_NET *244 0.000587355
*CONN
*I *1075:A2 I *D sg13g2_o21ai_1
*I *1074:Y O *D sg13g2_o21ai_1
*CAP
1 *1075:A2 4.73421e-05
2 *1074:Y 0.000198683
3 *244:10 0.000246025
4 *1075:A2 *1076:B1 0
5 *244:10 *430:10 0
6 *1039:A *244:10 1.54008e-05
7 *1075:B1 *244:10 0
8 *229:12 *244:10 7.99033e-05
9 *230:10 *244:10 0
*RES
1 *1074:Y *244:10 41.6274 
2 *244:10 *1075:A2 40.5356 
*END

*D_NET *245 0.00130061
*CONN
*I *1076:B1 I *D sg13g2_a21oi_1
*I *1075:Y O *D sg13g2_o21ai_1
*CAP
1 *1076:B1 0.000315221
2 *1075:Y 5.27759e-05
3 *245:8 0.000367997
4 *1076:B1 *1081:B1 0
5 *245:8 *295:8 7.49633e-05
6 *245:8 *349:10 0.000237514
7 *1073:B_N *1076:B1 0.000175958
8 *1075:B1 *245:8 7.61838e-05
9 *1075:A2 *1076:B1 0
10 *229:12 *1076:B1 0
*RES
1 *1075:Y *245:8 41.0918 
2 *245:8 *1076:B1 42.8325 
*END

*D_NET *246 0.00177567
*CONN
*I *1082:A I *D sg13g2_nor2_1
*I *1076:Y O *D sg13g2_a21oi_1
*CAP
1 *1082:A 0.000176026
2 *1076:Y 0.000360354
3 *246:8 0.00053638
4 *1082:A *1082:B 0
5 *1082:A *318:18 0
6 *1082:A *367:10 0
7 *246:8 *323:20 0
8 *246:8 *358:16 0
9 *246:8 *385:50 7.58806e-05
10 *246:8 *389:10 0
11 *246:8 *390:10 0.000341464
12 *1077:S *1082:A 0
13 *228:31 *246:8 0.000285563
*RES
1 *1076:Y *246:8 44.0582 
2 *246:8 *1082:A 41.6171 
*END

*D_NET *247 0.000905165
*CONN
*I *1081:A2 I *D sg13g2_a221oi_1
*I *1077:X O *D sg13g2_mux2_1
*CAP
1 *1081:A2 0
2 *1077:X 0.000192074
3 *247:10 0.000192074
4 *247:10 *1077:A1 0
5 *247:10 *358:16 0
6 *247:10 *394:12 0.00039248
7 *230:18 *247:10 0.000128537
*RES
1 *1077:X *247:10 42.2851 
2 *247:10 *1081:A2 40 
*END

*D_NET *248 0.000591503
*CONN
*I *1081:B1 I *D sg13g2_a221oi_1
*I *1078:Y O *D sg13g2_nand2b_1
*CAP
1 *1081:B1 0.000200137
2 *1078:Y 0.000200137
3 *1081:B1 *1081:B2 1.54008e-05
4 *1081:B1 *264:23 0.000175828
5 *1081:B1 *323:14 0
6 *1076:B1 *1081:B1 0
*RES
1 *1078:Y *1081:B1 41.9982 
*END

*D_NET *249 0.00104983
*CONN
*I *1080:B I *D sg13g2_nor2_1
*I *1079:Y O *D sg13g2_nor2_1
*CAP
1 *1080:B 0.000100195
2 *1079:Y 0.000118197
3 *249:10 0.000218391
4 *1080:B *347:8 0.000143673
5 *249:10 *332:14 0.000234433
6 *249:10 *336:10 0.000234945
*RES
1 *1079:Y *249:10 41.6274 
2 *249:10 *1080:B 40.9682 
*END

*D_NET *250 0.000760235
*CONN
*I *1081:B2 I *D sg13g2_a221oi_1
*I *1080:Y O *D sg13g2_nor2_1
*CAP
1 *1081:B2 0.000252347
2 *1080:Y 0.000252347
3 *1081:B2 *264:38 0.00024014
4 *1081:B2 *347:8 0
5 *1081:B1 *1081:B2 1.54008e-05
*RES
1 *1080:Y *1081:B2 42.3999 
*END

*D_NET *251 0.00159081
*CONN
*I *1082:B I *D sg13g2_nor2_1
*I *1081:Y O *D sg13g2_a221oi_1
*CAP
1 *1082:B 8.08924e-05
2 *1081:Y 0.000331364
3 *251:8 0.000412256
4 *1082:B *318:18 0
5 *251:8 *1179:A 0
6 *251:8 *347:14 0.000766301
7 *251:8 *394:12 0
8 *1082:A *1082:B 0
*RES
1 *1081:Y *251:8 43.5638 
2 *251:8 *1082:B 40.7519 
*END

*D_NET *252 0.000933437
*CONN
*I *1087:A2 I *D sg13g2_a21oi_1
*I *1083:X O *D sg13g2_mux2_1
*CAP
1 *1087:A2 0.000257729
2 *1083:X 0.000257729
3 *1087:A2 *1087:A1 8.01995e-05
4 *1087:A2 *342:30 0
5 N4BEG[6] *1087:A2 0.000337779
*RES
1 *1083:X *1087:A2 42.6162 
*END

*D_NET *253 0.00119941
*CONN
*I *1086:A1 I *D sg13g2_o21ai_1
*I *1084:Y O *D sg13g2_nor2b_1
*CAP
1 *1086:A1 4.75879e-05
2 *1084:Y 0
3 *253:14 0.000261718
4 *253:6 0.00021413
5 *1086:A1 *406:32 0
6 *253:14 *318:32 0.000127878
7 *136:12 *253:14 0.000306906
8 *226:16 *253:14 0.000113316
9 *227:10 *253:14 0.000127878
*RES
1 *1084:Y *253:6 40 
2 *253:6 *253:14 42.6471 
3 *253:14 *1086:A1 40.4197 
*END

*D_NET *254 0.000221993
*CONN
*I *1086:A2 I *D sg13g2_o21ai_1
*I *1085:Y O *D sg13g2_o21ai_1
*CAP
1 *1086:A2 0.000103282
2 *1085:Y 0.000103282
3 *1086:A2 *256:10 0
4 *1086:A2 *406:32 0
5 *1086:A2 *406:46 0
6 *1086:B1 *1086:A2 1.54282e-05
*RES
1 *1085:Y *1086:A2 41.1639 
*END

*D_NET *255 0.00010454
*CONN
*I *1087:B1 I *D sg13g2_a21oi_1
*I *1086:Y O *D sg13g2_o21ai_1
*CAP
1 *1087:B1 5.22701e-05
2 *1086:Y 5.22701e-05
*RES
1 *1086:Y *1087:B1 40.5974 
*END

*D_NET *256 0.00152791
*CONN
*I *1093:A I *D sg13g2_nor2_1
*I *1087:Y O *D sg13g2_a21oi_1
*CAP
1 *1093:A 9.26407e-05
2 *1087:Y 0.000420878
3 *256:10 0.000513519
4 *1093:A *406:32 0.00014457
5 *256:10 *1087:A1 4.78578e-05
6 *256:10 *259:8 0.000229777
7 *256:10 *261:12 0
8 *256:10 *325:16 0
9 *256:10 *342:22 7.86681e-05
10 *1086:B1 *256:10 0
11 *1086:A2 *256:10 0
*RES
1 *1087:Y *256:10 43.6977 
2 *256:10 *1093:A 40.9682 
*END

*D_NET *257 0.000546353
*CONN
*I *1092:A2 I *D sg13g2_a221oi_1
*I *1088:X O *D sg13g2_mux2_1
*CAP
1 *1092:A2 0.000200921
2 *1088:X 0.000200921
3 *1092:A2 *1091:B 0.00014451
4 *1092:A2 *261:12 0
*RES
1 *1088:X *1092:A2 42.0497 
*END

*D_NET *258 0.00124366
*CONN
*I *1092:B1 I *D sg13g2_a221oi_1
*I *1089:Y O *D sg13g2_nand2b_1
*CAP
1 *1092:B1 0
2 *1089:Y 0.000410464
3 *258:10 0.000410464
4 *258:10 *1089:A_N 0
5 *258:10 *1091:A 0
6 *258:10 *1091:B 0.000241535
7 *258:10 *349:24 0.000181192
8 *258:10 *384:44 0
*RES
1 *1089:Y *258:10 44.0376 
2 *258:10 *1092:B1 40 
*END

*D_NET *259 0.00255012
*CONN
*I *1091:B I *D sg13g2_nor2_1
*I *1090:Y O *D sg13g2_nor2_1
*CAP
1 *1091:B 0.000372603
2 *1090:Y 0.000319785
3 *259:8 0.000692388
4 *259:8 *1184:A 0
5 *259:8 *261:12 0.000549522
6 *259:8 *318:32 0
7 *259:8 *342:22 0
8 *1092:A2 *1091:B 0.00014451
9 *256:10 *259:8 0.000229777
10 *258:10 *1091:B 0.000241535
*RES
1 *1090:Y *259:8 43.811 
2 *259:8 *1091:B 43.3475 
*END

*D_NET *260 0.00141097
*CONN
*I *1092:B2 I *D sg13g2_a221oi_1
*I *1091:Y O *D sg13g2_nor2_1
*CAP
1 *1092:B2 0.000165215
2 *1091:Y 7.43706e-05
3 *260:8 0.000239586
4 *1092:B2 *1083:A1 4.75425e-05
5 *1092:B2 *261:12 8.01541e-05
6 *260:8 *1083:A1 0.00012816
7 *260:8 *398:12 0.000394566
8 *260:8 *402:14 0.00026599
9 N4BEG[6] *1092:B2 0
10 *1092:C1 *1092:B2 1.53827e-05
*RES
1 *1091:Y *260:8 41.8334 
2 *260:8 *1092:B2 41.4008 
*END

*D_NET *261 0.0023643
*CONN
*I *1093:B I *D sg13g2_nor2_1
*I *1092:Y O *D sg13g2_a221oi_1
*CAP
1 *1093:B 3.03885e-05
2 *1092:Y 0.000634816
3 *261:12 0.000665204
4 *1093:B *316:10 0
5 *1093:B *406:32 4.77425e-05
6 *261:12 *1092:A1 0
7 *261:12 *1184:A 0.000341071
8 N4BEG[6] *261:12 0
9 *1092:B2 *261:12 8.01541e-05
10 *1092:C1 *261:12 0
11 *1092:A2 *261:12 0
12 *225:8 *1093:B 1.54008e-05
13 *225:55 *261:12 0
14 *225:64 *261:12 0
15 *256:10 *261:12 0
16 *259:8 *261:12 0.000549522
*RES
1 *1092:Y *261:12 46.6435 
2 *261:12 *1093:B 40.3193 
*END

*D_NET *262 0.002992
*CONN
*I *1055:A1 I *D sg13g2_a21oi_1
*I *1059:A1 I *D sg13g2_a21oi_1
*I *1037:Y O *D sg13g2_inv_1
*CAP
1 *1055:A1 0.000322208
2 *1059:A1 0
3 *1037:Y 0.000197236
4 *262:8 0.000519443
5 *1055:A1 *1055:A2 0.000112426
6 *1055:A1 *1060:A2 1.54008e-05
7 *1055:A1 *1185:A 0.000285401
8 *1055:A1 *351:14 0
9 *262:8 *351:14 0.000760317
10 N4BEG[1] *262:8 0.00054686
11 *116:10 *1055:A1 0.000232707
*RES
1 *1037:Y *262:8 43.5638 
2 *262:8 *1059:A1 40 
3 *262:8 *1055:A1 43.708 
*END

*D_NET *263 0.00269904
*CONN
*I *1069:A I *D sg13g2_nor2_1
*I *1070:A1 I *D sg13g2_a221oi_1
*I *1065:A1 I *D sg13g2_a21oi_1
*I *1038:Y O *D sg13g2_inv_1
*CAP
1 *1069:A 0.000103557
2 *1070:A1 3.39499e-05
3 *1065:A1 0
4 *1038:Y 8.53106e-05
5 *263:24 0.000119078
6 *263:16 0.00036218
7 *263:10 0.000398021
8 *1069:A *1069:B 0.00017625
9 *263:10 *362:18 0.000181739
10 *263:10 *436:22 0.000159274
11 *263:16 *362:18 0.000333618
12 *263:16 *436:22 0.000335032
13 *263:24 *284:8 0.000231947
14 *263:24 *290:10 0.000179087
*RES
1 *1038:Y *263:10 41.3802 
2 *263:10 *263:16 22.5544 
3 *263:16 *263:24 41.6583 
4 *263:24 *1065:A1 20 
5 *263:16 *1070:A1 20.3193 
6 *263:10 *1069:A 41.1845 
*END

*D_NET *264 0.00312052
*CONN
*I *1080:A I *D sg13g2_nor2_1
*I *1081:A1 I *D sg13g2_a221oi_1
*I *1076:A1 I *D sg13g2_a21oi_1
*I *1039:Y O *D sg13g2_inv_1
*CAP
1 *1080:A 0
2 *1081:A1 0
3 *1076:A1 0
4 *1039:Y 0.000589463
5 *264:38 0.000310334
6 *264:23 0.000509092
7 *264:12 0.000788221
8 *264:12 *1073:A 0
9 *264:12 *1076:A2 8.00842e-05
10 *264:12 *344:20 0
11 *264:38 *1077:A0 0
12 *264:38 *338:20 7.33256e-05
13 *264:38 *347:14 0
14 *264:38 *394:12 0.000178078
15 *1039:A *264:12 0
16 *1073:B_N *264:12 0.000175958
17 *1079:A *264:23 0
18 *1081:B2 *264:38 0.00024014
19 *1081:B1 *264:23 0.000175828
20 *1171:A *264:38 0
*RES
1 *1039:Y *264:12 25.9585 
2 *264:12 *1076:A1 20 
3 *264:12 *264:23 2.17845 
4 *264:23 *1081:A1 20 
5 *264:23 *264:38 43.2136 
6 *264:38 *1080:A 20 
*END

*D_NET *265 0.00275649
*CONN
*I *1091:A I *D sg13g2_nor2_1
*I *1092:A1 I *D sg13g2_a221oi_1
*I *1087:A1 I *D sg13g2_a21oi_1
*I *1040:Y O *D sg13g2_inv_1
*CAP
1 *1091:A 0.000339375
2 *1092:A1 6.40497e-05
3 *1087:A1 4.55677e-05
4 *1040:Y 0.000374235
5 *265:19 0.000620324
6 *265:8 0.000636702
7 *1091:A *329:12 7.92265e-05
8 *265:8 *318:32 0
9 *265:8 *329:12 0
10 *265:8 *406:46 0.000127729
11 *265:19 *318:32 0
12 *265:19 *329:12 0
13 *1087:A2 *1087:A1 8.01995e-05
14 *226:16 *265:8 0.000341228
15 *256:10 *1087:A1 4.78578e-05
16 *258:10 *1091:A 0
17 *261:12 *1092:A1 0
*RES
1 *1040:Y *265:8 43.5638 
2 *265:8 *1087:A1 40.5356 
3 *265:8 *265:19 1.8334 
4 *265:19 *1092:A1 40.5356 
5 *265:19 *1091:A 42.7398 
*END

*D_NET *266 0.00485534
*CONN
*I *1042:B I *D sg13g2_nor2_1
*I *1041:X O *D sg13g2_mux4_1
*CAP
1 *1042:B 0.000403564
2 *1041:X 0.00087135
3 *266:10 0.00127491
4 *1042:B *1103:GATE 0
5 *1042:B *406:46 0
6 *266:10 *1103:GATE 4.77425e-05
7 *266:10 *1292:A 0
8 *266:10 *336:48 0.000209079
9 *266:10 *374:29 5.27212e-05
10 *266:10 *374:37 0.000181192
11 *266:10 *418:30 0.00012816
12 *266:10 *418:32 0.000755076
13 *266:10 *418:47 8.00842e-05
14 *266:10 *422:10 0.000239691
15 N2BEGb[2] *1042:B 0.000564023
16 N2BEGb[7] *1042:B 0
17 N2BEGb[7] *266:10 4.77425e-05
18 *141:22 *266:10 0
*RES
1 *1041:X *266:10 48.9816 
2 *266:10 *1042:B 44.2127 
*END

*D_NET *267 0.00312955
*CONN
*I *1050:A I *D sg13g2_nor2_1
*I *1042:Y O *D sg13g2_nor2_1
*CAP
1 *1050:A 0.000556055
2 *1042:Y 0.000452939
3 *267:8 0.00100899
4 *1050:A *1342:A 0
5 *1050:A *297:24 0
6 *1050:A *426:8 0
7 *267:8 *341:26 0.000929537
8 *267:8 *367:16 0
9 *267:8 *396:12 0.000182023
*RES
1 *1042:Y *267:8 45.2942 
2 *267:8 *1050:A 44.6453 
*END

*D_NET *268 0.00031937
*CONN
*I *1045:B I *D sg13g2_nor3_1
*I *1043:Y O *D sg13g2_nor2b_1
*CAP
1 *1045:B 0.000128114
2 *1043:Y 0.000128114
3 *1045:B *1045:C 1.54008e-05
4 *1045:A *1045:B 4.77425e-05
*RES
1 *1043:Y *1045:B 41.3802 
*END

*D_NET *269 0.00486088
*CONN
*I *1045:C I *D sg13g2_nor3_1
*I *1044:Y O *D sg13g2_nor2_1
*CAP
1 *1045:C 0.00043554
2 *1044:Y 0.00071057
3 *269:12 0.00114611
4 *1045:C *364:18 0.00124806
5 *269:12 *1111:D 8.00842e-05
6 *269:12 *1115:D 0.000272528
7 *269:12 *1147:A 7.86681e-05
8 *269:12 *401:67 0.000143979
9 N1BEG[0] *1045:C 8.00842e-05
10 N1BEG[1] *1045:C 0
11 N2BEG[3] *1045:C 0.000234224
12 N2BEGb[3] *1045:C 0
13 *1045:B *1045:C 1.54008e-05
14 *118:8 *269:12 4.75151e-05
15 *126:10 *269:12 0.000208035
16 *137:8 *269:12 1.54285e-05
17 *237:14 *269:12 0.000144654
*RES
1 *1044:Y *269:12 46.8289 
2 *269:12 *1045:C 46.3242 
*END

*D_NET *270 0.00177698
*CONN
*I *1049:A1 I *D sg13g2_o21ai_1
*I *1045:Y O *D sg13g2_nor3_1
*CAP
1 *1049:A1 0
2 *1045:Y 9.81984e-05
3 *270:16 0.000164808
4 *270:8 0.000263007
5 *270:8 *364:18 0.000442767
6 *270:16 *364:18 0.000286502
7 *270:16 *401:22 0
8 N2BEG[2] *270:16 8.00842e-05
9 N2BEG[3] *270:8 0.000441617
*RES
1 *1045:Y *270:8 42.0806 
2 *270:8 *270:16 41.8746 
3 *270:16 *1049:A1 40 
*END

*D_NET *271 0.000651534
*CONN
*I *1048:A1 I *D sg13g2_o21ai_1
*I *1046:Y O *D sg13g2_nor2b_1
*CAP
1 *1048:A1 0.000254091
2 *1046:Y 0.000254091
3 *1048:A1 *274:10 0.000143351
*RES
1 *1046:Y *1048:A1 42.4617 
*END

*D_NET *272 0.00124488
*CONN
*I *1048:A2 I *D sg13g2_o21ai_1
*I *1047:Y O *D sg13g2_o21ai_1
*CAP
1 *1048:A2 0
2 *1047:Y 0.000173838
3 *272:8 0.000173838
4 N1BEG[2] *272:8 7.33225e-05
5 *1041:S0 *272:8 0.000540846
6 *234:34 *272:8 0
7 *234:47 *272:8 0.000283034
*RES
1 *1047:Y *272:8 42.575 
2 *272:8 *1048:A2 40 
*END

*D_NET *273 0.000766341
*CONN
*I *1049:A2 I *D sg13g2_o21ai_1
*I *1048:Y O *D sg13g2_o21ai_1
*CAP
1 *1049:A2 0.000239263
2 *1048:Y 0.000239263
3 *1049:A2 *1049:B1 0.000272415
4 *1049:A2 *1059:A2 0
5 N2BEG[4] *1049:A2 0
6 *1048:B1 *1049:A2 1.54008e-05
*RES
1 *1048:Y *1049:A2 42.266 
*END

*D_NET *274 0.00482027
*CONN
*I *1050:B I *D sg13g2_nor2_1
*I *1049:Y O *D sg13g2_o21ai_1
*CAP
1 *1050:B 0.000487775
2 *1049:Y 0.000290992
3 *274:18 0.00112036
4 *274:10 0.000923572
5 *1050:B *320:14 0.000112384
6 *1050:B *369:10 0
7 *274:10 *1049:B1 0.000240187
8 *274:10 *396:18 7.30101e-05
9 *274:18 *281:16 0.000127878
10 *274:18 *282:8 0.000128527
11 *274:18 *405:18 0
12 *274:18 *405:38 0
13 *274:18 *414:45 0
14 N1BEG[3] *1050:B 0.000240935
15 N2BEG[2] *274:10 4.76977e-05
16 N2BEG[7] *274:10 0
17 *1048:A1 *274:10 0.000143351
18 *113:10 *274:18 0.000883609
*RES
1 *1049:Y *274:10 42.7089 
2 *274:10 *274:18 46.5405 
3 *274:18 *1050:B 44.429 
*END

*D_NET *275 0.00113529
*CONN
*I *1055:A2 I *D sg13g2_a21oi_1
*I *1051:X O *D sg13g2_mux2_1
*CAP
1 *1055:A2 6.66959e-05
2 *1051:X 8.78114e-05
3 *275:8 0.000154507
4 *1055:A2 *383:71 4.77425e-05
5 *275:8 *296:58 0.000332903
6 *275:8 *410:34 0.000333202
7 *1055:A1 *1055:A2 0.000112426
*RES
1 *1051:X *275:8 41.5862 
2 *275:8 *1055:A2 40.7519 
*END

*D_NET *276 0.000946406
*CONN
*I *1054:A1 I *D sg13g2_o21ai_1
*I *1052:Y O *D sg13g2_nor2b_1
*CAP
1 *1054:A1 0.000441654
2 *1052:Y 0.000441654
3 *1054:A1 *1054:A2 1.54008e-05
4 *1054:A1 *278:10 0
5 *1054:A1 *405:49 4.76977e-05
6 *1054:A1 *414:55 0
*RES
1 *1052:Y *1054:A1 43.6324 
*END

*D_NET *277 0.000289073
*CONN
*I *1054:A2 I *D sg13g2_o21ai_1
*I *1053:Y O *D sg13g2_o21ai_1
*CAP
1 *1054:A2 0.000125799
2 *1053:Y 0.000125799
3 N1BEG[3] *1054:A2 2.20736e-05
4 *1054:A1 *1054:A2 1.54008e-05
5 *235:16 *1054:A2 0
*RES
1 *1053:Y *1054:A2 41.3802 
*END

*D_NET *278 0.00159039
*CONN
*I *1055:B1 I *D sg13g2_a21oi_1
*I *1054:Y O *D sg13g2_o21ai_1
*CAP
1 *1055:B1 7.23774e-05
2 *1054:Y 0.000324762
3 *278:10 0.000397139
4 *278:10 *309:16 0.000124859
5 N1BEG[3] *1055:B1 0.000112198
6 N1BEG[3] *278:10 0.000434199
7 *1054:A1 *278:10 0
8 *124:14 *278:10 0.000124859
*RES
1 *1054:Y *278:10 43.5123 
2 *278:10 *1055:B1 40.7519 
*END

*D_NET *279 0.000591865
*CONN
*I *1060:B1 I *D sg13g2_a21oi_1
*I *1055:Y O *D sg13g2_a21oi_1
*CAP
1 *1060:B1 0.000175744
2 *1055:Y 0.000175744
3 N1BEG[3] *1060:B1 0.000240377
*RES
1 *1055:Y *1060:B1 41.6171 
*END

*D_NET *280 0.00182627
*CONN
*I *1059:A2 I *D sg13g2_a21oi_1
*I *1056:X O *D sg13g2_mux2_1
*CAP
1 *1059:A2 0.000443129
2 *1056:X 0.000443129
3 *1059:A2 *1041:A0 4.04271e-05
4 N2BEG[5] *1059:A2 0.000659207
5 *1041:S0 *1059:A2 0.000240377
6 *1049:A2 *1059:A2 0
*RES
1 *1056:X *1059:A2 44.7792 
*END

*D_NET *281 0.00346172
*CONN
*I *1058:B I *D sg13g2_nand2_1
*I *1057:X O *D sg13g2_mux2_1
*CAP
1 *1058:B 7.67405e-05
2 *1057:X 0.000682547
3 *281:16 0.000759288
4 *281:16 *282:8 0
5 *281:16 *311:10 0.00118592
6 N2BEG[5] *281:16 0.000159983
7 *1037:A *281:16 0
8 *115:26 *1058:B 0.000111894
9 *135:14 *281:16 0.000176279
10 *142:12 *281:16 0
11 *235:16 *281:16 0
12 *235:24 *1058:B 0
13 *235:24 *281:16 0.000181192
14 *274:18 *281:16 0.000127878
*RES
1 *1057:X *281:16 48.1473 
2 *281:16 *1058:B 40.7519 
*END

*D_NET *282 0.00217765
*CONN
*I *1060:A1 I *D sg13g2_a21oi_1
*I *1058:Y O *D sg13g2_nand2_1
*CAP
1 *1060:A1 0.000152493
2 *1058:Y 0.000275162
3 *282:8 0.000427655
4 *1060:A1 *1060:A2 1.54008e-05
5 *1060:A1 *369:10 0.000175693
6 *282:8 *1112:D 0.000181192
7 *282:8 *346:16 0
8 *235:16 *282:8 0.000496984
9 *235:24 *282:8 0.000181192
10 *236:12 *1060:A1 0.000143351
11 *274:18 *282:8 0.000128527
12 *281:16 *282:8 0
*RES
1 *1058:Y *282:8 43.5638 
2 *282:8 *1060:A1 41.6171 
*END

*D_NET *283 0.000257935
*CONN
*I *1060:A2 I *D sg13g2_a21oi_1
*I *1059:Y O *D sg13g2_a21oi_1
*CAP
1 *1060:A2 0.000113567
2 *1059:Y 0.000113567
3 *1055:A1 *1060:A2 1.54008e-05
4 *1060:A1 *1060:A2 1.54008e-05
5 *236:12 *1060:A2 0
*RES
1 *1059:Y *1060:A2 41.133 
*END

*D_NET *284 0.00112416
*CONN
*I *1065:A2 I *D sg13g2_a21oi_1
*I *1061:X O *D sg13g2_mux2_1
*CAP
1 *1065:A2 5.13427e-05
2 *1061:X 0.00024598
3 *284:8 0.000297323
4 *1065:A2 *1065:B1 0
5 *1065:A2 *290:10 1.54008e-05
6 *284:8 *362:18 0
7 *284:8 *393:10 0.000282163
8 *284:8 *410:34 0
9 *284:8 *413:10 0
10 *263:24 *284:8 0.000231947
*RES
1 *1061:X *284:8 42.575 
2 *284:8 *1065:A2 40.5356 
*END

*D_NET *285 0.00255225
*CONN
*I *1064:A1 I *D sg13g2_o21ai_1
*I *1062:Y O *D sg13g2_nor2b_1
*CAP
1 *1064:A1 0
2 *1062:Y 0.00047438
3 *285:10 0.00047438
4 *285:10 *1062:A 0.00011101
5 *285:10 *345:18 0
6 *285:10 *348:10 0.000498025
7 *285:10 *355:26 0.000337091
8 NN4BEG[3] *285:10 0.00052977
9 *233:10 *285:10 0.000127594
*RES
1 *1062:Y *285:10 45.8916 
2 *285:10 *1064:A1 40 
*END

*D_NET *286 0.000833714
*CONN
*I *1064:A2 I *D sg13g2_o21ai_1
*I *1063:Y O *D sg13g2_o21ai_1
*CAP
1 *1064:A2 0.000296932
2 *1063:Y 0.000296932
3 *1064:A2 *1065:B1 0.00023985
4 *1064:A2 *409:24 0
5 *1064:A2 *409:34 0
*RES
1 *1063:Y *1064:A2 42.8325 
*END

*D_NET *287 0.000809735
*CONN
*I *1065:B1 I *D sg13g2_a21oi_1
*I *1064:Y O *D sg13g2_o21ai_1
*CAP
1 *1065:B1 0.000284942
2 *1064:Y 0.000284942
3 *1065:B1 *318:18 0
4 *1065:B1 *395:22 0
5 *1064:A2 *1065:B1 0.00023985
6 *1065:A2 *1065:B1 0
*RES
1 *1064:Y *1065:B1 43.0694 
*END

*D_NET *288 0.00269859
*CONN
*I *1071:A I *D sg13g2_nor2_1
*I *1065:Y O *D sg13g2_a21oi_1
*CAP
1 *1071:A 0.000125969
2 *1065:Y 0.000180713
3 *288:8 0.000306682
4 *1071:A *354:34 0.000208035
5 *1071:A *368:6 0.000143351
6 *288:8 *1214:A 0.000126354
7 *288:8 *410:34 0.000865964
8 *288:8 *413:10 0.000741519
*RES
1 *1065:Y *288:8 44.0582 
2 *288:8 *1071:A 41.4008 
*END

*D_NET *289 0.00212835
*CONN
*I *1070:A2 I *D sg13g2_a221oi_1
*I *1066:X O *D sg13g2_mux2_1
*CAP
1 *1070:A2 0.000187271
2 *1066:X 0.00025786
3 *289:10 0.000445132
4 *1070:A2 *290:10 0.000208035
5 *289:10 *293:10 0.000339197
6 *289:10 *361:12 0.000338279
7 *289:10 *380:14 0.000272718
8 *1067:B *1070:A2 7.98582e-05
*RES
1 *1066:X *289:10 43.4196 
2 *289:10 *1070:A2 41.9338 
*END

*D_NET *290 0.0011104
*CONN
*I *1070:B1 I *D sg13g2_a221oi_1
*I *1067:Y O *D sg13g2_nand2b_1
*CAP
1 *1070:B1 0
2 *1067:Y 0.00019947
3 *290:10 0.00019947
4 *290:10 *381:14 7.92265e-05
5 *290:10 *410:34 0.000229707
6 *1065:A2 *290:10 1.54008e-05
7 *1070:A2 *290:10 0.000208035
8 *263:24 *290:10 0.000179087
*RES
1 *1067:Y *290:10 42.4926 
2 *290:10 *1070:B1 40 
*END

*D_NET *291 0.00121304
*CONN
*I *1069:B I *D sg13g2_nor2_1
*I *1068:Y O *D sg13g2_nor2_1
*CAP
1 *1069:B 0.00047852
2 *1068:Y 0.00047852
3 *1069:B *1070:B2 0
4 *1069:B *393:10 0
5 *1069:A *1069:B 0.00017625
6 *1070:C1 *1069:B 7.97475e-05
*RES
1 *1068:Y *1069:B 44.045 
*END

*D_NET *292 0.000671106
*CONN
*I *1070:B2 I *D sg13g2_a221oi_1
*I *1069:Y O *D sg13g2_nor2_1
*CAP
1 *1070:B2 0.000207799
2 *1069:Y 0.000207799
3 *1069:B *1070:B2 0
4 *1070:C1 *1070:B2 0.000255508
*RES
1 *1069:Y *1070:B2 41.9673 
*END

*D_NET *293 0.00314642
*CONN
*I *1071:B I *D sg13g2_nor2_1
*I *1070:Y O *D sg13g2_a221oi_1
*CAP
1 *1071:B 0
2 *1070:Y 0.000702434
3 *293:10 0.000702434
4 *293:10 *1067:A_N 0.000208035
5 *293:10 *360:12 0
6 *293:10 *361:12 0
7 *1068:A *293:10 3.23417e-05
8 *1070:C1 *293:10 1.54008e-05
9 *155:10 *293:10 0.000443782
10 *178:13 *293:10 7.30101e-05
11 *222:8 *293:10 0.000549931
12 *231:36 *293:10 7.98582e-05
13 *289:10 *293:10 0.000339197
*RES
1 *1070:Y *293:10 47.6838 
2 *293:10 *1071:B 40 
*END

*D_NET *294 0.000287155
*CONN
*I *1076:A2 I *D sg13g2_a21oi_1
*I *1072:X O *D sg13g2_mux2_1
*CAP
1 *1076:A2 9.5835e-05
2 *1072:X 9.5835e-05
3 *1079:A *1076:A2 1.54008e-05
4 *264:12 *1076:A2 8.00842e-05
*RES
1 *1072:X *1076:A2 41.133 
*END

*D_NET *295 0.000304863
*CONN
*I *1075:A1 I *D sg13g2_o21ai_1
*I *1073:Y O *D sg13g2_nor2b_1
*CAP
1 *1075:A1 0
2 *1073:Y 0.00011495
3 *295:8 0.00011495
4 *295:8 *349:10 0
5 *295:8 *430:10 0
6 *245:8 *295:8 7.49633e-05
*RES
1 *1073:Y *295:8 41.0918 
2 *295:8 *1075:A1 40 
*END

*D_NET *296 0.0159441
*CONN
*I *1099:GATE I *D sg13g2_dlhq_1
*I *1098:GATE I *D sg13g2_dlhq_1
*I *1116:GATE I *D sg13g2_dlhq_1
*I *1115:GATE I *D sg13g2_dlhq_1
*I *1114:GATE I *D sg13g2_dlhq_1
*I *1111:GATE I *D sg13g2_dlhq_1
*I *1101:GATE I *D sg13g2_dlhq_1
*I *1100:GATE I *D sg13g2_dlhq_1
*I *1222:X O *D sg13g2_buf_8
*CAP
1 *1099:GATE 2.60565e-05
2 *1098:GATE 0
3 *1116:GATE 0.000271741
4 *1115:GATE 0.00023401
5 *1114:GATE 0
6 *1111:GATE 0
7 *1101:GATE 0.000118842
8 *1100:GATE 0
9 *1222:X 0.000328988
10 *296:109 0.000405142
11 *296:92 0.000539255
12 *296:67 0.000444119
13 *296:58 0.00127262
14 *296:40 0.00141247
15 *296:38 0.000614006
16 *296:21 0.000817903
17 *296:10 0.000652434
18 *1099:GATE *351:28 4.77425e-05
19 *1099:GATE *371:36 4.77425e-05
20 *1101:GATE *1132:A 0
21 *1101:GATE *316:10 0
22 *1101:GATE *332:14 0.000180885
23 *1101:GATE *422:10 0
24 *1116:GATE *1098:D 1.54008e-05
25 *296:10 *1141:A 0
26 *296:10 *380:24 0.000304985
27 *296:21 *1097:A1 0.000181192
28 *296:21 *332:14 0.000762148
29 *296:21 *379:47 0
30 *296:21 *422:10 0
31 *296:38 *1132:A 0.000240187
32 *296:38 *362:18 0.000144542
33 *296:38 *383:48 0
34 *296:58 *326:10 0.000144542
35 *296:58 *378:22 0.000287256
36 *296:58 *378:45 0.000181192
37 *296:58 *383:71 0.000181141
38 *296:58 *392:26 0.000283615
39 *296:58 *392:34 0.000232111
40 *296:58 *401:30 0
41 *296:58 *401:40 0
42 *296:58 *410:34 0.000578927
43 *296:58 *410:40 7.33225e-05
44 *296:67 *326:10 4.77425e-05
45 *296:67 *326:18 0.000240377
46 *296:92 *350:22 0
47 *296:92 *410:34 0
48 *296:109 *1336:A 0.000176369
49 *296:109 *361:12 0.000391517
50 *296:109 *380:24 0
51 *296:109 *383:34 0.00012816
52 *296:109 *397:20 0.000602461
53 N2BEGb[7] *1116:GATE 0
54 N4BEG[5] *296:40 0.000391933
55 N4BEG[5] *296:58 0.00106649
56 N4BEG[5] *296:92 0.000181297
57 N4BEG[6] *296:109 0
58 *1172:A *296:10 0
59 *109:14 *1115:GATE 0.000207845
60 *138:18 *296:38 0
61 *143:16 *296:109 0.000241052
62 *234:8 *296:58 0.000126354
63 *237:14 *296:58 0.000181385
64 *237:25 *1115:GATE 0
65 *238:12 *1115:GATE 0
66 *240:10 *296:40 0.000370459
67 *240:10 *296:58 7.44734e-05
68 *240:10 *296:92 0.000158785
69 *275:8 *296:58 0.000332903
*RES
1 *1222:X *296:10 23.4608 
2 *296:10 *1100:GATE 20 
3 *296:10 *296:21 24.0994 
4 *296:21 *1101:GATE 41.3802 
5 *296:21 *296:38 43.5638 
6 *296:38 *296:40 1.8334 
7 *296:40 *296:58 34.42 
8 *296:58 *1111:GATE 20 
9 *296:58 *296:67 2.1836 
10 *296:67 *1114:GATE 20 
11 *296:67 *1115:GATE 22.266 
12 *296:40 *1116:GATE 42.1836 
13 *296:38 *296:92 1.8334 
14 *296:92 *1098:GATE 40 
15 *296:92 *296:109 45.2839 
16 *296:109 *1099:GATE 40.3193 
*END

*D_NET *297 0.0120261
*CONN
*I *1135:A I *D sg13g2_buf_1
*I *1103:D I *D sg13g2_dlhq_1
*I *1275:X O *D sg13g2_buf_1
*CAP
1 *1135:A 0
2 *1103:D 0
3 *1275:X 0.000377431
4 *297:24 0.00053156
5 *297:16 0.00216835
6 *297:10 0.00201422
7 *297:10 *308:12 0
8 *297:10 *440:8 0.000111828
9 *297:16 *308:14 0.00535563
10 *297:16 *369:16 0.00108146
11 *297:16 *440:12 0
12 *297:24 *318:32 0
13 *297:24 *325:16 0
14 *297:24 *341:24 0
15 *297:24 *341:26 0
16 *297:24 *426:8 0
17 *1050:A *297:24 0
18 *1258:A *297:10 0.000241512
19 *1274:A *297:10 0.00014417
*RES
1 *1275:X *297:10 43.6977 
2 *297:10 *297:16 45.1423 
3 *297:16 *297:24 44.3775 
4 *297:24 *1103:D 20 
5 *297:16 *1135:A 20 
*END

*D_NET *298 0.0100892
*CONN
*I *1385:A I *D sg13g2_buf_1
*I *1168:X O *D sg13g2_buf_1
*CAP
1 *1385:A 7.04634e-05
2 *1168:X 0.00014992
3 *298:18 0.00260968
4 *298:8 0.00268914
5 *1385:A *460:26 6.97048e-05
6 *298:8 *426:14 0
7 *298:18 *426:10 0
8 *298:18 *447:24 0.00255667
9 *298:18 *458:10 0
10 *298:18 *460:12 0.00194364
11 FrameData_O[5] *298:8 0
12 *74:11 *298:18 0
13 *74:15 *298:18 0
14 *85:21 *298:18 0
*RES
1 *1168:X *298:8 41.4008 
2 *298:8 *298:18 49.5816 
3 *298:18 *1385:A 20.9167 
*END

*D_NET *299 0.0026196
*CONN
*I *1386:A I *D sg13g2_buf_1
*I *1150:X O *D sg13g2_buf_1
*CAP
1 *1386:A 0.000119272
2 *1150:X 0.000738286
3 *299:10 0.000857559
4 *299:10 *307:12 0
5 *299:10 *408:10 0.000179357
6 *299:10 *412:10 0.000181192
7 *299:10 *453:8 0
8 FrameStrobe_O[4] *1386:A 0.000176369
9 FrameStrobe_O[6] *1386:A 0
10 *204:13 *299:10 0.000287706
11 *205:19 *299:10 0
12 *207:11 *299:10 0
13 *213:15 *299:10 7.98567e-05
*RES
1 *1150:X *299:10 47.0658 
2 *299:10 *1386:A 41.1845 
*END

*D_NET *300 0.00350315
*CONN
*I *1387:A I *D sg13g2_buf_1
*I *1151:X O *D sg13g2_buf_1
*CAP
1 *1387:A 0.000302192
2 *1151:X 0.000847103
3 *300:12 0.0011493
4 *1387:A *301:12 0
5 *1387:A *302:14 0
6 *300:12 *437:28 0.000556379
7 *300:12 *453:8 0
8 FrameStrobe_O[6] *1387:A 0.000177069
9 FrameStrobe_O[7] *1387:A 4.77425e-05
10 *83:33 *300:12 0
11 *205:19 *300:12 0
12 *206:9 *300:12 0.000189058
13 *211:21 *300:12 0
14 *214:23 *300:12 0
15 *216:27 *300:12 0.000234311
*RES
1 *1151:X *300:12 49.1773 
2 *300:12 *1387:A 43.1518 
*END

*D_NET *301 0.00470112
*CONN
*I *1278:A I *D sg13g2_buf_1
*I *1152:X O *D sg13g2_buf_1
*CAP
1 *1278:A 0
2 *1152:X 0.00221389
3 *301:12 0.00221389
4 *301:12 *1280:A 0
5 *301:12 *302:14 0
6 *301:12 *427:14 0.00027334
7 *301:12 *452:14 0
8 *1161:A *301:12 0
9 *1387:A *301:12 0
10 *70:9 *301:12 0
11 *71:9 *301:12 0
*RES
1 *1152:X *301:12 41.7925 
2 *301:12 *1278:A 20 
*END

*D_NET *302 0.00573215
*CONN
*I *1279:A I *D sg13g2_buf_1
*I *1153:X O *D sg13g2_buf_1
*CAP
1 *1279:A 0
2 *1153:X 0.000867508
3 *302:14 0.00128122
4 *302:8 0.00214873
5 *302:8 *408:16 0
6 *302:14 *436:22 0
7 *302:14 *438:24 0
8 *302:14 *452:14 0
9 *1150:A *302:8 0.00143469
10 *1159:A *302:8 0
11 *1387:A *302:14 0
12 *301:12 *302:14 0
*RES
1 *1153:X *302:8 49.6202 
2 *302:8 *302:14 31.2991 
3 *302:14 *1279:A 20 
*END

*D_NET *303 0.00111107
*CONN
*I *1280:A I *D sg13g2_buf_1
*I *1154:X O *D sg13g2_buf_1
*CAP
1 *1280:A 0.000153324
2 *1154:X 0.000114868
3 *303:8 0.000268191
4 *1280:A *306:12 0
5 *303:8 *304:12 0
6 *303:8 *306:20 0.000287343
7 *303:8 *453:8 0.000287342
8 FrameStrobe_O[10] *1280:A 0
9 *301:12 *1280:A 0
*RES
1 *1154:X *303:8 41.8334 
2 *303:8 *1280:A 41.4008 
*END

*D_NET *304 0.00448401
*CONN
*I *1281:A I *D sg13g2_buf_1
*I *1155:X O *D sg13g2_buf_1
*CAP
1 *1281:A 0
2 *1155:X 2.41961e-05
3 *304:12 0.0011505
4 *304:8 0.00117469
5 *304:12 *306:20 0
6 *304:12 *307:12 0
7 *304:12 *435:32 0
8 *304:12 *437:28 0
9 *304:12 *453:8 0.000606279
10 *304:12 *454:10 0
11 *304:12 *455:10 0.00113531
12 *304:12 *457:8 0.000393039
13 *303:8 *304:12 0
*RES
1 *1155:X *304:8 40.3193 
2 *304:8 *304:12 35.1822 
3 *304:12 *1281:A 20 
*END

*D_NET *305 0.00325094
*CONN
*I *1282:A I *D sg13g2_buf_1
*I *1156:X O *D sg13g2_buf_1
*CAP
1 *1282:A 0.000226637
2 *1156:X 0.000489267
3 *305:10 0.000715904
4 *1282:A *1376:A 4.77425e-05
5 *1282:A *306:12 0
6 *305:10 *437:28 0
7 *305:10 *455:10 0.000976799
8 *305:10 *459:16 4.77425e-05
9 FrameStrobe_O[10] *1282:A 0.000241052
10 FrameStrobe_O[13] *1282:A 0.000144585
11 *85:21 *305:10 0.000180603
12 *96:8 *305:10 0.000180603
*RES
1 *1156:X *305:10 46.3551 
2 *305:10 *1282:A 42.266 
*END

*D_NET *306 0.00401167
*CONN
*I *1283:A I *D sg13g2_buf_1
*I *1157:X O *D sg13g2_buf_1
*CAP
1 *1283:A 0
2 *1157:X 0
3 *306:20 0.000249287
4 *306:12 0.00169401
5 *306:6 0.00144472
6 *306:12 *1379:A 0
7 *306:12 *436:22 0
8 *306:12 *442:32 0
9 *306:12 *455:10 8.00842e-05
10 FrameStrobe_O[10] *306:12 7.98567e-05
11 FrameStrobe_O[13] *306:12 0
12 FrameStrobe_O[13] *306:20 0
13 FrameStrobe_O[15] *306:20 0.000176369
14 *1161:A *306:12 0
15 *1280:A *306:12 0
16 *1282:A *306:12 0
17 *303:8 *306:20 0.000287343
18 *304:12 *306:20 0
*RES
1 *1157:X *306:6 40 
2 *306:6 *306:12 34.111 
3 *306:12 *306:20 42.7707 
4 *306:20 *1283:A 20 
*END

*D_NET *307 0.00436402
*CONN
*I *1284:A I *D sg13g2_buf_1
*I *1158:X O *D sg13g2_buf_1
*CAP
1 *1284:A 0
2 *1158:X 0
3 *307:12 0.00123232
4 *307:6 0.00123232
5 *307:12 *453:8 0
6 *307:12 *454:10 0
7 FrameStrobe_O[17] *307:12 8.00842e-05
8 *100:8 *307:12 0
9 *105:8 *307:12 0.000501461
10 *203:17 *307:12 0.000391658
11 *207:11 *307:12 0.00092617
12 *212:13 *307:12 0
13 *214:17 *307:12 0
14 *299:10 *307:12 0
15 *304:12 *307:12 0
*RES
1 *1158:X *307:6 40 
2 *307:6 *307:12 33.9874 
3 *307:12 *1284:A 20 
*END

*D_NET *308 0.0156727
*CONN
*I *1104:D I *D sg13g2_dlhq_1
*I *1136:A I *D sg13g2_buf_1
*I *1276:X O *D sg13g2_buf_1
*CAP
1 *1104:D 0.000168842
2 *1136:A 0
3 *1276:X 0.000601068
4 *308:14 0.00132498
5 *308:12 0.0017572
6 *1104:D *1292:A 0.000424342
7 *1104:D *418:30 0.000187821
8 *308:12 *330:16 0
9 *308:12 *440:8 0.000112501
10 *308:14 *1292:A 0.000601453
11 *308:14 *374:37 0
12 *308:14 *407:12 0.00472204
13 *308:14 *418:12 0
14 *1236:A *308:14 0
15 *1247:A *308:12 1.55212e-05
16 *1258:A *308:14 0
17 *1269:A *308:12 0.000112656
18 *1274:A *308:12 0
19 *1275:A *308:12 0.00011243
20 *1276:A *308:12 0.00017622
21 *297:10 *308:12 0
22 *297:16 *308:14 0.00535563
*RES
1 *1276:X *308:12 45.9637 
2 *308:12 *308:14 26.3062 
3 *308:14 *1136:A 40 
4 *308:14 *1104:D 42.3999 
*END

*D_NET *309 0.00826639
*CONN
*I *1285:A I *D sg13g2_buf_1
*I *1169:X O *D sg13g2_buf_1
*CAP
1 *1285:A 0
2 *1169:X 0
3 *309:16 0.00128135
4 *309:6 0.00128135
5 *309:16 *1297:A 8.00842e-05
6 *309:16 *315:16 0.000231238
7 *309:16 *326:10 0.00012785
8 *309:16 *352:12 0.00192359
9 *309:16 *378:14 0.000179386
10 *309:16 *383:61 0.000578559
11 *309:16 *383:71 0.000391177
12 N4BEG[5] *309:16 0.00206695
13 *124:14 *309:16 0
14 *234:8 *309:16 0
15 *278:10 *309:16 0.000124859
*RES
1 *1169:X *309:6 40 
2 *309:6 *309:16 38.3649 
3 *309:16 *1285:A 20 
*END

*D_NET *310 0.0171824
*CONN
*I *1286:A I *D sg13g2_buf_1
*I *1170:X O *D sg13g2_buf_1
*CAP
1 *1286:A 0
2 *1170:X 5.80611e-05
3 *310:14 0.00113667
4 *310:10 0.00326439
5 *310:8 0.00218578
6 *310:8 *385:23 7.92265e-05
7 *310:10 *1106:D 0.000499383
8 *310:10 *1292:A 0
9 *310:10 *312:14 0.00410579
10 *310:10 *330:34 0.00171537
11 *310:10 *358:16 0.000128353
12 *310:10 *374:29 0
13 *310:10 *374:37 0
14 *310:10 *385:50 0
15 *310:10 *393:18 0
16 *310:10 *429:12 0
17 *310:10 *440:12 0.00400939
18 *310:14 *315:16 0
19 *310:14 *439:6 0
20 *109:8 *310:14 0
*RES
1 *1170:X *310:8 40.5356 
2 *310:8 *310:10 32.9806 
3 *310:10 *310:14 30.7017 
4 *310:14 *1286:A 20 
*END

*D_NET *311 0.0178118
*CONN
*I *1287:A I *D sg13g2_buf_1
*I *1171:X O *D sg13g2_buf_1
*CAP
1 *1287:A 0.000531954
2 *1171:X 6.83478e-05
3 *311:10 0.00269549
4 *311:8 0.00223188
5 *1287:A *1296:A 0.000757166
6 *1287:A *315:16 0
7 *1287:A *439:6 0
8 *311:10 *1112:D 0
9 *311:10 *1181:A 0
10 *311:10 *332:14 0.00351801
11 *311:10 *345:18 0.00442873
12 *311:10 *373:14 0
13 *311:10 *375:16 0.00189195
14 *311:10 *405:38 0.000502364
15 *311:10 *422:10 0
16 *311:10 *424:8 0
17 *1037:A *311:10 0
18 *281:16 *311:10 0.00118592
*RES
1 *1171:X *311:8 40.5356 
2 *311:8 *311:10 35.6998 
3 *311:10 *1287:A 45.0779 
*END

*D_NET *312 0.00881093
*CONN
*I *1288:A I *D sg13g2_buf_1
*I *1172:X O *D sg13g2_buf_1
*CAP
1 *1288:A 0
2 *1172:X 0.000209777
3 *312:14 0.00165303
4 *312:8 0.00186281
5 *312:14 *1180:A 0.000444692
6 *312:14 *374:12 0
7 *312:14 *393:18 0.00053484
8 *312:14 *429:12 0
9 *180:13 *312:14 0
10 *310:10 *312:14 0.00410579
*RES
1 *1172:X *312:8 41.6171 
2 *312:8 *312:14 40.1056 
3 *312:14 *1288:A 20 
*END

*D_NET *313 0.0107674
*CONN
*I *1289:A I *D sg13g2_buf_1
*I *1173:X O *D sg13g2_buf_1
*CAP
1 *1289:A 0
2 *1173:X 0.00059149
3 *313:16 0.00209514
4 *313:8 0.00268663
5 *313:8 *341:18 0
6 *313:8 *373:12 0.000791718
7 *313:16 *330:26 0
8 *313:16 *451:14 0.00431516
9 *1173:A *313:8 0
10 *111:10 *313:16 0.000287256
11 *179:17 *313:8 0
*RES
1 *1173:X *313:8 46.1594 
2 *313:8 *313:16 43.5767 
3 *313:16 *1289:A 20 
*END

*D_NET *314 0.00608746
*CONN
*I *1290:A I *D sg13g2_buf_1
*I *1174:X O *D sg13g2_buf_1
*CAP
1 *1290:A 0
2 *1174:X 0.00129493
3 *314:10 0.00174879
4 *314:6 0.00304373
5 *314:6 *378:8 0
6 *314:10 *325:16 0
7 *314:10 *341:24 0
8 *314:10 *366:14 0
9 *314:10 *418:12 0
10 *179:17 *314:6 0
*RES
1 *1174:X *314:6 31.1343 
2 *314:6 *314:10 40.3734 
3 *314:10 *1290:A 40 
*END

*D_NET *315 0.0052138
*CONN
*I *1291:A I *D sg13g2_buf_1
*I *1175:X O *D sg13g2_buf_1
*CAP
1 *1291:A 0
2 *1175:X 0.000174386
3 *315:16 0.00139561
4 *315:8 0.00157
5 *315:16 *1296:A 0
6 *315:16 *326:10 0.000127936
7 *315:16 *372:12 0
8 *315:16 *378:14 0
9 *315:16 *414:32 0.00139591
10 *315:16 *439:6 0.000208063
11 *1287:A *315:16 0
12 *109:8 *315:16 0
13 *115:26 *315:8 1.54008e-05
14 *139:8 *315:8 4.77425e-05
15 *234:8 *315:16 0
16 *238:12 *315:8 4.75166e-05
17 *309:16 *315:16 0.000231238
18 *310:14 *315:16 0
*RES
1 *1175:X *315:8 41.4008 
2 *315:8 *315:16 34.1213 
3 *315:16 *1291:A 20 
*END

*D_NET *316 0.00548527
*CONN
*I *1292:A I *D sg13g2_buf_1
*I *1176:X O *D sg13g2_buf_1
*CAP
1 *1292:A 0.000874206
2 *1176:X 0.000663858
3 *316:10 0.00153806
4 *1292:A *366:14 0
5 *1292:A *374:29 0
6 *1292:A *407:12 1.54008e-05
7 *1292:A *418:12 0.000653419
8 *1292:A *418:30 0
9 *316:10 *1104:GATE 0
10 *316:10 *330:32 0
11 *316:10 *406:32 0
12 *316:10 *407:39 0.000506111
13 *316:10 *429:20 0
14 N2BEGb[7] *316:10 0
15 *1093:B *316:10 0
16 *1101:GATE *316:10 0
17 *1104:D *1292:A 0.000424342
18 *225:8 *316:10 0.000208412
19 *266:10 *1292:A 0
20 *308:14 *1292:A 0.000601453
21 *310:10 *1292:A 0
*RES
1 *1176:X *316:10 46.3242 
2 *316:10 *1292:A 49.4245 
*END

*D_NET *317 0.00112914
*CONN
*I *1293:A I *D sg13g2_buf_1
*I *1177:X O *D sg13g2_buf_1
*CAP
1 *1293:A 2.54402e-05
2 *1177:X 9.60979e-05
3 *317:8 0.000121538
4 *1293:A *1147:A 4.78128e-05
5 *317:8 *322:8 0.000448929
6 *116:10 *317:8 0.00034162
7 *180:13 *1293:A 4.76977e-05
*RES
1 *1177:X *317:8 42.0806 
2 *317:8 *1293:A 40.3193 
*END

*D_NET *318 0.00831344
*CONN
*I *1294:A I *D sg13g2_buf_1
*I *1178:X O *D sg13g2_buf_1
*CAP
1 *1294:A 0
2 *1178:X 0.000895745
3 *318:32 0.00203687
4 *318:18 0.00293261
5 *318:18 *320:8 1.54008e-05
6 *318:18 *323:14 0
7 *318:18 *367:10 0.000465308
8 *318:18 *385:23 0
9 *318:18 *385:30 0
10 *318:32 *1105:D 0.000234224
11 *318:32 *1184:A 0
12 *318:32 *319:30 0.000285606
13 *318:32 *325:16 0
14 *318:32 *349:10 0
15 *318:32 *349:24 0.000549391
16 *318:32 *384:44 0.000232968
17 *318:32 *389:10 0
18 *318:32 *406:46 0
19 *318:32 *430:10 0
20 *1065:B1 *318:18 0
21 *1082:A *318:18 0
22 *1082:B *318:18 0
23 *1092:C1 *318:32 0.000180885
24 *1170:A *318:18 0
25 *226:22 *318:32 0.000127224
26 *227:10 *318:32 0.000229324
27 *253:14 *318:32 0.000127878
28 *259:8 *318:32 0
29 *265:8 *318:32 0
30 *265:19 *318:32 0
31 *297:24 *318:32 0
*RES
1 *1178:X *318:18 48.7756 
2 *318:18 *318:32 40.3013 
3 *318:32 *1294:A 20 
*END

*D_NET *319 0.0150469
*CONN
*I *1105:D I *D sg13g2_dlhq_1
*I *1137:A I *D sg13g2_buf_1
*I *1277:X O *D sg13g2_buf_1
*CAP
1 *1105:D 0.000116059
2 *1137:A 0
3 *1277:X 0.000353692
4 *319:30 0.000309389
5 *319:22 0.00215489
6 *319:18 0.00355378
7 *319:12 0.00194591
8 *1105:D *354:34 4.77425e-05
9 *1105:D *355:26 4.77425e-05
10 *319:12 *330:16 1.55958e-05
11 *319:12 *341:18 1.5393e-05
12 *319:18 *320:20 0.00103156
13 *319:18 *321:16 0.000375024
14 *319:18 *330:26 0.00428862
15 *319:18 *429:12 0
16 *319:22 *323:24 0
17 *319:22 *338:24 0
18 *319:22 *340:14 0
19 *319:30 *349:24 0
20 *1274:A *319:12 0.000192175
21 *1277:A *319:12 7.94462e-05
22 *318:32 *1105:D 0.000234224
23 *318:32 *319:30 0.000285606
*RES
1 *1277:X *319:12 43.3681 
2 *319:12 *319:18 44.1226 
3 *319:18 *319:22 39.1374 
4 *319:22 *319:30 41.8746 
5 *319:30 *1137:A 40 
6 *319:30 *1105:D 41.4111 
*END

*D_NET *320 0.0152535
*CONN
*I *1295:A I *D sg13g2_buf_1
*I *1179:X O *D sg13g2_buf_1
*CAP
1 *1295:A 0.000617132
2 *1179:X 7.12488e-05
3 *320:20 0.000982756
4 *320:14 0.00168753
5 *320:8 0.00139315
6 *1295:A *1143:A 0
7 *1295:A *1147:A 0
8 *1295:A *1303:A 0.000175693
9 *1295:A *331:24 0
10 *1295:A *401:67 0.00015922
11 *320:14 *330:26 0.00170793
12 *320:14 *345:24 0
13 *320:14 *347:14 0.00235463
14 *320:14 *374:52 0.000126358
15 *320:14 *406:12 0.00241389
16 *320:14 *424:8 0
17 *320:14 *440:22 0
18 *320:14 *451:14 0
19 *320:20 *321:16 0.00177538
20 *320:20 *330:26 0.00012816
21 *1050:B *320:14 0.000112384
22 *115:10 *320:20 0.000501045
23 *141:12 *320:14 0
24 *180:13 *1295:A 0
25 *318:18 *320:8 1.54008e-05
26 *319:18 *320:20 0.00103156
*RES
1 *1179:X *320:8 40.5356 
2 *320:8 *320:14 40.6309 
3 *320:14 *320:20 48.2606 
4 *320:20 *1295:A 25.9637 
*END

*D_NET *321 0.0111354
*CONN
*I *1296:A I *D sg13g2_buf_1
*I *1180:X O *D sg13g2_buf_1
*CAP
1 *1296:A 0.0010729
2 *1180:X 2.61089e-05
3 *321:16 0.00315737
4 *321:8 0.00211057
5 *1296:A *1300:A 0
6 *1296:A *439:6 0
7 *321:16 *330:26 0
8 *321:16 *347:14 0
9 *321:16 *374:12 0.000547361
10 *321:16 *375:24 0.000286283
11 *321:16 *407:39 0
12 *321:16 *429:12 0
13 *321:16 *451:22 0.000447182
14 *1287:A *1296:A 0.000757166
15 *119:8 *1296:A 7.99019e-05
16 *121:10 *321:16 0.000500166
17 *143:8 *321:16 0
18 *315:16 *1296:A 0
19 *319:18 *321:16 0.000375024
20 *320:20 *321:16 0.00177538
*RES
1 *1180:X *321:8 40.3193 
2 *321:8 *321:16 42.2789 
3 *321:16 *1296:A 29.7541 
*END

*D_NET *322 0.00341165
*CONN
*I *1297:A I *D sg13g2_buf_1
*I *1181:X O *D sg13g2_buf_1
*CAP
1 *1297:A 0.000387109
2 *1181:X 0.000699587
3 *322:8 0.0010867
4 *1297:A *1300:A 0
5 *1297:A *331:24 0
6 *322:8 *1185:A 0.00012816
7 *322:8 *375:16 0
8 *322:8 *397:34 0.000340704
9 *322:8 *401:67 0
10 *108:8 *1297:A 0.000240377
11 *116:10 *322:8 0
12 *180:17 *322:8 0
13 *237:14 *322:8 0
14 *309:16 *1297:A 8.00842e-05
15 *317:8 *322:8 0.000448929
*RES
1 *1181:X *322:8 47.2718 
2 *322:8 *1297:A 43.5638 
*END

*D_NET *323 0.00884944
*CONN
*I *1298:A I *D sg13g2_buf_1
*I *1182:X O *D sg13g2_buf_1
*CAP
1 *1298:A 0
2 *1182:X 0.000664157
3 *323:28 0
4 *323:24 0.00132058
5 *323:20 0.00201375
6 *323:14 0.00135732
7 *323:14 *1077:A0 0.000369318
8 *323:14 *390:14 0
9 *323:20 *1149:A 0.00039332
10 *323:20 *349:24 0
11 *323:20 *384:57 0
12 *323:20 *385:19 0.000213045
13 *323:20 *385:50 0.000641041
14 *323:20 *389:10 0.00177501
15 *323:24 *411:16 0
16 *323:24 *420:14 0
17 *1077:S *323:14 0.000101896
18 *1081:C1 *323:14 0
19 *1081:B1 *323:14 0
20 *246:8 *323:20 0
21 *318:18 *323:14 0
22 *319:22 *323:24 0
*RES
1 *1182:X *323:14 46.3139 
2 *323:14 *323:20 30.094 
3 *323:20 *323:24 32.7102 
4 *323:24 *323:28 40 
5 *323:28 *1298:A 40 
*END

*D_NET *324 0.00885023
*CONN
*I *1299:A I *D sg13g2_buf_1
*I *1183:X O *D sg13g2_buf_1
*CAP
1 *1299:A 0
2 *1183:X 0.000185363
3 *324:20 0.00134632
4 *324:16 0.00162948
5 *324:10 0.000468519
6 *324:16 *385:67 0
7 *324:16 *408:36 0
8 *324:20 *1107:D 0.000394151
9 *324:20 *1204:A 0.000338987
10 *324:20 *1216:A 0.000392402
11 *324:20 *337:8 0
12 *324:20 *341:26 0.00257424
13 *324:20 *354:14 0.000983973
14 *324:20 *398:12 0
15 *324:20 *431:10 0
16 *1074:A1 *324:10 4.77425e-05
17 *1074:A1 *324:16 8.00842e-05
18 *1077:S *324:10 7.92265e-05
19 *228:8 *324:10 7.48178e-05
20 *228:19 *324:10 7.9225e-05
21 *229:12 *324:10 0.000175693
22 *230:10 *324:10 0
23 *230:10 *324:16 0
*RES
1 *1183:X *324:10 41.7819 
2 *324:10 *324:16 42.4823 
3 *324:16 *324:20 38.3958 
4 *324:20 *1299:A 20 
*END

*D_NET *325 0.0102204
*CONN
*I *1300:A I *D sg13g2_buf_1
*I *1184:X O *D sg13g2_buf_1
*CAP
1 *1300:A 0.00146815
2 *1184:X 9.95594e-05
3 *325:16 0.00378514
4 *325:8 0.00241655
5 *1300:A *1213:A 0.000402085
6 *1300:A *331:24 0
7 *1300:A *364:10 0
8 *1300:A *439:6 0
9 *325:8 *406:32 0
10 *325:16 *341:24 0
11 *325:16 *366:14 0.00027093
12 *325:16 *407:20 0.00108025
13 *1092:C1 *325:16 0.000125963
14 *1296:A *1300:A 0
15 *1297:A *1300:A 0
16 *119:8 *1300:A 7.92265e-05
17 *227:10 *325:16 0.000492501
18 *256:10 *325:16 0
19 *297:24 *325:16 0
20 *314:10 *325:16 0
21 *318:32 *325:16 0
*RES
1 *1184:X *325:8 40.7519 
2 *325:8 *325:16 42.0317 
3 *325:16 *1300:A 32.9986 
*END

*D_NET *326 0.00368526
*CONN
*I *1301:A I *D sg13g2_buf_1
*I *1185:X O *D sg13g2_buf_1
*CAP
1 *1301:A 0
2 *1185:X 0.000245478
3 *326:18 0.000515811
4 *326:10 0.000761289
5 *326:18 *1114:D 0.000443782
6 *326:18 *363:12 0.00103045
7 N1BEG[2] *326:18 0
8 *296:58 *326:10 0.000144542
9 *296:67 *326:10 4.77425e-05
10 *296:67 *326:18 0.000240377
11 *309:16 *326:10 0.00012785
12 *315:16 *326:10 0.000127936
*RES
1 *1185:X *326:10 42.4308 
2 *326:10 *326:18 46.6332 
3 *326:18 *1301:A 40 
*END

*D_NET *327 0.0104005
*CONN
*I *1302:A I *D sg13g2_buf_1
*I *1186:X O *D sg13g2_buf_1
*CAP
1 *1302:A 0
2 *1186:X 0.000253563
3 *327:24 0
4 *327:20 0.00283463
5 *327:14 0.00283463
6 *327:10 0.000253563
7 *327:10 *383:16 0.000143351
8 *327:10 *388:22 0.000181279
9 *327:10 *397:16 0
10 *327:10 *401:22 0
11 *327:10 *410:22 0.000233591
12 *327:20 *356:16 0
13 *327:20 *359:22 0.00297507
14 *327:20 *371:22 0
15 *327:20 *405:14 0.000540718
16 *327:20 *414:22 0
17 *148:8 *327:10 7.51285e-05
18 *163:11 *327:10 7.49633e-05
*RES
1 *1186:X *327:10 43.0179 
2 *327:10 *327:14 40 
3 *327:14 *327:20 32.6613 
4 *327:20 *327:24 40 
5 *327:24 *1302:A 40 
*END

*D_NET *328 0.0166448
*CONN
*I *1303:A I *D sg13g2_buf_1
*I *1187:X O *D sg13g2_buf_1
*CAP
1 *1303:A 0.00034252
2 *1187:X 0
3 *328:20 0.000758235
4 *328:14 0.00241301
5 *328:12 0.00206226
6 *328:6 6.49726e-05
7 *1303:A *401:48 0.000175693
8 *1303:A *401:67 4.68833e-05
9 *328:14 *340:14 0
10 *328:14 *424:16 0.0039923
11 *328:14 *437:14 0
12 *328:14 *438:14 0
13 *328:14 *438:16 0.00556326
14 *328:14 *443:18 0
15 *328:14 *443:24 0
16 *328:20 *340:18 0.000729888
17 *328:20 *436:12 7.97281e-05
18 *1295:A *1303:A 0.000175693
19 *118:8 *1303:A 0.000240377
*RES
1 *1187:X *328:6 40 
2 *328:6 *328:12 40.5356 
3 *328:12 *328:14 35.2054 
4 *328:14 *328:20 44.8616 
5 *328:20 *1303:A 43.3475 
*END

*D_NET *329 0.00325541
*CONN
*I *1304:A I *D sg13g2_buf_1
*I *1188:X O *D sg13g2_buf_1
*CAP
1 *1304:A 0.000289051
2 *1188:X 0.00075811
3 *329:12 0.00104716
4 *1304:A *350:8 4.77347e-05
5 *1304:A *379:18 0
6 *329:12 *1083:A1 0.000181192
7 *329:12 *1139:A 0
8 *329:12 *1204:A 0
9 *329:12 *337:8 0
10 *329:12 *402:14 0.000394238
11 N2BEGb[7] *1304:A 7.94445e-05
12 *1091:A *329:12 7.92265e-05
13 *225:22 *1304:A 3.23417e-05
14 *225:32 *1304:A 0.000112426
15 *226:16 *329:12 0.000234481
16 *265:8 *329:12 0
17 *265:19 *329:12 0
*RES
1 *1188:X *329:12 47.1379 
2 *329:12 *1304:A 43.0488 
*END

*D_NET *330 0.0213837
*CONN
*I *1106:D I *D sg13g2_dlhq_1
*I *1138:A I *D sg13g2_buf_1
*I *1226:X O *D sg13g2_buf_1
*CAP
1 *1106:D 0.000255637
2 *1138:A 0.000601184
3 *1226:X 0.000574778
4 *330:34 0.00144992
5 *330:32 0.000846506
6 *330:26 0.00269512
7 *330:16 0.00301649
8 *1106:D *355:26 0
9 *1106:D *385:23 0.000112314
10 *1138:A *1139:A 0.000338192
11 *1138:A *1149:A 4.77425e-05
12 *1138:A *368:6 0
13 *1138:A *384:44 0
14 *330:16 *341:18 0
15 *330:16 *451:14 2.20966e-05
16 *330:26 *407:39 0.000865986
17 *330:26 *451:14 0
18 *330:32 *406:32 0
19 *330:34 *1094:A1 0.00012785
20 *330:34 *379:26 0.000445366
21 *330:34 *384:57 0
22 *1224:A *1138:A 0
23 *1226:A *330:16 0
24 *1227:A *330:16 0.000111828
25 *1274:A *330:16 1.54556e-05
26 *1276:A *330:16 0
27 *1277:A *330:16 0.000176817
28 *111:10 *330:26 0.000713587
29 *115:10 *330:26 0.000500629
30 *225:8 *330:32 0.000111114
31 *225:55 *330:34 0
32 *225:64 *330:34 0
33 *308:12 *330:16 0
34 *310:10 *1106:D 0.000499383
35 *310:10 *330:34 0.00171537
36 *313:16 *330:26 0
37 *316:10 *330:32 0
38 *319:12 *330:16 1.55958e-05
39 *319:18 *330:26 0.00428862
40 *320:14 *330:26 0.00170793
41 *320:20 *330:26 0.00012816
42 *321:16 *330:26 0
*RES
1 *1226:X *330:16 46.0461 
2 *330:16 *330:26 32.342 
3 *330:26 *330:32 42.0497 
4 *330:32 *330:34 8.0134 
5 *330:34 *1138:A 45.459 
6 *330:34 *1106:D 43.0797 
*END

*D_NET *331 0.026259
*CONN
*I *1305:A I *D sg13g2_buf_1
*I *1189:X O *D sg13g2_buf_1
*CAP
1 *1305:A 0
2 *1189:X 0.00154534
3 *331:24 0.0021664
4 *331:10 0.00710834
5 *331:8 0.00494195
6 *331:6 0.00154534
7 *331:6 *338:14 0
8 *331:6 *339:6 0
9 *331:6 *348:8 0.000208853
10 *331:10 *426:10 0
11 *331:10 *427:10 0
12 *331:24 *1143:A 0
13 *331:24 *1201:A 6.95576e-05
14 *331:24 *1338:A 0
15 *1151:A *331:6 0
16 *1295:A *331:24 0
17 *1297:A *331:24 0
18 *1300:A *331:24 0
19 *34:5 *331:10 0
20 *87:9 *331:6 0
21 *120:12 *331:24 0.000262362
22 *126:16 *331:24 0
23 *179:13 *331:10 0.0084109
24 *180:9 *331:10 0
*RES
1 *1189:X *331:6 33.0852 
2 *331:6 *331:8 20 
3 *331:8 *331:10 53.4982 
4 *331:10 *331:24 39.9614 
5 *331:24 *1305:A 20 
*END

*D_NET *332 0.011912
*CONN
*I *1306:A I *D sg13g2_buf_1
*I *1199:X O *D sg13g2_buf_1
*CAP
1 *1306:A 0
2 *1199:X 0.000649253
3 *332:14 0.00144968
4 *332:8 0.00209894
5 *332:8 *1187:A 0.00030531
6 *332:8 *1199:A 0
7 *332:8 *336:10 0
8 *332:14 *1095:A1 0
9 *332:14 *336:10 0
10 *332:14 *353:8 0.000924134
11 *332:14 *379:47 0
12 *332:14 *407:39 0.000143351
13 *332:14 *408:20 0.0010852
14 *332:14 *422:10 0
15 N2BEGb[7] *332:14 0.000208067
16 *1101:GATE *332:14 0.000180885
17 *83:27 *332:8 0.000352602
18 *223:8 *332:14 0
19 *249:10 *332:14 0.000234433
20 *296:21 *332:14 0.000762148
21 *311:10 *332:14 0.00351801
*RES
1 *1199:X *332:8 46.1594 
2 *332:8 *332:14 42.0214 
3 *332:14 *1306:A 20 
*END

*D_NET *333 0.00940067
*CONN
*I *1307:A I *D sg13g2_buf_1
*I *1200:X O *D sg13g2_buf_1
*CAP
1 *1307:A 0
2 *1200:X 0.000139946
3 *333:28 0.000266979
4 *333:20 0.000455924
5 *333:12 0.00226832
6 *333:8 0.00221932
7 *333:8 *339:12 0.000342122
8 *333:8 *367:16 0
9 *333:12 *342:22 0.000239607
10 *333:12 *349:24 0
11 *333:12 *422:16 0
12 *333:12 *424:14 0
13 *333:20 *356:24 4.77425e-05
14 *333:20 *364:18 0.000600655
15 *333:20 *388:28 0.000604057
16 *333:28 *364:18 0.00108313
17 *333:28 *401:22 0.00113287
18 N2BEG[2] *333:28 0
19 *136:12 *333:12 0
20 *138:14 *333:12 0
*RES
1 *1200:X *333:8 41.5862 
2 *333:8 *333:12 37.1907 
3 *333:12 *333:20 43.3578 
4 *333:20 *333:28 45.6135 
5 *333:28 *1307:A 20 
*END

*D_NET *334 0.00751658
*CONN
*I *1308:A I *D sg13g2_buf_1
*I *1201:X O *D sg13g2_buf_1
*CAP
1 *1308:A 0
2 *1201:X 0.000339634
3 *334:14 0.000621512
4 *334:8 0.000961146
5 *334:14 *335:34 2.20966e-05
6 *334:14 *401:22 0.000497581
7 N2BEG[2] *334:14 0.00214841
8 N2BEG[7] *334:14 0.00273478
9 *124:8 *334:8 7.92265e-05
10 *142:12 *334:14 0.0001122
*RES
1 *1201:X *334:8 42.6986 
2 *334:8 *334:14 33.2149 
3 *334:14 *1308:A 20 
*END

*D_NET *335 0.0111224
*CONN
*I *1309:A I *D sg13g2_buf_1
*I *1202:X O *D sg13g2_buf_1
*CAP
1 *1309:A 0
2 *1202:X 0.000133646
3 *335:34 0.000666045
4 *335:20 0.00171263
5 *335:16 0.0012151
6 *335:10 0.000302158
7 *335:10 *344:12 7.92524e-05
8 *335:10 *394:10 7.92524e-05
9 *335:10 *413:10 0.000234189
10 *335:16 *410:22 0
11 *335:20 *356:16 0.00281993
12 *335:20 *357:20 0.00346073
13 *335:20 *363:20 0
14 *335:20 *414:14 0
15 *335:34 *388:36 0.00012816
16 *335:34 *397:20 0
17 *335:34 *401:22 0
18 N2BEGb[1] *335:34 0.00014391
19 N2BEGb[4] *335:34 0.000125261
20 N4BEG[7] *335:34 0
21 *231:44 *335:10 0
22 *334:14 *335:34 2.20966e-05
*RES
1 *1202:X *335:10 41.6274 
2 *335:10 *335:16 41.4008 
3 *335:16 *335:20 38.1486 
4 *335:20 *335:34 46.7259 
5 *335:34 *1309:A 20 
*END

*D_NET *336 0.0138252
*CONN
*I *1310:A I *D sg13g2_buf_1
*I *1203:X O *D sg13g2_buf_1
*CAP
1 *1310:A 0
2 *1203:X 0.000839324
3 *336:48 0.00178303
4 *336:32 0.002168
5 *336:18 0.000624359
6 *336:10 0.00107871
7 *336:10 *345:12 0.0007157
8 *336:10 *391:10 0
9 *336:10 *408:20 0
10 *336:18 *345:12 0.000128103
11 *336:18 *348:10 0
12 *336:18 *391:10 0.00044938
13 *336:18 *393:16 0
14 *336:32 *362:18 0.000282554
15 *336:32 *381:20 0.000176172
16 *336:32 *409:34 0.000177439
17 *336:32 *442:20 0.00033863
18 *336:48 *337:20 0
19 *336:48 *351:28 0.000497581
20 *336:48 *362:18 0
21 *336:48 *410:34 0
22 *336:48 *418:47 0.00102016
23 *336:48 *442:20 2.19989e-05
24 N2BEGb[2] *336:48 8.00842e-05
25 N2BEGb[4] *336:48 0.00011101
26 N2BEGb[7] *336:48 0
27 *1041:S1 *336:48 0.000177618
28 *1070:C1 *336:18 0.000180391
29 *124:14 *336:48 0.000176997
30 *129:10 *336:48 0.00107731
31 *141:22 *336:48 0
32 *177:15 *336:48 0
33 *179:11 *336:10 0.000724484
34 *232:20 *336:18 0.000552176
35 *234:59 *336:48 0
36 *241:18 *336:32 0
37 *249:10 *336:10 0.000234945
38 *266:10 *336:48 0.000209079
39 *332:8 *336:10 0
40 *332:14 *336:10 0
*RES
1 *1203:X *336:10 49.3215 
2 *336:10 *336:18 43.8522 
3 *336:18 *336:32 44.7483 
4 *336:32 *336:48 38.8255 
5 *336:48 *1310:A 20 
*END

*D_NET *337 0.00442306
*CONN
*I *1311:A I *D sg13g2_buf_1
*I *1204:X O *D sg13g2_buf_1
*CAP
1 *1311:A 0
2 *1204:X 0.000413933
3 *337:20 0.000242605
4 *337:12 0.00176109
5 *337:8 0.00193242
6 *337:8 *1216:A 0
7 *337:12 *350:12 0
8 *337:12 *392:26 0
9 N2BEGb[7] *337:20 0
10 *225:22 *337:8 7.30101e-05
11 *225:22 *337:12 0
12 *226:16 *337:8 0
13 *239:23 *337:12 0
14 *324:20 *337:8 0
15 *329:12 *337:8 0
16 *336:48 *337:20 0
*RES
1 *1204:X *337:8 43.3166 
2 *337:8 *337:12 33.5136 
3 *337:12 *337:20 41.9673 
4 *337:20 *1311:A 20 
*END

*D_NET *338 0.0171596
*CONN
*I *1312:A I *D sg13g2_buf_1
*I *1190:X O *D sg13g2_buf_1
*CAP
1 *1312:A 4.66635e-05
2 *1190:X 7.50219e-05
3 *338:28 4.66635e-05
4 *338:24 0.00148534
5 *338:20 0.00343611
6 *338:14 0.0028975
7 *338:8 0.00102175
8 *338:14 *339:6 0.00101496
9 *338:14 *348:8 0
10 *338:14 *406:10 0
11 *338:20 *347:14 7.4563e-05
12 *338:20 *358:16 0
13 *338:20 *394:12 0
14 *338:20 *406:12 0
15 *338:20 *408:26 0
16 *338:24 *340:14 0.00484853
17 *338:24 *432:12 0
18 *85:11 *338:20 0.00183015
19 *86:9 *338:20 0
20 *121:10 *1312:A 8.00842e-05
21 *135:14 *1312:A 4.77425e-05
22 *203:17 *338:8 0.000181192
23 *230:18 *338:20 0
24 *264:38 *338:20 7.33256e-05
25 *319:22 *338:24 0
26 *331:6 *338:14 0
*RES
1 *1190:X *338:8 40.8446 
2 *338:8 *338:14 48.755 
3 *338:14 *338:20 41.2798 
4 *338:20 *338:24 42.351 
5 *338:24 *338:28 40 
6 *338:28 *1312:A 40.5356 
*END

*D_NET *339 0.0166108
*CONN
*I *1313:A I *D sg13g2_buf_1
*I *1191:X O *D sg13g2_buf_1
*CAP
1 *1313:A 0
2 *1191:X 0.00131361
3 *339:12 0.00240872
4 *339:8 0.00240872
5 *339:6 0.00131361
6 *339:12 *344:24 0.00328462
7 *339:12 *367:16 0
8 *339:12 *426:10 0
9 *339:12 *431:10 0
10 *339:12 *447:24 0.00231519
11 *68:11 *339:12 0
12 *87:9 *339:6 0.00220926
13 *180:9 *339:12 0
14 *331:6 *339:6 0
15 *333:8 *339:12 0.000342122
16 *338:14 *339:6 0.00101496
*RES
1 *1191:X *339:6 34.8114 
2 *339:6 *339:8 20 
3 *339:8 *339:12 33.7943 
4 *339:12 *1313:A 40 
*END

*D_NET *340 0.0234582
*CONN
*I *1314:A I *D sg13g2_buf_1
*I *1192:X O *D sg13g2_buf_1
*CAP
1 *1314:A 0
2 *1192:X 0
3 *340:24 1.99135e-05
4 *340:18 0.00112342
5 *340:14 0.00377756
6 *340:12 0.00360959
7 *340:6 0.000935536
8 *340:12 *356:12 0
9 *340:14 *421:14 0.00826708
10 *340:14 *432:12 0
11 *340:14 *438:14 0
12 N1BEG[0] *340:24 7.33225e-05
13 *126:10 *340:24 7.33225e-05
14 *319:22 *340:14 0
15 *328:14 *340:14 0
16 *328:20 *340:18 0.000729888
17 *338:24 *340:14 0.00484853
*RES
1 *1192:X *340:6 40 
2 *340:6 *340:12 49.6202 
3 *340:12 *340:14 49.7902 
4 *340:14 *340:18 31.9995 
5 *340:18 *340:24 40.3502 
6 *340:24 *1314:A 20 
*END

*D_NET *341 0.0155988
*CONN
*I *1107:D I *D sg13g2_dlhq_1
*I *1139:A I *D sg13g2_buf_1
*I *1227:X O *D sg13g2_buf_1
*CAP
1 *1107:D 0.000178529
2 *1139:A 0.000244857
3 *1227:X 0.00118843
4 *341:26 0.00132154
5 *341:24 0.00313322
6 *341:18 0.0034235
7 *1107:D *354:34 1.54008e-05
8 *1107:D *355:26 0
9 *1107:D *368:14 8.00842e-05
10 *1107:D *431:10 0.000128248
11 *341:24 *396:12 0
12 *341:26 *355:26 0
13 *341:26 *367:16 0
14 *1127:A *341:18 0.000241983
15 *1127:A *341:24 0
16 *1129:A *341:24 0
17 *1138:A *1139:A 0.000338192
18 *1173:A *341:18 0
19 *1227:A *341:18 0
20 *1236:A *341:18 0.000176369
21 *1258:A *341:18 0.000241512
22 *1274:A *341:18 0
23 *1277:A *341:18 0
24 *34:5 *341:24 0
25 *179:17 *341:18 0
26 *225:32 *341:26 0.000973655
27 *267:8 *341:26 0.000929537
28 *297:24 *341:24 0
29 *297:24 *341:26 0
30 *313:8 *341:18 0
31 *314:10 *341:24 0
32 *319:12 *341:18 1.5393e-05
33 *324:20 *1107:D 0.000394151
34 *324:20 *341:26 0.00257424
35 *325:16 *341:24 0
36 *329:12 *1139:A 0
37 *330:16 *341:18 0
*RES
1 *1227:X *341:18 32.0613 
2 *341:18 *341:24 45.7912 
3 *341:24 *341:26 14.6878 
4 *341:26 *1139:A 42.4823 
5 *341:26 *1107:D 42.369 
*END

*D_NET *342 0.0162561
*CONN
*I *1315:A I *D sg13g2_buf_1
*I *1193:X O *D sg13g2_buf_1
*CAP
1 *1315:A 0
2 *1193:X 0.000574482
3 *342:30 0.000399853
4 *342:22 0.00106694
5 *342:12 0.00271825
6 *342:8 0.00262565
7 *342:8 *402:10 0
8 *342:8 *403:8 0.00088557
9 *342:12 *1079:B 0
10 *342:12 *1095:A1 0
11 *342:12 *379:47 0
12 *342:12 *386:10 0
13 *342:12 *406:12 0.00626759
14 *342:12 *408:20 0
15 *342:12 *422:10 0
16 *342:22 *349:24 0
17 *342:22 *406:32 0
18 *342:30 *1204:A 4.77425e-05
19 *342:30 *379:18 0
20 N4BEG[6] *342:22 0.000273394
21 *1087:A2 *342:30 0
22 *1092:C1 *342:22 7.33256e-05
23 *1094:S *342:22 0.000240187
24 *86:9 *342:12 0.000287672
25 *138:18 *342:22 0.000272528
26 *224:8 *342:12 7.51285e-05
27 *232:8 *342:12 0.000129479
28 *256:10 *342:22 7.86681e-05
29 *259:8 *342:22 0
30 *333:12 *342:22 0.000239607
*RES
1 *1193:X *342:8 45.9431 
2 *342:8 *342:12 49.0254 
3 *342:12 *342:22 46.6126 
4 *342:22 *342:30 43.4814 
5 *342:30 *1315:A 20 
*END

*D_NET *343 0.00675041
*CONN
*I *1316:A I *D sg13g2_buf_1
*I *1194:X O *D sg13g2_buf_1
*CAP
1 *1316:A 0
2 *1194:X 0
3 *343:18 0
4 *343:14 0.00321625
5 *343:12 0.00337521
6 *343:6 0.000158955
7 *343:14 *352:16 0
8 *343:14 *414:14 0
9 *343:14 *414:22 0
10 *343:14 *435:18 0
11 *343:14 *436:14 0
12 *178:25 *343:14 0
*RES
1 *1194:X *343:6 40 
2 *343:6 *343:12 41.6171 
3 *343:12 *343:14 37.9246 
4 *343:14 *343:18 40 
5 *343:18 *1316:A 40 
*END

*D_NET *344 0.0111191
*CONN
*I *1317:A I *D sg13g2_buf_1
*I *1195:X O *D sg13g2_buf_1
*CAP
1 *1317:A 0
2 *1195:X 0.000499611
3 *344:24 0.00087794
4 *344:20 0.00215612
5 *344:12 0.00177779
6 *344:12 *1198:A 0.000208035
7 *344:12 *345:12 0.000181694
8 *344:12 *391:10 0.000181192
9 *344:12 *394:10 0
10 *344:12 *404:25 0.000144768
11 *344:20 *1073:A 0
12 *344:20 *394:10 0.000530521
13 *1079:A *344:20 0
14 *1211:A *344:12 0
15 *68:11 *344:24 0.0011976
16 *83:27 *344:20 0
17 *180:9 *344:24 0
18 *231:44 *344:12 0
19 *264:12 *344:20 0
20 *335:10 *344:12 7.92524e-05
21 *339:12 *344:24 0.00328462
*RES
1 *1195:X *344:12 44.9749 
2 *344:12 *344:20 31.8038 
3 *344:20 *344:24 35.1822 
4 *344:24 *1317:A 40 
*END

*D_NET *345 0.0130424
*CONN
*I *1318:A I *D sg13g2_buf_1
*I *1196:X O *D sg13g2_buf_1
*CAP
1 *1318:A 0
2 *1196:X 0.000705362
3 *345:24 3.76461e-05
4 *345:18 0.00167175
5 *345:12 0.00233947
6 *345:12 *391:10 0
7 *345:18 *1181:A 0.000179584
8 *345:18 *348:10 0
9 *345:18 *351:14 0
10 *345:18 *371:44 0
11 *345:18 *396:18 0
12 *345:18 *423:8 0.000873226
13 *345:18 *435:8 0.000128353
14 *345:24 *346:16 0.000128051
15 *141:12 *345:24 2.21831e-05
16 *177:15 *345:12 0.000466143
17 *179:11 *345:12 0
18 *232:20 *345:18 0.00103644
19 *239:23 *345:18 0
20 *285:10 *345:18 0
21 *311:10 *345:18 0.00442873
22 *320:14 *345:24 0
23 *336:10 *345:12 0.0007157
24 *336:18 *345:12 0.000128103
25 *344:12 *345:12 0.000181694
*RES
1 *1196:X *345:12 48.1267 
2 *345:12 *345:18 43.0102 
3 *345:18 *345:24 40.5974 
4 *345:24 *1318:A 20 
*END

*D_NET *346 0.00358535
*CONN
*I *1319:A I *D sg13g2_buf_1
*I *1197:X O *D sg13g2_buf_1
*CAP
1 *1319:A 0
2 *1197:X 0.000841084
3 *346:16 0.000841084
4 *346:16 *1112:D 0.000636388
5 *346:16 *373:14 0.000128662
6 *346:16 *451:14 0
7 *1037:A *346:16 0.000302065
8 *141:12 *346:16 0
9 *235:16 *346:16 0.000708017
10 *282:8 *346:16 0
11 *345:24 *346:16 0.000128051
*RES
1 *1197:X *346:16 49.8159 
2 *346:16 *1319:A 40 
*END

*D_NET *347 0.0075979
*CONN
*I *1320:A I *D sg13g2_buf_1
*I *1198:X O *D sg13g2_buf_1
*CAP
1 *1320:A 0
2 *1198:X 0.000313243
3 *347:14 0.00128547
4 *347:8 0.00159871
5 *347:8 *394:10 0
6 *347:14 *374:8 0
7 *347:14 *374:12 0
8 *347:14 *393:18 0
9 *347:14 *406:12 0
10 *347:14 *406:32 0.000112506
11 *347:14 *429:20 0.000112314
12 *1079:A *347:8 0
13 *1080:B *347:8 0.000143673
14 *1081:B2 *347:8 0
15 *143:8 *347:14 0.000604547
16 *241:18 *347:14 0.000231945
17 *251:8 *347:14 0.000766301
18 *264:38 *347:14 0
19 *320:14 *347:14 0.00235463
20 *321:16 *347:14 0
21 *338:20 *347:14 7.4563e-05
*RES
1 *1198:X *347:8 42.6106 
2 *347:8 *347:14 37.1701 
3 *347:14 *1320:A 20 
*END

*D_NET *348 0.0128864
*CONN
*I *1321:A I *D sg13g2_buf_1
*I *1205:X O *D sg13g2_buf_1
*CAP
1 *1321:A 0
2 *1205:X 0.000329731
3 *348:10 0.00249453
4 *348:8 0.00282426
5 *348:10 *351:14 0
6 *348:10 *371:44 0.00023464
7 *348:10 *391:10 0.00225669
8 *348:10 *408:20 0
9 *348:10 *423:8 0
10 *348:10 *438:24 0
11 *348:10 *442:20 0
12 *1070:C1 *348:10 0.000496912
13 *1151:A *348:8 0
14 *177:15 *348:10 0.00330208
15 *187:13 *348:8 0.000240634
16 *285:10 *348:10 0.000498025
17 *331:6 *348:8 0.000208853
18 *336:18 *348:10 0
19 *338:14 *348:8 0
20 *345:18 *348:10 0
*RES
1 *1205:X *348:8 43.3475 
2 *348:8 *348:10 31.2502 
3 *348:10 *1321:A 40 
*END

*D_NET *349 0.00747503
*CONN
*I *1322:A I *D sg13g2_buf_1
*I *1215:X O *D sg13g2_buf_1
*CAP
1 *1322:A 0
2 *1215:X 0.000784812
3 *349:32 3.17606e-05
4 *349:24 0.00235603
5 *349:10 0.00310908
6 *349:10 *1073:A 0
7 *349:10 *402:14 0
8 *349:10 *430:10 0
9 *349:24 *352:22 0
10 *349:24 *402:14 0
11 *349:24 *422:16 0
12 *349:24 *423:14 0
13 *349:32 *401:22 7.30101e-05
14 *143:22 *349:24 7.78179e-05
15 *158:10 *349:32 7.44237e-05
16 *230:10 *349:10 0
17 *245:8 *349:10 0.000237514
18 *258:10 *349:24 0.000181192
19 *295:8 *349:10 0
20 *318:32 *349:10 0
21 *318:32 *349:24 0.000549391
22 *319:30 *349:24 0
23 *323:20 *349:24 0
24 *333:12 *349:24 0
25 *342:22 *349:24 0
*RES
1 *1215:X *349:10 47.5911 
2 *349:10 *349:24 40.8884 
3 *349:24 *349:32 40.4558 
4 *349:32 *1322:A 20 
*END

*D_NET *350 0.00685193
*CONN
*I *1323:A I *D sg13g2_buf_1
*I *1216:X O *D sg13g2_buf_1
*CAP
1 *1323:A 0
2 *1216:X 5.22925e-05
3 *350:22 0.000875402
4 *350:12 0.00216377
5 *350:8 0.00134066
6 *350:8 *379:18 0
7 *350:22 *363:38 0.000304759
8 *350:22 *365:8 0.000443453
9 *350:22 *380:24 0.00028427
10 *350:22 *383:34 0
11 *350:22 *383:61 0.000602669
12 N2BEGb[7] *350:8 0
13 N4BEG[5] *350:22 0
14 *1304:A *350:8 4.77347e-05
15 *136:12 *350:12 0
16 *156:10 *350:22 0.000272718
17 *225:12 *350:12 0.000158726
18 *225:22 *350:12 0.000305466
19 *296:92 *350:22 0
20 *337:12 *350:12 0
*RES
1 *1216:X *350:8 40.5356 
2 *350:8 *350:12 31.5669 
3 *350:12 *350:22 49.5172 
4 *350:22 *1323:A 20 
*END

*D_NET *351 0.0109438
*CONN
*I *1324:A I *D sg13g2_buf_1
*I *1217:X O *D sg13g2_buf_1
*CAP
1 *1324:A 0
2 *1217:X 2.45647e-05
3 *351:28 0.00079382
4 *351:14 0.00244684
5 *351:8 0.00167758
6 *351:8 *405:38 0
7 *351:14 *1181:A 0.00133939
8 *351:14 *375:16 0
9 *351:14 *380:24 0
10 *351:14 *383:48 0
11 *351:14 *405:38 0.000395396
12 *351:14 *410:48 0.000767207
13 *351:14 *423:8 0.00071064
14 *351:28 *1325:A 0.000304794
15 *351:28 *371:36 0.00011101
16 *351:28 *384:18 0.000112392
17 N4BEG[13] *351:28 0
18 N4BEG[1] *351:14 0
19 *1055:A1 *351:14 0
20 *1099:GATE *351:28 4.77425e-05
21 *116:10 *351:14 0
22 *144:10 *351:14 1.54008e-05
23 *177:15 *351:14 0
24 *177:15 *351:28 0.000498411
25 *236:18 *351:14 0.000440753
26 *262:8 *351:14 0.000760317
27 *336:48 *351:28 0.000497581
28 *345:18 *351:14 0
29 *348:10 *351:14 0
*RES
1 *1217:X *351:8 40.3193 
2 *351:8 *351:14 39.364 
3 *351:14 *351:28 48.6726 
4 *351:28 *1324:A 20 
*END

*D_NET *352 0.0137478
*CONN
*I *1108:D I *D sg13g2_dlhq_1
*I *1140:A I *D sg13g2_buf_1
*I *1228:X O *D sg13g2_buf_1
*CAP
1 *1108:D 0
2 *1140:A 0.000366309
3 *1228:X 8.43479e-05
4 *352:22 0.0004499
5 *352:16 0.00154514
6 *352:12 0.00322933
7 *352:8 0.00185213
8 *1140:A *363:38 0
9 *1140:A *410:34 0.00028545
10 *352:12 *363:12 0
11 *352:12 *372:12 0
12 *352:12 *377:12 0
13 *352:12 *378:14 0.00210272
14 *352:22 *355:32 0
15 *1228:A *352:8 0
16 *1229:A *352:8 0
17 *1229:A *352:12 0.000128662
18 *1230:A *352:8 1.54008e-05
19 *124:14 *352:12 0.0017648
20 *144:10 *1140:A 0
21 *178:25 *352:16 0
22 *309:16 *352:12 0.00192359
23 *343:14 *352:16 0
24 *349:24 *352:22 0
*RES
1 *1228:X *352:8 40.7519 
2 *352:8 *352:12 43.8342 
3 *352:12 *352:16 35.4294 
4 *352:16 *352:22 40.7519 
5 *352:22 *1140:A 43.3887 
6 *352:22 *1108:D 40 
*END

*D_NET *353 0.00493558
*CONN
*I *1325:A I *D sg13g2_buf_1
*I *1218:X O *D sg13g2_buf_1
*CAP
1 *1325:A 0.000740877
2 *1218:X 0.000176884
3 *353:8 0.00091776
4 *1325:A *363:38 0
5 *1325:A *384:18 0.0001122
6 *1325:A *384:32 0.000722404
7 *1325:A *384:34 0.00011101
8 *223:8 *353:8 0.000925519
9 *332:14 *353:8 0.000924134
10 *351:28 *1325:A 0.000304794
*RES
1 *1218:X *353:8 44.3054 
2 *353:8 *1325:A 47.2409 
*END

*D_NET *354 0.00913962
*CONN
*I *1326:A I *D sg13g2_buf_1
*I *1219:X O *D sg13g2_buf_1
*CAP
1 *1326:A 0
2 *1219:X 0.000334293
3 *354:34 0.00184104
4 *354:14 0.00217533
5 *354:14 *398:12 0.00103517
6 *354:14 *408:36 0.000289837
7 *354:14 *431:10 0
8 *354:34 *1062:A 0.000175693
9 *354:34 *1223:A 8.01995e-05
10 *354:34 *355:26 0.00107417
11 *354:34 *368:6 0
12 *354:34 *368:14 7.86681e-05
13 *354:34 *397:16 0.000143351
14 *354:34 *430:8 4.75151e-05
15 NN4BEG[2] *354:34 0.000175693
16 *1071:A *354:34 0.000208035
17 *1105:D *354:34 4.77425e-05
18 *1107:D *354:34 1.54008e-05
19 *1224:A *354:34 0.000144542
20 *82:11 *354:14 0.000288975
21 *324:20 *354:14 0.000983973
*RES
1 *1219:X *354:14 47.0246 
2 *354:14 *354:34 37.7675 
3 *354:34 *1326:A 20 
*END

*D_NET *355 0.0108736
*CONN
*I *1327:A I *D sg13g2_buf_1
*I *1220:X O *D sg13g2_buf_1
*CAP
1 *1327:A 0
2 *1220:X 2.63207e-05
3 *355:38 9.7851e-05
4 *355:32 0.000446216
5 *355:26 0.00250659
6 *355:8 0.00218455
7 *355:26 *1223:A 0.000294773
8 *355:26 *358:16 0
9 *355:26 *367:10 0
10 *355:26 *367:16 0.00248411
11 *355:26 *431:10 0.000235153
12 *355:32 *379:53 0
13 *355:38 *388:22 1.54008e-05
14 NN4BEG[3] *355:26 0
15 NN4BEG[3] *355:38 0.00014391
16 *1105:D *355:26 4.77425e-05
17 *1106:D *355:26 0
18 *1107:D *355:26 0
19 *225:32 *355:26 0.000979714
20 *232:31 *355:32 0
21 *285:10 *355:26 0.000337091
22 *341:26 *355:26 0
23 *352:22 *355:32 0
24 *354:34 *355:26 0.00107417
*RES
1 *1220:X *355:8 40.3193 
2 *355:8 *355:26 43.4494 
3 *355:26 *355:32 42.9149 
4 *355:32 *355:38 40.9682 
5 *355:38 *1327:A 20 
*END

*D_NET *356 0.0118317
*CONN
*I *1328:A I *D sg13g2_buf_1
*I *1206:X O *D sg13g2_buf_1
*CAP
1 *1328:A 0
2 *1206:X 0
3 *356:24 0.000576206
4 *356:16 0.0024881
5 *356:12 0.00205358
6 *356:6 0.000141687
7 *356:16 *357:14 0.00215971
8 *356:16 *359:22 0
9 *356:16 *363:20 0.00034331
10 *356:16 *405:14 0
11 *356:16 *414:14 0
12 *356:24 *360:12 0.000444238
13 *356:24 *397:20 0
14 N2BEGb[7] *356:24 0.000208035
15 N4BEG[7] *356:24 0
16 *152:10 *356:24 0.000549119
17 *327:20 *356:16 0
18 *333:20 *356:24 4.77425e-05
19 *335:20 *356:16 0.00281993
20 *340:12 *356:12 0
*RES
1 *1206:X *356:6 40 
2 *356:6 *356:12 41.1845 
3 *356:12 *356:16 48.531 
4 *356:16 *356:24 46.4478 
5 *356:24 *1328:A 20 
*END

*D_NET *357 0.0135273
*CONN
*I *1329:A I *D sg13g2_buf_1
*I *1207:X O *D sg13g2_buf_1
*CAP
1 *1329:A 0
2 *1207:X 0.000249831
3 *357:24 0
4 *357:20 0.00066594
5 *357:14 0.0014982
6 *357:8 0.00108209
7 *357:8 *359:10 0.000288087
8 *357:14 *414:14 0
9 *357:20 *414:14 0.00351604
10 *195:9 *357:8 0.000606694
11 *216:27 *357:8 0
12 *335:20 *357:20 0.00346073
13 *356:16 *357:14 0.00215971
*RES
1 *1207:X *357:8 43.5638 
2 *357:8 *357:14 49.991 
3 *357:14 *357:20 36.4903 
4 *357:20 *357:24 40 
5 *357:24 *1329:A 20 
*END

*D_NET *358 0.0070542
*CONN
*I *1330:A I *D sg13g2_buf_1
*I *1208:X O *D sg13g2_buf_1
*CAP
1 *1330:A 0
2 *1208:X 0.000909145
3 *358:16 0.00194521
4 *358:10 0.00285435
5 *358:10 *399:10 0
6 *358:10 *402:10 0
7 *358:16 *1179:A 0
8 *358:16 *385:23 0.000144114
9 *358:16 *385:50 0
10 *358:16 *390:10 0
11 *358:16 *393:18 0.000928747
12 *358:16 *394:12 0
13 *358:16 *403:12 0
14 *1263:A *358:10 0
15 *84:13 *358:10 0.000144276
16 *85:11 *358:16 0
17 *86:9 *358:10 0
18 *230:18 *358:16 0
19 *246:8 *358:16 0
20 *247:10 *358:16 0
21 *310:10 *358:16 0.000128353
22 *338:20 *358:16 0
23 *355:26 *358:16 0
*RES
1 *1208:X *358:10 45.0331 
2 *358:10 *358:16 40.8472 
3 *358:16 *1330:A 20 
*END

*D_NET *359 0.0127029
*CONN
*I *1331:A I *D sg13g2_buf_1
*I *1209:X O *D sg13g2_buf_1
*CAP
1 *1331:A 0
2 *1209:X 0.000474292
3 *359:28 4.37077e-05
4 *359:22 0.00125921
5 *359:16 0.00136596
6 *359:10 0.000624759
7 *359:10 *388:14 0.000339556
8 *359:10 *398:6 4.77425e-05
9 *359:10 *410:22 0
10 *359:22 *405:14 0.0051243
11 N4BEG[1] *359:28 8.00842e-05
12 N4BEG[2] *359:28 8.00842e-05
13 *172:11 *359:10 0
14 *182:15 *359:10 0
15 *195:9 *359:10 0
16 *327:20 *359:22 0.00297507
17 *356:16 *359:22 0
18 *357:8 *359:10 0.000288087
*RES
1 *1209:X *359:10 45.1191 
2 *359:10 *359:16 41.4008 
3 *359:16 *359:22 44.1226 
4 *359:22 *359:28 40.5356 
5 *359:28 *1331:A 20 
*END

*D_NET *360 0.00878434
*CONN
*I *1332:A I *D sg13g2_buf_1
*I *1210:X O *D sg13g2_buf_1
*CAP
1 *1332:A 0
2 *1210:X 0
3 *360:12 0.00148079
4 *360:6 0.00148079
5 *360:12 *383:16 0.000448824
6 *360:12 *388:14 0
7 *360:12 *395:35 0.000499621
8 *360:12 *397:20 0
9 *152:10 *360:12 0
10 *155:10 *360:12 0.00160833
11 *156:10 *360:12 0.00118664
12 *178:13 *360:12 0.00134726
13 *195:9 *360:12 0.000287845
14 *216:27 *360:12 0
15 *293:10 *360:12 0
16 *356:24 *360:12 0.000444238
*RES
1 *1210:X *360:6 40 
2 *360:6 *360:12 40.1983 
3 *360:12 *1332:A 20 
*END

*D_NET *361 0.00596235
*CONN
*I *1333:A I *D sg13g2_buf_1
*I *1211:X O *D sg13g2_buf_1
*CAP
1 *1333:A 0
2 *1211:X 0
3 *361:12 0.0011581
4 *361:6 0.0011581
5 *361:12 *380:24 0
6 *361:12 *413:10 0
7 N4BEG[10] *361:12 0.000240448
8 *1062:B_N *361:12 0.00012816
9 *144:10 *361:12 0.000240256
10 *222:8 *361:12 0.00081542
11 *231:21 *361:12 0.000761297
12 *231:36 *361:12 0.000179079
13 *231:44 *361:12 0.00055168
14 *289:10 *361:12 0.000338279
15 *293:10 *361:12 0
16 *296:109 *361:12 0.000391517
*RES
1 *1211:X *361:6 40 
2 *361:6 *361:12 34.0801 
3 *361:12 *1333:A 20 
*END

*D_NET *362 0.00849985
*CONN
*I *1334:A I *D sg13g2_buf_1
*I *1212:X O *D sg13g2_buf_1
*CAP
1 *1334:A 0
2 *1212:X 0.000234796
3 *362:18 0.00217028
4 *362:8 0.00240507
5 *362:8 *394:10 0
6 *362:18 *1061:A0 0
7 *362:18 *393:10 0.000553345
8 *362:18 *404:10 0.000341216
9 *362:18 *410:34 0.000811603
10 *362:18 *436:22 0
11 N4BEG[2] *362:18 0
12 N4BEG[5] *362:18 0
13 *1212:A *362:8 0
14 *83:27 *362:8 0.000209455
15 *129:10 *362:18 0.000656111
16 *152:10 *362:18 4.76977e-05
17 *154:10 *362:18 8.00842e-05
18 *157:10 *362:18 4.77425e-05
19 *177:15 *362:8 0
20 *263:10 *362:18 0.000181739
21 *263:16 *362:18 0.000333618
22 *284:8 *362:18 0
23 *296:38 *362:18 0.000144542
24 *336:32 *362:18 0.000282554
25 *336:48 *362:18 0
*RES
1 *1212:X *362:8 42.266 
2 *362:8 *362:18 42.7527 
3 *362:18 *1334:A 20 
*END

*D_NET *363 0.0164437
*CONN
*I *1109:D I *D sg13g2_dlhq_1
*I *1141:A I *D sg13g2_buf_1
*I *1229:X O *D sg13g2_buf_1
*CAP
1 *1109:D 8.64409e-05
2 *1141:A 3.30808e-05
3 *1229:X 0
4 *363:38 0.000973787
5 *363:26 0.000902076
6 *363:20 0.0017499
7 *363:12 0.00321154
8 *363:6 0.00150945
9 *1141:A *384:34 0
10 *363:12 *1114:D 0.000639925
11 *363:12 *371:12 0
12 *363:12 *371:18 0.00349284
13 *363:12 *376:10 0.00157416
14 *363:12 *377:12 0
15 *363:12 *414:45 4.669e-05
16 *363:12 *414:55 1.77157e-05
17 *363:20 *371:22 0
18 *363:20 *414:14 0
19 *363:20 *414:22 0
20 *363:38 *1214:A 0.000144382
21 *363:38 *371:36 0
22 *363:38 *371:44 4.76977e-05
23 N1BEG[2] *363:12 0
24 *1041:S0 *363:12 0.000335451
25 *1140:A *363:38 0
26 *1172:A *1109:D 0
27 *1325:A *363:38 0
28 *144:10 *363:38 0
29 *237:25 *363:12 0
30 *237:53 *363:12 0
31 *296:10 *1141:A 0
32 *326:18 *363:12 0.00103045
33 *335:20 *363:20 0
34 *350:22 *363:38 0.000304759
35 *352:12 *363:12 0
36 *356:16 *363:20 0.00034331
*RES
1 *1229:X *363:6 40 
2 *363:6 *363:12 43.1647 
3 *363:12 *363:20 34.8629 
4 *363:20 *363:26 40.3193 
5 *363:26 *363:38 27.7147 
6 *363:38 *1141:A 20.3193 
7 *363:38 *1109:D 21.0918 
*END

*D_NET *364 0.00948194
*CONN
*I *1335:A I *D sg13g2_buf_1
*I *1213:X O *D sg13g2_buf_1
*CAP
1 *1335:A 0
2 *1213:X 0.000233125
3 *364:18 0.00147693
4 *364:10 0.00171005
5 *364:18 *388:28 0
6 *364:18 *401:22 0.000547624
7 *364:18 *414:70 0
8 N1BEG[0] *364:18 0.00172493
9 N2BEG[2] *364:18 0
10 N2BEG[3] *364:18 0
11 N2BEGb[3] *364:18 0
12 *1045:C *364:18 0.00124806
13 *1300:A *364:10 0
14 *108:8 *364:10 0
15 *112:28 *364:18 0.00012816
16 *270:8 *364:18 0.000442767
17 *270:16 *364:18 0.000286502
18 *333:20 *364:18 0.000600655
19 *333:28 *364:18 0.00108313
*RES
1 *1213:X *364:10 42.1527 
2 *364:10 *364:18 41.7536 
3 *364:18 *1335:A 20 
*END

*D_NET *365 0.0021662
*CONN
*I *1336:A I *D sg13g2_buf_1
*I *1214:X O *D sg13g2_buf_1
*CAP
1 *1336:A 0.000416029
2 *1214:X 0.000178036
3 *365:8 0.000594065
4 *1336:A *418:55 4.77425e-05
5 *365:8 *380:24 0
6 *365:8 *410:34 0.000128991
7 N4BEG[6] *1336:A 1.54282e-05
8 N4BEG[7] *1336:A 0.000166085
9 *296:109 *1336:A 0.000176369
10 *350:22 *365:8 0.000443453
*RES
1 *1214:X *365:8 42.3278 
2 *365:8 *1336:A 43.6977 
*END

*D_NET *366 0.0111801
*CONN
*I *1337:A I *D sg13g2_buf_1
*I *1093:Y O *D sg13g2_nor2_1
*CAP
1 *1337:A 0.000894533
2 *1093:Y 6.39752e-05
3 *366:14 0.00288174
4 *366:10 0.00205118
5 *366:14 *407:20 0.00108233
6 *366:14 *418:12 0.00393542
7 *1292:A *366:14 0
8 *314:10 *366:14 0
9 *325:16 *366:14 0.00027093
*RES
1 *1093:Y *366:10 40.6695 
2 *366:10 *366:14 44.0814 
3 *366:14 *1337:A 28.9713 
*END

*D_NET *367 0.0119
*CONN
*I *1338:A I *D sg13g2_buf_1
*I *1082:Y O *D sg13g2_nor2_1
*CAP
1 *1338:A 0.000580911
2 *1082:Y 0.000759562
3 *367:16 0.00371571
4 *367:10 0.00389436
5 *1338:A *439:6 0
6 *367:10 *1107:GATE 0
7 *367:10 *385:67 0
8 *367:16 *396:12 0
9 *367:16 *431:10 0
10 *1082:A *367:10 0
11 *34:5 *367:16 0
12 *68:11 *367:16 0
13 *136:8 *367:16 0
14 *180:9 *367:16 0
15 *267:8 *367:16 0
16 *318:18 *367:10 0.000465308
17 *331:24 *1338:A 0
18 *333:8 *367:16 0
19 *339:12 *367:16 0
20 *341:26 *367:16 0
21 *355:26 *367:10 0
22 *355:26 *367:16 0.00248411
*RES
1 *1082:Y *367:10 47.2203 
2 *367:10 *367:16 32.9085 
3 *367:16 *1338:A 45.0779 
*END

*D_NET *368 0.0139744
*CONN
*I *1339:A I *D sg13g2_buf_1
*I *1071:Y O *D sg13g2_nor2_1
*CAP
1 *1339:A 5.80404e-05
2 *1071:Y 0.00146317
3 *368:18 0.00155664
4 *368:14 0.002449
5 *368:6 0.00241358
6 *368:6 *384:32 0
7 *368:6 *384:34 0
8 *368:14 *402:14 0
9 *368:14 *428:16 0
10 *1071:A *368:6 0.000143351
11 *1107:D *368:14 8.00842e-05
12 *1138:A *368:6 0
13 *1224:A *368:6 0
14 *1224:A *368:14 0.000208035
15 *4:9 *368:18 0
16 *29:5 *368:18 0.00552381
17 *80:7 *368:14 0
18 *354:34 *368:6 0
19 *354:34 *368:14 7.86681e-05
*RES
1 *1071:Y *368:6 31.9995 
2 *368:6 *368:14 48.3018 
3 *368:14 *368:18 45.5646 
4 *368:18 *1339:A 40.5356 
*END

*D_NET *369 0.00564725
*CONN
*I *1340:A I *D sg13g2_buf_1
*I *1060:Y O *D sg13g2_a21oi_1
*CAP
1 *1340:A 0
2 *1060:Y 0.000569953
3 *369:16 0.00152102
4 *369:10 0.00209097
5 *369:10 *374:52 0.00020815
6 *369:10 *418:30 0
7 *369:16 *440:12 0
8 *1050:B *369:10 0
9 *1060:A1 *369:10 0.000175693
10 *180:13 *369:16 0
11 *297:16 *369:16 0.00108146
*RES
1 *1060:Y *369:10 45.1809 
2 *369:10 *369:16 35.0998 
3 *369:16 *1340:A 20 
*END

*D_NET *370 0.0214987
*CONN
*I *1341:A I *D sg13g2_buf_1
*I *1221:X O *D sg13g2_buf_1
*CAP
1 *1341:A 0
2 *1221:X 0
3 *370:20 0.00132395
4 *370:16 0.00288199
5 *370:12 0.00381895
6 *370:6 0.00226091
7 *370:12 *427:10 0
8 *370:12 *439:10 0.00497702
9 *370:16 *412:18 0
10 *370:16 *430:10 0.0040177
11 *370:20 *412:14 0
12 *370:20 *452:14 0
13 *1160:A *370:20 0
14 *29:15 *370:12 0.00146087
15 *70:9 *370:20 0.000757331
16 *80:11 *370:12 0
17 *85:7 *370:12 0
18 *180:7 *370:12 0
19 *207:11 *370:20 0
*RES
1 *1221:X *370:6 40 
2 *370:6 *370:12 49.87 
3 *370:12 *370:16 38.643 
4 *370:16 *370:20 33.081 
5 *370:20 *1341:A 20 
*END

*D_NET *371 0.0156762
*CONN
*I *1142:A I *D sg13g2_buf_1
*I *1110:D I *D sg13g2_dlhq_1
*I *1230:X O *D sg13g2_buf_1
*CAP
1 *1142:A 0
2 *1110:D 0
3 *1230:X 0.000943022
4 *371:44 0.000123232
5 *371:36 0.000756376
6 *371:28 0.000675133
7 *371:22 0.00196104
8 *371:18 0.00287054
9 *371:12 0.00189451
10 *371:18 *405:18 0.000113616
11 *371:18 *414:70 0
12 *371:22 *414:22 0
13 *371:36 *1214:A 0.000144495
14 *371:44 *435:8 0
15 N2BEG[7] *371:18 0
16 *1099:GATE *371:36 4.77425e-05
17 *1230:A *371:12 0.00011174
18 *1231:A *371:12 0
19 *1232:A *371:12 0
20 *1233:A *371:12 0
21 *1234:A *371:12 0
22 *109:14 *371:18 0.0021486
23 *327:20 *371:22 0
24 *345:18 *371:44 0
25 *348:10 *371:44 0.00023464
26 *351:28 *371:36 0.00011101
27 *363:12 *371:12 0
28 *363:12 *371:18 0.00349284
29 *363:20 *371:22 0
30 *363:38 *371:36 0
31 *363:38 *371:44 4.76977e-05
*RES
1 *1230:X *371:12 48.5902 
2 *371:12 *371:18 36.9229 
3 *371:18 *371:22 35.1822 
4 *371:22 *371:28 40.3193 
5 *371:28 *371:36 25.3148 
6 *371:36 *371:44 41.4111 
7 *371:44 *1110:D 20 
8 *371:36 *1142:A 20 
*END

*D_NET *372 0.00658839
*CONN
*I *1111:D I *D sg13g2_dlhq_1
*I *1143:A I *D sg13g2_buf_1
*I *1231:X O *D sg13g2_buf_1
*CAP
1 *1111:D 0.00012737
2 *1143:A 0.000230532
3 *1231:X 0.000392016
4 *372:12 0.00193189
5 *372:10 0.001966
6 *1111:D *1147:A 8.00842e-05
7 *1111:D *378:22 0.000368237
8 *1111:D *414:32 0.000390334
9 *1143:A *1201:A 0
10 *1143:A *401:67 0
11 *372:10 *373:12 0
12 *372:12 *378:14 0
13 *372:12 *378:22 0.000126358
14 *372:12 *414:32 0.000462679
15 *1173:A *372:10 0
16 *1227:A *372:10 4.79124e-05
17 *1228:A *372:10 0
18 *1229:A *372:10 0.000241512
19 *1231:A *372:10 0.000143379
20 *1232:A *372:10 0
21 *1295:A *1143:A 0
22 *180:17 *372:12 0
23 *269:12 *1111:D 8.00842e-05
24 *315:16 *372:12 0
25 *331:24 *1143:A 0
26 *352:12 *372:12 0
*RES
1 *1231:X *372:10 43.8487 
2 *372:10 *372:12 14.4406 
3 *372:12 *1143:A 41.9673 
4 *372:12 *1111:D 42.369 
*END

*D_NET *373 0.00717646
*CONN
*I *1112:D I *D sg13g2_dlhq_1
*I *1144:A I *D sg13g2_buf_1
*I *1232:X O *D sg13g2_buf_1
*CAP
1 *1112:D 0.000195669
2 *1144:A 3.2731e-05
3 *1232:X 0.000695042
4 *373:14 0.00190868
5 *373:12 0.00237532
6 *1144:A *405:38 0
7 *373:12 *375:10 0
8 *373:14 *375:16 0
9 *373:14 *451:14 0
10 *1173:A *373:12 0
11 *1232:A *373:12 0
12 *1235:A *373:12 0.000231056
13 *179:17 *373:12 0
14 *282:8 *1112:D 0.000181192
15 *311:10 *1112:D 0
16 *311:10 *373:14 0
17 *313:8 *373:12 0.000791718
18 *346:16 *1112:D 0.000636388
19 *346:16 *373:14 0.000128662
20 *372:10 *373:12 0
*RES
1 *1232:X *373:12 47.0517 
2 *373:12 *373:14 17.407 
3 *373:14 *1144:A 40.3193 
4 *373:14 *1112:D 43.0694 
*END

*D_NET *374 0.00885753
*CONN
*I *1222:A I *D sg13g2_buf_8
*I *1102:GATE I *D sg13g2_dlhq_1
*I *1103:GATE I *D sg13g2_dlhq_1
*I *1112:GATE I *D sg13g2_dlhq_1
*I *1113:GATE I *D sg13g2_dlhq_1
*I *1104:GATE I *D sg13g2_dlhq_1
*I *1223:X O *D sg13g2_buf_2
*CAP
1 *1222:A 0
2 *1102:GATE 0
3 *1103:GATE 0.000309477
4 *1112:GATE 0
5 *1113:GATE 0
6 *1104:GATE 9.41338e-05
7 *1223:X 0.000117743
8 *374:52 0.000234122
9 *374:37 0.00082379
10 *374:29 0.00103145
11 *374:16 0.000402522
12 *374:12 0.00102117
13 *374:8 0.000962825
14 *1103:GATE *418:30 8.00842e-05
15 *374:8 *393:18 0
16 *374:12 *1180:A 0
17 *374:12 *393:18 0
18 *374:12 *429:12 0.000387348
19 *374:37 *418:30 0.000543361
20 *374:37 *440:12 0.000710701
21 *374:52 *451:14 0.000126358
22 N2BEG[5] *374:37 1.54008e-05
23 N2BEG[5] *374:52 0.000144542
24 N2BEGb[7] *1103:GATE 4.75525e-05
25 N2BEGb[7] *1104:GATE 1.54008e-05
26 N2BEGb[7] *374:16 0.000192634
27 *1040:A *1104:GATE 0
28 *1042:B *1103:GATE 0
29 *1292:A *374:29 0
30 *138:14 *374:12 0.000177812
31 *143:8 *374:12 0
32 *236:12 *374:37 0
33 *236:12 *374:52 0.000255579
34 *266:10 *1103:GATE 4.77425e-05
35 *266:10 *374:29 5.27212e-05
36 *266:10 *374:37 0.000181192
37 *308:14 *374:37 0
38 *310:10 *374:29 0
39 *310:10 *374:37 0
40 *312:14 *374:12 0
41 *316:10 *1104:GATE 0
42 *320:14 *374:52 0.000126358
43 *321:16 *374:12 0.000547361
44 *347:14 *374:8 0
45 *347:14 *374:12 0
46 *369:10 *374:52 0.00020815
*RES
1 *1223:X *374:8 41.0918 
2 *374:8 *374:12 28.5078 
3 *374:12 *374:16 1.751 
4 *374:16 *1104:GATE 20.8858 
5 *374:16 *374:29 21.0918 
6 *374:29 *374:37 26.798 
7 *374:37 *1113:GATE 20 
8 *374:37 *374:52 42.9664 
9 *374:52 *1112:GATE 20 
10 *374:29 *1103:GATE 42.6986 
11 *374:12 *1102:GATE 20 
12 *374:8 *1222:A 40 
*END

*D_NET *375 0.0086939
*CONN
*I *1145:A I *D sg13g2_buf_1
*I *1113:D I *D sg13g2_dlhq_1
*I *1233:X O *D sg13g2_buf_1
*CAP
1 *1145:A 7.10018e-05
2 *1113:D 0
3 *1233:X 0.000605297
4 *375:24 0.000118337
5 *375:16 0.0018225
6 *375:10 0.00223846
7 *375:10 *376:10 0
8 *375:16 *1148:A 0.000207731
9 *375:16 *405:38 0.000344002
10 *375:24 *429:12 0.000287804
11 *1235:A *375:10 0
12 *111:10 *375:16 6.38242e-05
13 *111:10 *375:24 1.54008e-05
14 *115:26 *1145:A 1.54008e-05
15 *115:26 *375:16 0
16 *116:10 *375:16 0
17 *179:17 *375:10 0.000725917
18 *180:17 *375:16 0
19 *311:10 *375:16 0.00189195
20 *321:16 *375:24 0.000286283
21 *322:8 *375:16 0
22 *351:14 *375:16 0
23 *373:12 *375:10 0
24 *373:14 *375:16 0
*RES
1 *1233:X *375:10 46.5096 
2 *375:10 *375:16 40.3528 
3 *375:16 *375:24 42.0909 
4 *375:24 *1113:D 20 
5 *375:16 *1145:A 20.8858 
*END

*D_NET *376 0.00549708
*CONN
*I *1114:D I *D sg13g2_dlhq_1
*I *1146:A I *D sg13g2_buf_1
*I *1234:X O *D sg13g2_buf_1
*CAP
1 *1114:D 0.000434395
2 *1146:A 0
3 *1234:X 0.000647313
4 *376:10 0.00108171
5 *376:10 *377:12 0
6 *376:10 *378:8 0
7 N1BEG[2] *1114:D 0.000675796
8 *179:17 *376:10 0
9 *326:18 *1114:D 0.000443782
10 *363:12 *1114:D 0.000639925
11 *363:12 *376:10 0.00157416
12 *375:10 *376:10 0
*RES
1 *1234:X *376:10 48.6726 
2 *376:10 *1146:A 40 
3 *376:10 *1114:D 46.4581 
*END

*D_NET *377 0.00648282
*CONN
*I *1115:D I *D sg13g2_dlhq_1
*I *1147:A I *D sg13g2_buf_1
*I *1235:X O *D sg13g2_buf_1
*CAP
1 *1115:D 0.00036609
2 *1147:A 0.000623514
3 *1235:X 2.44042e-05
4 *377:12 0.00257861
5 *377:8 0.00161341
6 *377:12 *401:40 0.00028427
7 N1BEG[2] *377:12 0
8 *1111:D *1147:A 8.00842e-05
9 *1293:A *1147:A 4.78128e-05
10 *1295:A *1147:A 0
11 *124:14 *377:12 0.000337302
12 *180:13 *1147:A 0
13 *237:14 *1147:A 0.000176129
14 *269:12 *1115:D 0.000272528
15 *269:12 *1147:A 7.86681e-05
16 *352:12 *377:12 0
17 *363:12 *377:12 0
18 *376:10 *377:12 0
*RES
1 *1235:X *377:8 40.3193 
2 *377:8 *377:12 34.1934 
3 *377:12 *1147:A 25.6444 
4 *377:12 *1115:D 23.7183 
*END

*D_NET *378 0.0133591
*CONN
*I *1116:D I *D sg13g2_dlhq_1
*I *1148:A I *D sg13g2_buf_1
*I *1237:X O *D sg13g2_buf_1
*CAP
1 *1116:D 0.00034651
2 *1148:A 0.000419382
3 *1237:X 0.000319758
4 *378:45 0.000859411
5 *378:22 0.0015596
6 *378:14 0.00141746
7 *378:8 0.00110991
8 *1116:D *1041:A3 4.77425e-05
9 *1148:A *1185:A 4.77425e-05
10 *1148:A *405:38 0
11 *378:22 *414:32 0
12 *378:45 *1057:A0 0
13 *378:45 *1185:A 0
14 *378:45 *397:34 0.00102201
15 *378:45 *410:34 0.00130193
16 *378:45 *410:40 7.51285e-05
17 N2BEGb[1] *1116:D 3.15993e-05
18 *1056:S *1116:D 6.39133e-05
19 *1111:D *378:22 0.000368237
20 *115:26 *1148:A 4.77425e-05
21 *115:26 *378:22 1.51e-05
22 *179:17 *378:8 0
23 *180:17 *378:22 0.000655493
24 *234:8 *378:22 0.000181192
25 *234:59 *1116:D 0.000369517
26 *234:59 *378:45 0
27 *237:14 *1148:A 1.51e-05
28 *237:14 *378:22 0
29 *296:58 *378:22 0.000287256
30 *296:58 *378:45 0.000181192
31 *309:16 *378:14 0.000179386
32 *314:6 *378:8 0
33 *315:16 *378:14 0
34 *352:12 *378:14 0.00210272
35 *372:12 *378:14 0
36 *372:12 *378:22 0.000126358
37 *375:16 *1148:A 0.000207731
38 *376:10 *378:8 0
*RES
1 *1237:X *378:8 42.9149 
2 *378:8 *378:14 30.9283 
3 *378:14 *378:22 47.313 
4 *378:22 *1148:A 24.1818 
5 *378:22 *378:45 47.9413 
6 *378:45 *1116:D 23.4762 
*END

*D_NET *379 0.0258837
*CONN
*I *1094:A1 I *D sg13g2_mux2_1
*I *1095:A1 I *D sg13g2_mux2_1
*I *1096:A1 I *D sg13g2_mux2_1
*I *1097:A1 I *D sg13g2_mux2_1
*I *1238:X O *D sg13g2_buf_2
*CAP
1 *1094:A1 0.000129649
2 *1095:A1 0.000216597
3 *1096:A1 0
4 *1097:A1 0.000224297
5 *1238:X 6.08383e-05
6 *379:53 0.000539114
7 *379:47 0.00145936
8 *379:32 0.00129788
9 *379:26 0.000939272
10 *379:18 0.00123975
11 *379:12 0.00356171
12 *379:10 0.00282249
13 *1094:A1 *1088:A0 0.000175693
14 *1094:A1 *1088:A1 0.000143351
15 *1094:A1 *384:57 0.000105753
16 *1095:A1 *1077:A0 7.48178e-05
17 *1097:A1 *422:10 0
18 *379:12 *428:10 0
19 *379:18 *1204:A 0
20 *379:26 *384:57 0.000444151
21 *379:32 *1088:A0 0.000208035
22 *379:32 *380:24 3.22965e-05
23 *379:47 *422:10 0.000179386
24 *379:53 *395:22 0
25 *379:53 *409:34 0.000407448
26 N4BEG[6] *379:32 0.000562187
27 *1118:A *379:10 0
28 *1304:A *379:18 0
29 *29:5 *379:12 0.00723834
30 *30:7 *379:12 0
31 *136:12 *379:26 0
32 *138:14 *379:26 0.000495798
33 *138:18 *1097:A1 0.00020799
34 *223:8 *1095:A1 0.000338311
35 *223:8 *379:47 0.00140376
36 *226:16 *379:26 0
37 *232:8 *379:47 0
38 *232:12 *379:53 0.000212014
39 *232:31 *379:53 0.000409034
40 *241:18 *379:53 0
41 *296:21 *1097:A1 0.000181192
42 *296:21 *379:47 0
43 *330:34 *1094:A1 0.00012785
44 *330:34 *379:26 0.000445366
45 *332:14 *1095:A1 0
46 *332:14 *379:47 0
47 *342:12 *1095:A1 0
48 *342:12 *379:47 0
49 *342:30 *379:18 0
50 *350:8 *379:18 0
51 *355:32 *379:53 0
*RES
1 *1238:X *379:10 40.6695 
2 *379:10 *379:12 33.475 
3 *379:12 *379:18 47.0246 
4 *379:18 *379:26 45.4281 
5 *379:26 *379:32 43.7801 
6 *379:32 *1097:A1 42.2454 
7 *379:32 *379:47 8.5799 
8 *379:47 *379:53 45.5105 
9 *379:53 *1096:A1 40 
10 *379:47 *1095:A1 42.575 
11 *379:26 *1094:A1 41.7819 
*END

*D_NET *380 0.00822228
*CONN
*I *1094:A0 I *D sg13g2_mux2_1
*I *1088:A0 I *D sg13g2_mux2_1
*I *1239:X O *D sg13g2_buf_1
*CAP
1 *1094:A0 0
2 *1088:A0 0.000199559
3 *1239:X 0.000431606
4 *380:24 0.0015382
5 *380:14 0.00177025
6 *380:24 *1214:A 0.000654518
7 *380:24 *413:10 0.000603415
8 N4BEG[10] *380:24 0.000304493
9 NN4BEG[8] *380:14 4.77425e-05
10 *1062:B_N *380:24 0.000129089
11 *1094:A1 *1088:A0 0.000175693
12 *143:16 *380:24 0.00094789
13 *231:21 *380:24 0.000317514
14 *289:10 *380:14 0.000272718
15 *296:10 *380:24 0.000304985
16 *296:109 *380:24 0
17 *350:22 *380:24 0.00028427
18 *351:14 *380:24 0
19 *361:12 *380:24 0
20 *365:8 *380:24 0
21 *379:32 *1088:A0 0.000208035
22 *379:32 *380:24 3.22965e-05
*RES
1 *1239:X *380:14 44.429 
2 *380:14 *380:24 35.4912 
3 *380:24 *1088:A0 22.1836 
4 *380:24 *1094:A0 20 
*END

*D_NET *381 0.00411174
*CONN
*I *1077:A0 I *D sg13g2_mux2_1
*I *1095:A0 I *D sg13g2_mux2_1
*I *1240:X O *D sg13g2_buf_1
*CAP
1 *1077:A0 0.000351283
2 *1095:A0 3.78077e-05
3 *1240:X 0.000409253
4 *381:20 0.000883374
5 *381:14 0.000903537
6 *1077:A0 *1077:A1 4.76977e-05
7 *1077:A0 *408:20 2.14736e-05
8 *381:14 *413:10 0.000177762
9 *381:20 *391:18 0
10 *381:20 *393:16 0
11 *381:20 *395:22 0.000241839
12 *381:20 *436:20 0.0001451
13 NN4BEG[13] *381:14 1.54008e-05
14 *1095:A1 *1077:A0 7.48178e-05
15 *1171:A *1077:A0 0
16 *231:21 *381:14 0.000177683
17 *241:18 *381:20 0
18 *264:38 *1077:A0 0
19 *290:10 *381:14 7.92265e-05
20 *323:14 *1077:A0 0.000369318
21 *336:32 *381:20 0.000176172
*RES
1 *1240:X *381:14 44.2745 
2 *381:14 *381:20 44.6453 
3 *381:20 *1095:A0 40.3193 
4 *381:20 *1077:A0 43.3269 
*END

*D_NET *382 0.00314306
*CONN
*I *1066:A0 I *D sg13g2_mux2_1
*I *1096:A0 I *D sg13g2_mux2_1
*I *1241:X O *D sg13g2_buf_1
*CAP
1 *1066:A0 0
2 *1096:A0 0.000228836
3 *1241:X 0.000154784
4 *382:12 0.00028253
5 *382:8 0.000208478
6 *1096:A0 *395:35 0.000240377
7 *1096:A0 *409:24 0.000337402
8 *382:8 *409:18 0.000821455
9 *382:12 *395:35 1.54008e-05
10 *382:12 *409:24 3.23417e-05
11 NN4BEG[6] *382:12 0
12 *150:10 *382:8 0.000821455
*RES
1 *1241:X *382:8 43.811 
2 *382:8 *382:12 20.5356 
3 *382:12 *1096:A0 22.6162 
4 *382:12 *1066:A0 20 
*END

*D_NET *383 0.0144388
*CONN
*I *1056:A0 I *D sg13g2_mux2_1
*I *1041:A0 I *D sg13g2_mux4_1
*I *1097:A0 I *D sg13g2_mux2_1
*I *1242:X O *D sg13g2_buf_1
*CAP
1 *1056:A0 0.000102844
2 *1041:A0 1.91291e-05
3 *1097:A0 0
4 *1242:X 0.000738623
5 *383:71 0.000279113
6 *383:61 0.000980403
7 *383:48 0.000371037
8 *383:38 0.00103066
9 *383:34 0.000745411
10 *383:16 0.00144199
11 *1056:A0 *388:40 0.000175693
12 *1056:A0 *397:24 0.000175693
13 *383:16 *387:16 0.000143351
14 *383:16 *388:14 0.000287971
15 *383:16 *395:10 7.34783e-05
16 *383:16 *395:35 0.000500871
17 *383:16 *397:16 0
18 *383:34 *384:32 0.00012816
19 *383:34 *397:16 0.000181387
20 *383:34 *397:20 0
21 *383:34 *418:55 0.00012816
22 *383:61 *397:20 0
23 N4BEG[10] *383:34 0.000272718
24 N4BEG[13] *383:34 0.000286638
25 N4BEG[5] *383:38 6.42734e-05
26 N4BEG[5] *383:48 0.000111567
27 N4BEG[5] *383:61 0
28 N4BEG[5] *383:71 0
29 N4BEG[6] *383:48 4.77425e-05
30 *1041:S0 *1041:A0 8.08542e-06
31 *1041:S1 *383:61 2.14736e-05
32 *1055:A2 *383:71 4.77425e-05
33 *1059:A2 *1041:A0 4.04271e-05
34 *124:14 *383:61 0.000549119
35 *124:14 *383:71 0.000391177
36 *132:16 *383:34 8.85668e-05
37 *138:18 *383:38 7.92265e-05
38 *138:18 *383:48 0.000433493
39 *143:16 *383:34 0.000294504
40 *152:10 *383:34 0.000446352
41 *156:10 *383:16 0.000445433
42 *156:10 *383:34 0
43 *158:10 *383:34 0.000444965
44 *177:15 *383:48 0.000179389
45 *239:8 *383:61 0
46 *240:10 *383:48 0.000208035
47 *296:38 *383:48 0
48 *296:58 *383:71 0.000181141
49 *296:109 *383:34 0.00012816
50 *309:16 *383:61 0.000578559
51 *309:16 *383:71 0.000391177
52 *327:10 *383:16 0.000143351
53 *350:22 *383:34 0
54 *350:22 *383:61 0.000602669
55 *351:14 *383:48 0
56 *360:12 *383:16 0.000448824
*RES
1 *1242:X *383:16 48.9816 
2 *383:16 *383:34 49.5275 
3 *383:34 *383:38 20.5356 
4 *383:38 *383:48 44.0788 
5 *383:48 *1097:A0 20 
6 *383:38 *383:61 27.6941 
7 *383:61 *383:71 43.6462 
8 *383:71 *1041:A0 40.2704 
9 *383:61 *1056:A0 41.1845 
*END

*D_NET *384 0.0147494
*CONN
*I *1090:B I *D sg13g2_nor2_1
*I *1188:A I *D sg13g2_buf_1
*I *1243:X O *D sg13g2_buf_1
*CAP
1 *1090:B 0
2 *1188:A 0
3 *1243:X 0.000183678
4 *384:57 0.000534327
5 *384:44 0.000334275
6 *384:34 0.00138277
7 *384:32 0.00124339
8 *384:18 0.00241555
9 *384:8 0.00187
10 *384:18 *392:14 0.000553246
11 *384:44 *1149:A 4.77425e-05
12 *384:44 *389:10 0
13 *384:57 *1184:A 0
14 *384:57 *406:32 0
15 N4BEG[14] *384:18 4.77425e-05
16 N4BEG[15] *384:18 0.000272718
17 NN4BEG[4] *384:18 0.000605949
18 NN4BEG[7] *384:18 0.000287758
19 *1089:B *384:57 0.000605758
20 *1094:A1 *384:57 0.000105753
21 *1138:A *384:44 0
22 *1141:A *384:34 0
23 *1172:A *384:34 0.000289423
24 *1172:A *384:44 8.00842e-05
25 *1243:A *384:8 0.000306081
26 *1325:A *384:18 0.0001122
27 *1325:A *384:32 0.000722404
28 *1325:A *384:34 0.00011101
29 *147:10 *384:18 7.9225e-05
30 *161:13 *384:18 0.000605298
31 *162:13 *384:18 0.000499668
32 *166:13 *384:8 0.00014491
33 *167:11 *384:8 0
34 *225:64 *384:57 0.000390791
35 *258:10 *384:44 0
36 *318:32 *384:44 0.000232968
37 *323:20 *384:57 0
38 *330:34 *384:57 0
39 *351:28 *384:18 0.000112392
40 *368:6 *384:32 0
41 *368:6 *384:34 0
42 *379:26 *384:57 0.000444151
43 *383:34 *384:32 0.00012816
*RES
1 *1243:X *384:8 42.0497 
2 *384:8 *384:18 38.9829 
3 *384:18 *384:32 47.3439 
4 *384:32 *384:34 4.8616 
5 *384:34 *384:44 43.4608 
6 *384:44 *1188:A 20 
7 *384:34 *384:57 46.2671 
8 *384:57 *1090:B 20 
*END

*D_NET *385 0.00695798
*CONN
*I *1223:A I *D sg13g2_buf_2
*I *1105:GATE I *D sg13g2_dlhq_1
*I *1107:GATE I *D sg13g2_dlhq_1
*I *1106:GATE I *D sg13g2_dlhq_1
*I *1110:GATE I *D sg13g2_dlhq_1
*I *1108:GATE I *D sg13g2_dlhq_1
*I *1109:GATE I *D sg13g2_dlhq_1
*I *1149:A I *D sg13g2_buf_1
*I *1224:X O *D sg13g2_buf_2
*CAP
1 *1223:A 0.000218678
2 *1105:GATE 0
3 *1107:GATE 0.00026023
4 *1106:GATE 0
5 *1110:GATE 2.8155e-05
6 *1108:GATE 0.000263201
7 *1109:GATE 0
8 *1149:A 0.000165773
9 *1224:X 0
10 *385:67 0.000641411
11 *385:50 0.000569062
12 *385:30 0.00049662
13 *385:23 0.000616663
14 *385:19 0.000678055
15 *385:6 0.000244549
16 *385:4 0.000218678
17 *1108:GATE *409:34 0
18 NN4BEG[3] *1108:GATE 0.000337136
19 NN4BEG[3] *385:23 0
20 NN4BEG[3] *385:30 0
21 *1063:A1 *1108:GATE 0
22 *1106:D *385:23 0.000112314
23 *1138:A *1149:A 4.77425e-05
24 *1170:A *385:23 0
25 *228:8 *385:67 7.50435e-05
26 *230:10 *1107:GATE 0
27 *230:10 *385:67 1.53311e-05
28 *246:8 *385:50 7.58806e-05
29 *310:8 *385:23 7.92265e-05
30 *310:10 *385:50 0
31 *318:18 *385:23 0
32 *318:18 *385:30 0
33 *323:20 *1149:A 0.00039332
34 *323:20 *385:19 0.000213045
35 *323:20 *385:50 0.000641041
36 *324:16 *385:67 0
37 *354:34 *1223:A 8.01995e-05
38 *355:26 *1223:A 0.000294773
39 *358:16 *385:23 0.000144114
40 *358:16 *385:50 0
41 *367:10 *1107:GATE 0
42 *367:10 *385:67 0
43 *384:44 *1149:A 4.77425e-05
*RES
1 *1224:X *385:4 20 
2 *385:4 *385:6 20 
3 *385:6 *1149:A 42.1527 
4 *385:6 *385:19 1.0918 
5 *385:19 *385:23 23.9964 
6 *385:23 *1109:GATE 20 
7 *385:23 *385:30 1.8334 
8 *385:30 *1108:GATE 22.8634 
9 *385:30 *1110:GATE 20.3502 
10 *385:19 *385:50 23.0694 
11 *385:50 *1106:GATE 20 
12 *385:50 *385:67 43.5638 
13 *385:67 *1107:GATE 22.1836 
14 *385:67 *1105:GATE 20 
15 *385:4 *1223:A 22.1836 
*END

*D_NET *386 0.00383392
*CONN
*I *1187:A I *D sg13g2_buf_1
*I *1079:B I *D sg13g2_nor2_1
*I *1244:X O *D sg13g2_buf_1
*CAP
1 *1187:A 0.000169396
2 *1079:B 0.000164622
3 *1244:X 0.000798354
4 *386:10 0.000805596
5 *386:8 0.00126993
6 *386:8 *389:8 0
7 *386:10 *408:20 0
8 *1210:A *386:8 0
9 *1248:A *386:8 0
10 *83:27 *1187:A 0.00030531
11 *180:7 *386:8 0
12 *202:21 *386:8 1.54008e-05
13 *332:8 *1187:A 0.00030531
14 *342:12 *1079:B 0
15 *342:12 *386:10 0
*RES
1 *1244:X *386:8 47.2409 
2 *386:8 *386:10 4.0582 
3 *386:10 *1079:B 41.339 
4 *386:10 *1187:A 42.0497 
*END

*D_NET *387 0.00411917
*CONN
*I *1186:A I *D sg13g2_buf_1
*I *1068:B I *D sg13g2_nor2_1
*I *1245:X O *D sg13g2_buf_1
*CAP
1 *1186:A 0
2 *1068:B 0.000126855
3 *1245:X 0.000605207
4 *387:16 0.000274519
5 *387:12 0.000752871
6 *387:12 *388:14 0
7 *387:12 *397:8 1.55212e-05
8 *387:12 *397:16 0.000770719
9 *387:12 *410:22 0.000729245
10 *167:11 *387:12 0.000284859
11 *176:11 *387:12 0.000181694
12 *202:21 *387:12 0.000234329
13 *383:16 *387:16 0.000143351
*RES
1 *1245:X *387:12 48.6829 
2 *387:12 *387:16 21.4008 
3 *387:16 *1068:B 21.4111 
4 *387:16 *1186:A 20 
*END

*D_NET *388 0.0186019
*CONN
*I *1041:A2 I *D sg13g2_mux4_1
*I *1057:A0 I *D sg13g2_mux2_1
*I *1185:A I *D sg13g2_buf_1
*I *1246:X O *D sg13g2_buf_1
*CAP
1 *1041:A2 0
2 *1057:A0 0.000158987
3 *1185:A 0.000617685
4 *1246:X 7.35438e-05
5 *388:44 0.000957425
6 *388:40 0.000383563
7 *388:36 0.000448771
8 *388:28 0.00118319
9 *388:22 0.0013408
10 *388:14 0.0015421
11 *388:8 0.00121207
12 *1185:A *397:34 0.0012338
13 *388:8 *390:6 0
14 *388:14 *395:10 0.000924865
15 *388:14 *397:16 0
16 *388:22 *401:22 0.00124264
17 *388:28 *401:22 0.00140211
18 *388:44 *397:34 0
19 N2BEG[5] *388:40 0
20 N4BEG[11] *388:28 0
21 N4BEG[1] *1057:A0 0
22 N4BEG[1] *1185:A 0
23 NN4BEG[3] *388:22 1.54008e-05
24 *1055:A1 *1185:A 0.000285401
25 *1056:A0 *388:40 0.000175693
26 *1148:A *1185:A 4.77425e-05
27 *1250:A *388:8 0.000111828
28 *116:10 *1185:A 0.000181192
29 *134:8 *388:28 0.00182643
30 *142:12 *1057:A0 8.00842e-05
31 *142:12 *388:36 0.000272673
32 *142:12 *388:40 0.000337402
33 *142:12 *388:44 0.000240862
34 *148:8 *388:22 0
35 *151:10 *388:28 0
36 *158:10 *388:22 0.000605613
37 *162:13 *388:14 1.54008e-05
38 *167:11 *388:14 0
39 *195:9 *388:14 0
40 *202:21 *388:14 0
41 *322:8 *1185:A 0.00012816
42 *327:10 *388:22 0.000181279
43 *333:20 *388:28 0.000604057
44 *335:34 *388:36 0.00012816
45 *355:38 *388:22 1.54008e-05
46 *359:10 *388:14 0.000339556
47 *360:12 *388:14 0
48 *364:18 *388:28 0
49 *378:45 *1057:A0 0
50 *378:45 *1185:A 0
51 *383:16 *388:14 0.000287971
52 *387:12 *388:14 0
*RES
1 *1246:X *388:8 40.7519 
2 *388:8 *388:14 31.9171 
3 *388:14 *388:22 46.3242 
4 *388:22 *388:28 33.5239 
5 *388:28 *388:36 42.4308 
6 *388:36 *388:40 22.266 
7 *388:40 *388:44 21.6171 
8 *388:44 *1185:A 47.7662 
9 *388:44 *1057:A0 41.3493 
10 *388:40 *1041:A2 20 
*END

*D_NET *389 0.0104362
*CONN
*I *1184:A I *D sg13g2_buf_1
*I *1089:A_N I *D sg13g2_nand2b_1
*I *1248:X O *D sg13g2_buf_1
*CAP
1 *1184:A 0.00027348
2 *1089:A_N 6.31449e-05
3 *1248:X 0.00102869
4 *389:10 0.00206208
5 *389:8 0.00275415
6 *389:8 *390:6 0
7 *389:8 *391:8 0
8 *389:10 *1072:A0 0.000446525
9 *389:10 *399:14 0.000693479
10 *389:10 *452:10 0
11 *1072:S *389:10 0
12 *1089:B *1184:A 0.000585703
13 *225:64 *1184:A 0.000181232
14 *228:31 *389:10 0
15 *229:8 *389:10 0.000231618
16 *246:8 *389:10 0
17 *258:10 *1089:A_N 0
18 *259:8 *1184:A 0
19 *261:12 *1184:A 0.000341071
20 *318:32 *1184:A 0
21 *318:32 *389:10 0
22 *323:20 *389:10 0.00177501
23 *384:44 *389:10 0
24 *384:57 *1184:A 0
25 *386:8 *389:8 0
*RES
1 *1248:X *389:8 48.1418 
2 *389:8 *389:10 18.1486 
3 *389:10 *1089:A_N 40.5356 
4 *389:10 *1184:A 44.1303 
*END

*D_NET *390 0.00660568
*CONN
*I *1078:A_N I *D sg13g2_nand2b_1
*I *1183:A I *D sg13g2_buf_1
*I *1249:X O *D sg13g2_buf_1
*CAP
1 *1078:A_N 0
2 *1183:A 8.11998e-05
3 *1249:X 0.00114205
4 *390:14 0.000130706
5 *390:10 0.000919774
6 *390:6 0.00201232
7 *390:6 *391:8 0
8 *390:6 *398:6 0
9 *390:6 *400:8 0
10 *390:10 *1072:A1 0.000287672
11 *390:10 *403:12 0.00135495
12 *1072:S *390:10 0
13 *85:7 *390:6 0.000272631
14 *182:15 *390:6 0
15 *228:27 *1183:A 4.75525e-05
16 *228:27 *390:14 1.53561e-05
17 *246:8 *390:10 0.000341464
18 *323:14 *390:14 0
19 *358:16 *390:10 0
20 *388:8 *390:6 0
21 *389:8 *390:6 0
*RES
1 *1249:X *390:6 29.0385 
2 *390:6 *390:10 30.7326 
3 *390:10 *390:14 20.5356 
4 *390:14 *1183:A 20.9167 
5 *390:14 *1078:A_N 20 
*END

*D_NET *391 0.00682911
*CONN
*I *1182:A I *D sg13g2_buf_1
*I *1067:A_N I *D sg13g2_nand2b_1
*I *1250:X O *D sg13g2_buf_1
*CAP
1 *1182:A 6.27888e-05
2 *1067:A_N 0.000138461
3 *1250:X 0.00039486
4 *391:18 0.000493909
5 *391:10 0.00107753
6 *391:8 0.00105416
7 *391:10 *408:20 0
8 *391:18 *393:16 0
9 *391:18 *410:22 4.82481e-05
10 *391:18 *410:34 0.000126721
11 *391:18 *413:10 0.000177583
12 *1067:B *1067:A_N 0.000111815
13 *1070:C1 *1182:A 4.77425e-05
14 *1171:A *1182:A 0
15 *293:10 *1067:A_N 0.000208035
16 *336:10 *391:10 0
17 *336:18 *391:10 0.00044938
18 *344:12 *391:10 0.000181192
19 *345:12 *391:10 0
20 *348:10 *391:10 0.00225669
21 *381:20 *391:18 0
22 *389:8 *391:8 0
23 *390:6 *391:8 0
*RES
1 *1250:X *391:8 43.5638 
2 *391:8 *391:10 10.4854 
3 *391:10 *391:18 43.5432 
4 *391:18 *1067:A_N 41.4008 
5 *391:10 *1182:A 40.6695 
*END

*D_NET *392 0.0184627
*CONN
*I *1041:A3 I *D sg13g2_mux4_1
*I *1057:A1 I *D sg13g2_mux2_1
*I *1181:A I *D sg13g2_buf_1
*I *1251:X O *D sg13g2_buf_1
*CAP
1 *1041:A3 2.60565e-05
2 *1057:A1 2.98749e-05
3 *1181:A 0.000545473
4 *1251:X 0.000148832
5 *392:34 0.000946717
6 *392:26 0.00118588
7 *392:20 0.00148948
8 *392:14 0.00245823
9 *392:8 0.00190604
10 *1181:A *405:38 0.000341555
11 *392:14 *409:18 0
12 *392:26 *410:34 0
13 *392:34 *410:34 0
14 N2BEGb[1] *1041:A3 4.77425e-05
15 N2BEGb[5] *392:20 0.000126552
16 N4BEG[0] *392:20 0
17 N4BEG[11] *392:20 0.00161534
18 N4BEG[14] *392:20 0
19 N4BEG[15] *392:14 0.000144542
20 N4BEG[4] *392:20 0.000182121
21 NN4BEG[0] *392:14 0.000144542
22 *1116:D *1041:A3 4.77425e-05
23 *1259:A *392:8 0.000241167
24 *3:10 *392:14 0.00113814
25 *112:16 *1181:A 0.000112426
26 *115:26 *1181:A 4.77425e-05
27 *116:18 *392:34 0
28 *142:12 *1057:A1 4.77425e-05
29 *146:10 *392:20 0.000394248
30 *147:10 *392:20 0.000181192
31 *149:10 *392:14 0
32 *150:10 *392:14 0
33 *151:10 *392:20 0
34 *159:10 *392:14 0.00103095
35 *159:10 *392:20 0
36 *162:13 *392:14 0.000500888
37 *168:13 *392:14 0
38 *170:13 *392:14 0.000499885
39 *181:13 *392:8 0
40 *181:13 *392:14 0
41 *188:13 *392:14 0.000181192
42 *190:13 *392:8 0.000112453
43 *191:13 *392:8 0
44 *239:23 *392:26 0
45 *239:23 *392:34 0
46 *296:58 *392:26 0.000283615
47 *296:58 *392:34 0.000232111
48 *311:10 *1181:A 0
49 *337:12 *392:26 0
50 *345:18 *1181:A 0.000179584
51 *351:14 *1181:A 0.00133939
52 *384:18 *392:14 0.000553246
*RES
1 *1251:X *392:8 41.6171 
2 *392:8 *392:14 40.8472 
3 *392:14 *392:20 49.7438 
4 *392:20 *392:26 26.6332 
5 *392:26 *392:34 43.5741 
6 *392:34 *1181:A 47.0349 
7 *392:34 *1057:A1 40.3193 
8 *392:26 *1041:A3 40.3193 
*END

*D_NET *393 0.0089407
*CONN
*I *1088:A1 I *D sg13g2_mux2_1
*I *1180:A I *D sg13g2_buf_1
*I *1252:X O *D sg13g2_buf_1
*CAP
1 *1088:A1 0.000129912
2 *1180:A 0.000254791
3 *1252:X 0.000624143
4 *393:18 0.00134538
5 *393:16 0.00163752
6 *393:10 0.00130098
7 *393:10 *404:25 0
8 *393:16 *408:26 0.000462725
9 *393:16 *436:20 0.000144746
10 *393:18 *1179:A 0
11 *1069:B *393:10 0
12 *1094:A1 *1088:A1 0.000143351
13 *138:14 *1180:A 7.33256e-05
14 *138:18 *1180:A 8.0039e-05
15 *231:44 *393:10 0
16 *241:18 *393:16 0
17 *241:18 *393:18 0
18 *284:8 *393:10 0.000282163
19 *310:10 *393:18 0
20 *312:14 *1180:A 0.000444692
21 *312:14 *393:18 0.00053484
22 *336:18 *393:16 0
23 *347:14 *393:18 0
24 *358:16 *393:18 0.000928747
25 *362:18 *393:10 0.000553345
26 *374:8 *393:18 0
27 *374:12 *1180:A 0
28 *374:12 *393:18 0
29 *381:20 *393:16 0
30 *391:18 *393:16 0
*RES
1 *1252:X *393:10 46.5714 
2 *393:10 *393:16 45.9431 
3 *393:16 *393:18 10.2382 
4 *393:18 *1180:A 42.8325 
5 *393:18 *1088:A1 41.1845 
*END

*D_NET *394 0.00492416
*CONN
*I *1077:A1 I *D sg13g2_mux2_1
*I *1179:A I *D sg13g2_buf_1
*I *1253:X O *D sg13g2_buf_1
*CAP
1 *1077:A1 3.00952e-05
2 *1179:A 0.000355548
3 *1253:X 0.0010892
4 *394:12 0.000718809
5 *394:10 0.00142237
6 *1077:A0 *1077:A1 4.76977e-05
7 *1079:A *394:10 0
8 *1195:A *394:10 8.01116e-05
9 *1211:A *394:10 0
10 *1212:A *394:10 0
11 *1252:A *394:10 0
12 *1253:A *394:10 0
13 *247:10 *1077:A1 0
14 *247:10 *394:12 0.00039248
15 *251:8 *1179:A 0
16 *251:8 *394:12 0
17 *264:38 *394:12 0.000178078
18 *335:10 *394:10 7.92524e-05
19 *338:20 *394:12 0
20 *344:12 *394:10 0
21 *344:20 *394:10 0.000530521
22 *347:8 *394:10 0
23 *358:16 *1179:A 0
24 *358:16 *394:12 0
25 *362:8 *394:10 0
26 *393:18 *1179:A 0
*RES
1 *1253:X *394:10 49.785 
2 *394:10 *394:12 3.5638 
3 *394:12 *1179:A 42.8222 
4 *394:12 *1077:A1 40.3193 
*END

*D_NET *395 0.00609644
*CONN
*I *1066:A1 I *D sg13g2_mux2_1
*I *1178:A I *D sg13g2_buf_1
*I *1254:X O *D sg13g2_buf_1
*CAP
1 *1066:A1 0
2 *1178:A 0
3 *1254:X 0.000331157
4 *395:35 0.00026854
5 *395:22 0.000526166
6 *395:14 0.000859778
7 *395:10 0.000396229
8 *395:10 *397:16 0.00113803
9 *395:14 *410:22 0
10 *395:22 *410:22 0
11 NN4BEG[8] *395:35 8.00842e-05
12 *1065:B1 *395:22 0
13 *1096:A0 *395:35 0.000240377
14 *241:18 *395:22 0
15 *360:12 *395:35 0.000499621
16 *379:53 *395:22 0
17 *381:20 *395:22 0.000241839
18 *382:12 *395:35 1.54008e-05
19 *383:16 *395:10 7.34783e-05
20 *383:16 *395:35 0.000500871
21 *388:14 *395:10 0.000924865
*RES
1 *1254:X *395:10 45.8298 
2 *395:10 *395:14 20.5356 
3 *395:14 *395:22 44.532 
4 *395:22 *1178:A 20 
5 *395:14 *395:35 43.9449 
6 *395:35 *1066:A1 20 
*END

*D_NET *396 0.0100713
*CONN
*I *1049:B1 I *D sg13g2_o21ai_1
*I *1225:X O *D sg13g2_buf_1
*CAP
1 *1049:B1 0.000160193
2 *1225:X 0.000532689
3 *396:18 0.00190812
4 *396:12 0.0037282
5 *396:8 0.00251296
6 *396:8 *428:8 0
7 *396:18 *401:30 0.000335522
8 N2BEG[7] *396:18 0
9 *1041:S0 *396:18 0.000126013
10 *1049:A2 *1049:B1 0.000272415
11 *1118:A *396:8 0
12 *1123:A *396:8 0
13 *34:5 *396:12 0
14 *113:10 *396:18 0
15 *116:18 *396:18 0
16 *179:17 *396:8 0
17 *267:8 *396:12 0.000182023
18 *274:10 *1049:B1 0.000240187
19 *274:10 *396:18 7.30101e-05
20 *341:24 *396:12 0
21 *345:18 *396:18 0
22 *367:16 *396:12 0
*RES
1 *1225:X *396:8 45.2942 
2 *396:8 *396:12 41.115 
3 *396:12 *396:18 34.9762 
4 *396:18 *1049:B1 41.8334 
*END

*D_NET *397 0.0157979
*CONN
*I *1056:A1 I *D sg13g2_mux2_1
*I *1041:A1 I *D sg13g2_mux4_1
*I *1177:A I *D sg13g2_buf_1
*I *1255:X O *D sg13g2_buf_1
*CAP
1 *1056:A1 0
2 *1041:A1 2.77263e-05
3 *1177:A 0
4 *1255:X 2.43877e-05
5 *397:34 0.00066129
6 *397:24 0.000855574
7 *397:22 0.000166558
8 *397:20 0.00119311
9 *397:16 0.00219864
10 *397:8 0.00102992
11 *397:16 *410:22 0.000287332
12 *397:20 *418:55 0.00012816
13 N2BEG[5] *397:24 0.000257272
14 N2BEG[5] *397:34 0.000207845
15 *1048:B1 *397:20 0
16 *1056:A0 *397:24 0.000175693
17 *1185:A *397:34 0.0012338
18 *148:8 *397:16 0.00135347
19 *155:10 *397:20 0.00107975
20 *222:8 *397:20 0.00018128
21 *234:47 *397:20 0.000287256
22 *237:14 *397:34 0.00023464
23 *239:8 *397:20 0
24 *296:109 *397:20 0.000602461
25 *322:8 *397:34 0.000340704
26 *327:10 *397:16 0
27 *335:34 *397:20 0
28 *354:34 *397:16 0.000143351
29 *356:24 *397:20 0
30 *360:12 *397:20 0
31 *378:45 *397:34 0.00102201
32 *383:16 *397:16 0
33 *383:34 *397:16 0.000181387
34 *383:34 *397:20 0
35 *383:61 *397:20 0
36 *387:12 *397:8 1.55212e-05
37 *387:12 *397:16 0.000770719
38 *388:14 *397:16 0
39 *388:44 *397:34 0
40 *395:10 *397:16 0.00113803
*RES
1 *1255:X *397:8 40.3193 
2 *397:8 *397:16 33.7196 
3 *397:16 *397:20 32.9574 
4 *397:20 *397:22 20 
5 *397:22 *397:24 1.8334 
6 *397:24 *397:34 49.6717 
7 *397:34 *1177:A 20 
8 *397:24 *1041:A1 20.3502 
9 *397:22 *1056:A1 20 
*END

*D_NET *398 0.011448
*CONN
*I *1083:A0 I *D sg13g2_mux2_1
*I *1204:A I *D sg13g2_buf_1
*I *1256:X O *D sg13g2_buf_1
*CAP
1 *1083:A0 0
2 *1204:A 0.000149442
3 *1256:X 0.00161571
4 *398:12 0.00297836
5 *398:6 0.00444463
6 *1204:A *1083:A1 0
7 *398:6 *399:10 0
8 *398:6 *400:8 0
9 *398:12 *402:14 0
10 *398:12 *408:36 0.000395611
11 *1209:A *398:6 0
12 *1259:A *398:6 0
13 *82:11 *398:12 0
14 *82:15 *398:12 0
15 *84:13 *398:6 0
16 *85:7 *398:6 0
17 *260:8 *398:12 0.000394566
18 *324:20 *1204:A 0.000338987
19 *324:20 *398:12 0
20 *329:12 *1204:A 0
21 *342:30 *1204:A 4.77425e-05
22 *354:14 *398:12 0.00103517
23 *359:10 *398:6 4.77425e-05
24 *379:18 *1204:A 0
25 *390:6 *398:6 0
*RES
1 *1256:X *398:6 34.8114 
2 *398:6 *398:12 44.8951 
3 *398:12 *1204:A 41.9055 
4 *398:12 *1083:A0 40 
*END

*D_NET *399 0.00648871
*CONN
*I *1203:A I *D sg13g2_buf_1
*I *1072:A0 I *D sg13g2_mux2_1
*I *1257:X O *D sg13g2_buf_1
*CAP
1 *1203:A 0
2 *1072:A0 0.000178401
3 *1257:X 0.00120088
4 *399:14 0.00100553
5 *399:10 0.00202801
6 *1072:A0 *403:12 0
7 *399:14 *403:12 0
8 *399:14 *452:10 0
9 *1072:S *1072:A0 0.000181192
10 *1209:A *399:10 0.000176178
11 *1263:A *399:10 0.000530778
12 *83:27 *1072:A0 4.77425e-05
13 *84:13 *399:10 0
14 *358:10 *399:10 0
15 *389:10 *1072:A0 0.000446525
16 *389:10 *399:14 0.000693479
17 *398:6 *399:10 0
*RES
1 *1257:X *399:10 31.8038 
2 *399:10 *399:14 28.0134 
3 *399:14 *1072:A0 42.3999 
4 *399:14 *1203:A 40 
*END

*D_NET *400 0.00315496
*CONN
*I *1202:A I *D sg13g2_buf_1
*I *1061:A0 I *D sg13g2_mux2_1
*I *1259:X O *D sg13g2_buf_1
*CAP
1 *1202:A 0
2 *1061:A0 0.000238949
3 *1259:X 0.00018748
4 *400:10 0.00129956
5 *400:8 0.00124809
6 *1061:A0 *404:10 0
7 *1061:A0 *404:25 0.000180892
8 *1061:A0 *413:10 0
9 *400:10 *404:10 0
10 *400:10 *413:10 0
11 *83:33 *400:10 0
12 *362:18 *1061:A0 0
13 *390:6 *400:8 0
14 *398:6 *400:8 0
*RES
1 *1259:X *400:8 41.6171 
2 *400:8 *400:10 9.0022 
3 *400:10 *1061:A0 42.5029 
4 *400:10 *1202:A 40 
*END

*D_NET *401 0.0236838
*CONN
*I *1051:A0 I *D sg13g2_mux2_1
*I *1044:B I *D sg13g2_nor2_1
*I *1201:A I *D sg13g2_buf_1
*I *1260:X O *D sg13g2_buf_1
*CAP
1 *1051:A0 0
2 *1044:B 0
3 *1201:A 8.49092e-05
4 *1260:X 2.4561e-05
5 *401:67 0.000326742
6 *401:48 0.000576433
7 *401:40 0.000827363
8 *401:30 0.00131338
9 *401:22 0.00352995
10 *401:8 0.00290372
11 *401:22 *409:18 0.000982041
12 *401:22 *410:22 0.00236048
13 N1BEG[2] *401:40 0.00134474
14 N4BEG[5] *401:30 0.000542144
15 N4BEG[5] *401:40 0.000230578
16 *1143:A *1201:A 0
17 *1143:A *401:67 0
18 *1295:A *401:67 0.00015922
19 *1303:A *401:48 0.000175693
20 *1303:A *401:67 4.68833e-05
21 *112:16 *401:40 7.33225e-05
22 *112:28 *401:40 0.000211071
23 *113:10 *401:30 0
24 *116:18 *401:30 0
25 *124:8 *401:48 7.92265e-05
26 *124:14 *401:40 0
27 *132:16 *401:22 0.000657349
28 *144:10 *401:22 0.000605863
29 *150:10 *401:22 0
30 *158:10 *401:22 1.56814e-05
31 *163:11 *401:22 0.000395604
32 *164:13 *401:22 7.56308e-05
33 *180:17 *401:67 0.000179386
34 *238:12 *401:40 0.000232647
35 *269:12 *401:67 0.000143979
36 *270:16 *401:22 0
37 *296:58 *401:30 0
38 *296:58 *401:40 0
39 *322:8 *401:67 0
40 *327:10 *401:22 0
41 *331:24 *1201:A 6.95576e-05
42 *333:28 *401:22 0.00113287
43 *334:14 *401:22 0.000497581
44 *335:34 *401:22 0
45 *349:32 *401:22 7.30101e-05
46 *364:18 *401:22 0.000547624
47 *377:12 *401:40 0.00028427
48 *388:22 *401:22 0.00124264
49 *388:28 *401:22 0.00140211
50 *396:18 *401:30 0.000335522
*RES
1 *1260:X *401:8 40.3193 
2 *401:8 *401:22 38.6662 
3 *401:22 *401:30 45.9225 
4 *401:30 *401:40 48.7756 
5 *401:40 *401:48 21.854 
6 *401:48 *1201:A 21.1639 
7 *401:48 *401:67 43.2136 
8 *401:67 *1044:B 20 
9 *401:30 *1051:A0 40 
*END

*D_NET *402 0.01107
*CONN
*I *1200:A I *D sg13g2_buf_1
*I *1083:A1 I *D sg13g2_mux2_1
*I *1261:X O *D sg13g2_buf_1
*CAP
1 *1200:A 0.000287049
2 *1083:A1 8.66013e-05
3 *1261:X 0.00165687
4 *402:14 0.00321003
5 *402:10 0.00449325
6 *402:10 *403:8 0
7 *402:14 *1073:A 0
8 *402:14 *412:18 0
9 N4BEG[6] *1083:A1 8.01642e-05
10 *1092:B2 *1083:A1 4.75425e-05
11 *1204:A *1083:A1 0
12 *82:15 *402:14 0
13 *86:9 *402:10 0
14 *182:15 *402:10 1.54008e-05
15 *183:13 *402:10 0.00011107
16 *196:9 *402:10 0
17 *225:32 *1200:A 0.000112426
18 *260:8 *1083:A1 0.00012816
19 *260:8 *402:14 0.00026599
20 *329:12 *1083:A1 0.000181192
21 *329:12 *402:14 0.000394238
22 *342:8 *402:10 0
23 *349:10 *402:14 0
24 *349:24 *402:14 0
25 *358:10 *402:10 0
26 *368:14 *402:14 0
27 *398:12 *402:14 0
*RES
1 *1261:X *402:10 34.832 
2 *402:10 *402:14 46.8006 
3 *402:14 *1083:A1 41.3802 
4 *402:14 *1200:A 42.6018 
*END

*D_NET *403 0.00803255
*CONN
*I *1199:A I *D sg13g2_buf_1
*I *1072:A1 I *D sg13g2_mux2_1
*I *1262:X O *D sg13g2_buf_1
*CAP
1 *1199:A 0.000283097
2 *1072:A1 6.74171e-05
3 *1262:X 0.00112029
4 *403:12 0.00145868
5 *403:8 0.00222846
6 *403:8 *406:10 0
7 *403:12 *452:10 0
8 *1072:A0 *403:12 0
9 *1072:S *1072:A1 0.000234224
10 *1206:A *403:8 0
11 *83:27 *1199:A 0
12 *84:17 *403:12 0
13 *87:9 *403:8 0
14 *179:11 *1199:A 0
15 *183:13 *403:8 0.000112198
16 *184:15 *403:8 0
17 *332:8 *1199:A 0
18 *342:8 *403:8 0.00088557
19 *358:16 *403:12 0
20 *390:10 *1072:A1 0.000287672
21 *390:10 *403:12 0.00135495
22 *399:14 *403:12 0
23 *402:10 *403:8 0
*RES
1 *1262:X *403:8 30.617 
2 *403:8 *403:12 31.9686 
3 *403:12 *1072:A1 41.339 
4 *403:12 *1199:A 42.266 
*END

*D_NET *404 0.00424828
*CONN
*I *1061:A1 I *D sg13g2_mux2_1
*I *1198:A I *D sg13g2_buf_1
*I *1263:X O *D sg13g2_buf_1
*CAP
1 *1061:A1 0
2 *1198:A 0.000145115
3 *1263:X 0
4 *404:25 0.000217682
5 *404:10 0.00166281
6 *404:6 0.00130002
7 *404:10 *436:22 0
8 *404:25 *413:10 0
9 *1061:A0 *404:10 0
10 *1061:A0 *404:25 0.000180892
11 *83:33 *404:10 0
12 *231:44 *404:25 4.77425e-05
13 *344:12 *1198:A 0.000208035
14 *344:12 *404:25 0.000144768
15 *362:18 *404:10 0.000341216
16 *393:10 *404:25 0
17 *400:10 *404:10 0
*RES
1 *1263:X *404:6 40 
2 *404:6 *404:10 31.7214 
3 *404:10 *1198:A 21.4008 
4 *404:10 *404:25 42.3072 
5 *404:25 *1061:A1 20 
*END

*D_NET *405 0.0176939
*CONN
*I *1043:A I *D sg13g2_nor2b_1
*I *1051:A1 I *D sg13g2_mux2_1
*I *1197:A I *D sg13g2_buf_1
*I *1264:X O *D sg13g2_buf_1
*CAP
1 *1043:A 0
2 *1051:A1 0
3 *1197:A 0
4 *1264:X 0
5 *405:64 0.000397802
6 *405:49 3.59797e-05
7 *405:38 0.000774949
8 *405:18 0.00128823
9 *405:16 0.000875105
10 *405:14 0.00298743
11 *405:12 0.00305043
12 *405:6 6.29985e-05
13 *405:14 *414:14 0
14 *405:18 *410:64 0
15 *405:18 *414:45 0
16 *405:18 *414:70 0
17 *405:38 *410:64 0
18 N1BEG[0] *405:64 0.000240377
19 N2BEGb[5] *405:64 0.00028545
20 N4BEG[0] *405:64 0.00028545
21 *1054:A1 *405:49 4.76977e-05
22 *1144:A *405:38 0
23 *1148:A *405:38 0
24 *1181:A *405:38 0.000341555
25 *112:28 *405:18 0
26 *113:10 *405:64 0
27 *116:10 *405:38 0
28 *180:13 *405:38 0
29 *274:18 *405:18 0
30 *274:18 *405:38 0
31 *311:10 *405:38 0.000502364
32 *327:20 *405:14 0.000540718
33 *351:8 *405:38 0
34 *351:14 *405:38 0.000395396
35 *356:16 *405:14 0
36 *359:22 *405:14 0.0051243
37 *371:18 *405:18 0.000113616
38 *375:16 *405:38 0.000344002
*RES
1 *1264:X *405:6 40 
2 *405:6 *405:12 40.5356 
3 *405:12 *405:14 42.3742 
4 *405:14 *405:16 20 
5 *405:16 *405:18 4.2127 
6 *405:18 *405:38 49.8468 
7 *405:38 *1197:A 20 
8 *405:18 *405:49 40.3193 
9 *405:49 *1051:A1 20 
10 *405:16 *405:64 44.5732 
11 *405:64 *1043:A 20 
*END

*D_NET *406 0.0185568
*CONN
*I *1085:A2 I *D sg13g2_o21ai_1
*I *1220:A I *D sg13g2_buf_1
*I *1265:X O *D sg13g2_buf_1
*CAP
1 *1085:A2 0
2 *1220:A 0
3 *1265:X 0.00101077
4 *406:46 0.000422795
5 *406:32 0.00109609
6 *406:12 0.00308646
7 *406:10 0.00342393
8 *406:12 *422:10 0
9 N2BEGb[7] *406:46 0.000242186
10 *1040:A *406:32 0
11 *1042:B *406:46 0
12 *1086:A1 *406:32 0
13 *1086:A2 *406:32 0
14 *1086:A2 *406:46 0
15 *1093:A *406:32 0.00014457
16 *1093:B *406:32 4.77425e-05
17 *1265:A *406:10 0
18 *86:9 *406:12 0
19 *87:9 *406:10 0
20 *185:13 *406:10 0
21 *224:8 *406:12 0
22 *225:8 *406:32 0
23 *225:48 *406:32 0.000160546
24 *226:16 *406:46 0
25 *265:8 *406:46 0.000127729
26 *316:10 *406:32 0
27 *318:32 *406:46 0
28 *320:14 *406:12 0.00241389
29 *325:8 *406:32 0
30 *330:32 *406:32 0
31 *338:14 *406:10 0
32 *338:20 *406:12 0
33 *342:12 *406:12 0.00626759
34 *342:22 *406:32 0
35 *347:14 *406:12 0
36 *347:14 *406:32 0.000112506
37 *384:57 *406:32 0
38 *403:8 *406:10 0
*RES
1 *1265:X *406:10 48.4563 
2 *406:10 *406:12 33.475 
3 *406:12 *406:32 26.5244 
4 *406:32 *406:46 44.3852 
5 *406:46 *1220:A 20 
6 *406:32 *1085:A2 20 
*END

*D_NET *407 0.0189067
*CONN
*I *1098:D I *D sg13g2_dlhq_1
*I *1130:A I *D sg13g2_buf_1
*I *1236:X O *D sg13g2_buf_1
*CAP
1 *1098:D 0.000234412
2 *1130:A 3.03095e-05
3 *1236:X 0
4 *407:39 0.000962904
5 *407:20 0.00136647
6 *407:12 0.00153888
7 *407:6 0.000931213
8 *407:12 *418:12 0.00472417
9 N2BEGb[7] *1098:D 0
10 N2BEGb[7] *407:39 0
11 N4BEG[1] *1098:D 0.00030506
12 *1116:GATE *1098:D 1.54008e-05
13 *1292:A *407:12 1.54008e-05
14 *121:10 *407:39 0.000287776
15 *129:10 *1098:D 7.9225e-05
16 *135:14 *1130:A 0
17 *135:14 *407:39 1.54008e-05
18 *142:12 *1130:A 0
19 *308:14 *407:12 0.00472204
20 *316:10 *407:39 0.000506111
21 *321:16 *407:39 0
22 *325:16 *407:20 0.00108025
23 *330:26 *407:39 0.000865986
24 *332:14 *407:39 0.000143351
25 *366:14 *407:20 0.00108233
*RES
1 *1236:X *407:6 40 
2 *407:6 *407:12 42.6085 
3 *407:12 *407:20 47.8086 
4 *407:20 *1130:A 20.3502 
5 *407:20 *407:39 48.3224 
6 *407:39 *1098:D 22.4823 
*END

*D_NET *408 0.0120473
*CONN
*I *1074:A2 I *D sg13g2_o21ai_1
*I *1219:A I *D sg13g2_buf_1
*I *1266:X O *D sg13g2_buf_1
*CAP
1 *1074:A2 2.44753e-05
2 *1219:A 0
3 *1266:X 0.000170621
4 *408:36 0.000305822
5 *408:26 0.00107463
6 *408:20 0.003085
7 *408:16 0.00295432
8 *408:10 0.000784271
9 *408:16 *411:8 0.000369791
10 *408:16 *414:8 0
11 *408:20 *431:16 0
12 *408:20 *438:24 0
13 *408:26 *443:24 0
14 *1039:A *1074:A2 4.77425e-05
15 *1039:A *408:36 0.000241052
16 *1074:A1 *1074:A2 1.54008e-05
17 *1077:A0 *408:20 2.14736e-05
18 *1150:A *408:16 0
19 *1159:A *408:16 0
20 *86:9 *408:20 0
21 *205:19 *408:10 0.000285508
22 *213:15 *408:10 0.000143351
23 *215:17 *408:10 0.000111114
24 *230:18 *408:26 0
25 *299:10 *408:10 0.000179357
26 *302:8 *408:16 0
27 *324:16 *408:36 0
28 *332:14 *408:20 0.0010852
29 *336:10 *408:20 0
30 *338:20 *408:26 0
31 *342:12 *408:20 0
32 *348:10 *408:20 0
33 *354:14 *408:36 0.000289837
34 *386:10 *408:20 0
35 *391:10 *408:20 0
36 *393:16 *408:26 0.000462725
37 *398:12 *408:36 0.000395611
*RES
1 *1266:X *408:10 42.3072 
2 *408:10 *408:16 45.9431 
3 *408:16 *408:20 44.3286 
4 *408:20 *408:26 46.8083 
5 *408:26 *408:36 43.7698 
6 *408:36 *1219:A 20 
7 *408:26 *1074:A2 20.3193 
*END

*D_NET *409 0.0120905
*CONN
*I *1063:A2 I *D sg13g2_o21ai_1
*I *1218:A I *D sg13g2_buf_1
*I *1267:X O *D sg13g2_buf_1
*CAP
1 *1063:A2 0
2 *1218:A 0
3 *1267:X 0.000184856
4 *409:38 0
5 *409:34 0.000456882
6 *409:24 0.00091113
7 *409:18 0.00329111
8 *409:10 0.00302172
9 *409:18 *410:22 0
10 *409:34 *442:20 0.000178758
11 NN4BEG[6] *409:24 0.000272746
12 *1063:A1 *409:24 8.68588e-05
13 *1063:A1 *409:34 1.53561e-05
14 *1064:A2 *409:24 0
15 *1064:A2 *409:34 0
16 *1096:A0 *409:24 0.000337402
17 *1096:S *409:24 4.77425e-05
18 *1108:GATE *409:34 0
19 *3:10 *409:18 0
20 *164:13 *409:18 0.000287399
21 *166:13 *409:18 0
22 *181:13 *409:18 0
23 *187:13 *409:18 0
24 *190:13 *409:18 0
25 *191:13 *409:18 0
26 *203:17 *409:10 0
27 *208:17 *409:10 0.000138858
28 *209:13 *409:18 0
29 *210:13 *409:18 0
30 *212:13 *409:18 0
31 *241:18 *409:34 0.000438918
32 *336:32 *409:34 0.000177439
33 *379:53 *409:34 0.000407448
34 *382:8 *409:18 0.000821455
35 *382:12 *409:24 3.23417e-05
36 *392:14 *409:18 0
37 *401:22 *409:18 0.000982041
*RES
1 *1267:X *409:10 41.751 
2 *409:10 *409:18 48.1808 
3 *409:18 *409:24 4.6659 
4 *409:24 *409:34 45.1603 
5 *409:34 *409:38 40 
6 *409:38 *1218:A 20 
7 *409:24 *1063:A2 20 
*END

*D_NET *410 0.0243117
*CONN
*I *1047:A2 I *D sg13g2_o21ai_1
*I *1053:A1 I *D sg13g2_o21ai_1
*I *1217:A I *D sg13g2_buf_1
*I *1268:X O *D sg13g2_buf_1
*CAP
1 *1047:A2 0
2 *1053:A1 0
3 *1217:A 0
4 *1268:X 4.37077e-05
5 *410:64 0.000287489
6 *410:48 0.000214557
7 *410:40 0.000352394
8 *410:34 0.00272838
9 *410:22 0.00451006
10 *410:8 0.00225071
11 *410:34 *1214:A 0
12 *410:34 *413:10 0
13 N4BEG[1] *410:34 0
14 N4BEG[2] *410:34 7.33256e-05
15 *1053:A2 *410:40 0.000208035
16 *1140:A *410:34 0.00028545
17 *112:16 *410:40 0.000208035
18 *112:28 *410:64 0.000305351
19 *116:10 *410:48 0.000874342
20 *129:10 *410:34 0
21 *163:11 *410:22 0.00029092
22 *167:11 *410:22 0.000391165
23 *172:11 *410:22 0.000501132
24 *176:11 *410:22 0.000181192
25 *182:15 *410:22 0
26 *186:11 *410:22 0.000710273
27 *203:17 *410:22 0
28 *204:13 *410:8 8.00842e-05
29 *205:19 *410:8 8.00842e-05
30 *212:13 *410:22 0
31 *213:15 *410:22 0.000234311
32 *214:17 *410:22 0.000549119
33 *234:59 *410:34 0
34 *240:10 *410:34 0
35 *275:8 *410:34 0.000333202
36 *284:8 *410:34 0
37 *288:8 *410:34 0.000865964
38 *290:10 *410:34 0.000229707
39 *296:58 *410:34 0.000578927
40 *296:58 *410:40 7.33225e-05
41 *296:92 *410:34 0
42 *327:10 *410:22 0.000233591
43 *335:16 *410:22 0
44 *336:48 *410:34 0
45 *351:14 *410:48 0.000767207
46 *359:10 *410:22 0
47 *362:18 *410:34 0.000811603
48 *365:8 *410:34 0.000128991
49 *378:45 *410:34 0.00130193
50 *378:45 *410:40 7.51285e-05
51 *387:12 *410:22 0.000729245
52 *391:18 *410:22 4.82481e-05
53 *391:18 *410:34 0.000126721
54 *392:26 *410:34 0
55 *392:34 *410:34 0
56 *395:14 *410:22 0
57 *395:22 *410:22 0
58 *397:16 *410:22 0.000287332
59 *401:22 *410:22 0.00236048
60 *405:18 *410:64 0
61 *405:38 *410:64 0
62 *409:18 *410:22 0
*RES
1 *1268:X *410:8 40.5356 
2 *410:8 *410:22 48.7959 
3 *410:22 *410:34 46.0693 
4 *410:34 *410:40 21.751 
5 *410:40 *410:48 44.3775 
6 *410:48 *1217:A 20 
7 *410:40 *1053:A1 20 
8 *410:34 *410:64 42.6986 
9 *410:64 *1047:A2 40 
*END

*D_NET *411 0.0163972
*CONN
*I *1084:A I *D sg13g2_nor2b_1
*I *1216:A I *D sg13g2_buf_1
*I *1270:X O *D sg13g2_buf_1
*CAP
1 *1084:A 0
2 *1216:A 0.00018362
3 *1270:X 0.000243566
4 *411:20 0.00018362
5 *411:16 0.00222982
6 *411:14 0.00222982
7 *411:12 0.00101627
8 *411:8 0.00125983
9 *411:16 *420:14 0.00821362
10 *411:16 *432:12 0
11 N2BEGb[7] *1216:A 0
12 *1150:A *411:8 0
13 *213:15 *411:8 0
14 *225:22 *1216:A 7.48178e-05
15 *323:24 *411:16 0
16 *324:20 *1216:A 0.000392402
17 *337:8 *1216:A 0
18 *408:16 *411:8 0.000369791
*RES
1 *1270:X *411:8 42.4823 
2 *411:8 *411:12 30.7017 
3 *411:12 *411:14 20 
4 *411:14 *411:16 37.9246 
5 *411:16 *411:20 40 
6 *411:20 *1216:A 42.1527 
7 *411:20 *1084:A 40 
*END

*D_NET *412 0.00841755
*CONN
*I *1215:A I *D sg13g2_buf_1
*I *1073:A I *D sg13g2_nor2b_1
*I *1271:X O *D sg13g2_buf_1
*CAP
1 *1215:A 0
2 *1073:A 0.000148597
3 *1271:X 0.000134054
4 *412:18 0.00252058
5 *412:14 0.00365461
6 *412:10 0.00141668
7 *1073:A *430:10 0
8 *412:10 *453:8 7.51285e-05
9 *412:18 *430:10 0
10 *1159:A *412:14 0
11 *70:9 *412:14 0
12 *82:15 *412:18 0
13 *205:19 *412:10 0.000143351
14 *206:9 *412:10 0.000143351
15 *206:9 *412:14 0
16 *264:12 *1073:A 0
17 *299:10 *412:10 0.000181192
18 *344:20 *1073:A 0
19 *349:10 *1073:A 0
20 *370:16 *412:18 0
21 *370:20 *412:14 0
22 *402:14 *1073:A 0
23 *402:14 *412:18 0
*RES
1 *1271:X *412:10 41.8128 
2 *412:10 *412:14 32.2158 
3 *412:14 *412:18 42.8454 
4 *412:18 *1073:A 41.4111 
5 *412:18 *1215:A 40 
*END

*D_NET *413 0.0137763
*CONN
*I *1062:A I *D sg13g2_nor2b_1
*I *1214:A I *D sg13g2_buf_1
*I *1272:X O *D sg13g2_buf_1
*CAP
1 *1062:A 0.00011047
2 *1214:A 0.000337955
3 *1272:X 2.67614e-05
4 *413:10 0.00269502
5 *413:8 0.00227335
6 NN4BEG[3] *1062:A 1.54008e-05
7 *1061:A0 *413:10 0
8 *1150:A *413:8 4.75151e-05
9 *83:33 *413:10 0.00395483
10 *196:9 *413:10 0
11 *206:9 *413:10 0.000976583
12 *213:15 *413:8 4.75151e-05
13 *215:17 *413:10 0
14 *231:21 *413:10 0
15 *231:36 *413:10 0
16 *284:8 *413:10 0
17 *285:10 *1062:A 0.00011101
18 *288:8 *1214:A 0.000126354
19 *288:8 *413:10 0.000741519
20 *335:10 *413:10 0.000234189
21 *354:34 *1062:A 0.000175693
22 *361:12 *413:10 0
23 *363:38 *1214:A 0.000144382
24 *371:36 *1214:A 0.000144495
25 *380:24 *1214:A 0.000654518
26 *380:24 *413:10 0.000603415
27 *381:14 *413:10 0.000177762
28 *391:18 *413:10 0.000177583
29 *400:10 *413:10 0
30 *404:25 *413:10 0
31 *410:34 *1214:A 0
32 *410:34 *413:10 0
*RES
1 *1272:X *413:8 40.3193 
2 *413:8 *413:10 28.531 
3 *413:10 *1214:A 44.0376 
4 *413:10 *1062:A 41.1845 
*END

*D_NET *414 0.0227409
*CONN
*I *1046:A I *D sg13g2_nor2b_1
*I *1052:A I *D sg13g2_nor2b_1
*I *1213:A I *D sg13g2_buf_1
*I *1273:X O *D sg13g2_buf_1
*CAP
1 *1046:A 0
2 *1052:A 0
3 *1213:A 0.000263663
4 *1273:X 5.39831e-05
5 *414:70 0.000293065
6 *414:55 0.000153308
7 *414:45 0.000547486
8 *414:32 0.000822025
9 *414:22 0.00101066
10 *414:14 0.00401276
11 *414:12 0.00345935
12 *414:8 5.39831e-05
13 N1BEG[2] *414:55 0.000112426
14 N2BEG[0] *414:70 1.54008e-05
15 N2BEG[2] *414:70 0
16 *1054:A1 *414:55 0
17 *1111:D *414:32 0.000390334
18 *1159:A *414:8 0
19 *1300:A *1213:A 0.000402085
20 *112:28 *414:70 7.33256e-05
21 *113:10 *414:70 0
22 *178:25 *414:14 0.0048759
23 *178:25 *414:22 0.000502972
24 *180:17 *414:32 0.00023701
25 *234:8 *414:32 2.20966e-05
26 *274:18 *414:45 0
27 *315:16 *414:32 0.00139591
28 *327:20 *414:22 0
29 *335:20 *414:14 0
30 *343:14 *414:14 0
31 *343:14 *414:22 0
32 *356:16 *414:14 0
33 *357:14 *414:14 0
34 *357:20 *414:14 0.00351604
35 *363:12 *414:45 4.669e-05
36 *363:12 *414:55 1.77157e-05
37 *363:20 *414:14 0
38 *363:20 *414:22 0
39 *364:18 *414:70 0
40 *371:18 *414:70 0
41 *371:22 *414:22 0
42 *372:12 *414:32 0.000462679
43 *378:22 *414:32 0
44 *405:14 *414:14 0
45 *405:18 *414:45 0
46 *405:18 *414:70 0
47 *408:16 *414:8 0
*RES
1 *1273:X *414:8 40.5356 
2 *414:8 *414:12 40 
3 *414:12 *414:14 48.0598 
4 *414:14 *414:22 45.6135 
5 *414:22 *414:32 48.1576 
6 *414:32 *1213:A 42.6986 
7 *414:14 *414:45 20.7519 
8 *414:45 *414:55 41.4523 
9 *414:55 *1052:A 20 
10 *414:45 *414:70 42.3175 
11 *414:70 *1046:A 20 
*END

*D_NET *415 0.002061
*CONN
*I *1342:A I *D sg13g2_buf_1
*I *1050:Y O *D sg13g2_nor2_1
*CAP
1 *1342:A 0.0010305
2 *1050:Y 0.0010305
3 *1342:A *426:8 0
4 *1342:A *427:8 0
5 *1050:A *1342:A 0
*RES
1 *1050:Y *1342:A 49.1876 
*END

*D_NET *416 0.000159263
*CONN
*I *1343:A I *D sg13g2_buf_1
*I *1117:X O *D sg13g2_buf_1
*CAP
1 *1343:A 7.96313e-05
2 *1117:X 7.96313e-05
3 *1343:A *1368:A 0
4 *1343:A *1370:A 0
5 *77:19 *1343:A 0
*RES
1 *1117:X *1343:A 40.8287 
*END

*D_NET *417 0.0377244
*CONN
*I *1344:A I *D sg13g2_buf_1
*I *1127:X O *D sg13g2_buf_1
*CAP
1 *1344:A 0
2 *1127:X 0
3 *417:22 0.000619645
4 *417:14 0.00965111
5 *417:12 0.00971183
6 *417:6 0.000680361
7 *417:12 *420:12 0
8 *417:14 *447:12 0
9 *417:22 *448:26 7.962e-05
10 *6:11 *417:12 0
11 *6:21 *417:22 0
12 *26:13 *417:14 0
13 *30:13 *417:14 0.0169819
14 *31:11 *417:14 0
15 *35:11 *417:12 0
*RES
1 *1127:X *417:6 40 
2 *417:6 *417:12 47.4572 
3 *417:12 *417:14 104.174 
4 *417:14 *417:22 46.2933 
5 *417:22 *1344:A 40 
*END

*D_NET *418 0.0202702
*CONN
*I *1099:D I *D sg13g2_dlhq_1
*I *1131:A I *D sg13g2_buf_1
*I *1247:X O *D sg13g2_buf_1
*CAP
1 *1099:D 0
2 *1131:A 0
3 *1247:X 0
4 *418:55 5.12551e-05
5 *418:47 0.000742137
6 *418:32 0.0011564
7 *418:30 0.00101871
8 *418:12 0.00193509
9 *418:6 0.00138189
10 *418:12 *427:8 1.54008e-05
11 N2BEG[5] *418:12 0
12 N4BEG[1] *418:47 0
13 N4BEG[6] *418:47 0.000176396
14 N4BEG[6] *418:55 4.77425e-05
15 *1103:GATE *418:30 8.00842e-05
16 *1104:D *418:30 0.000187821
17 *1129:A *418:12 0
18 *1236:A *418:12 0
19 *1292:A *418:12 0.000653419
20 *1292:A *418:30 0
21 *1336:A *418:55 4.77425e-05
22 *138:18 *418:47 0.000465953
23 *141:22 *418:32 0.000336907
24 *141:22 *418:47 3.23694e-05
25 *177:15 *418:47 0.000498098
26 *266:10 *418:30 0.00012816
27 *266:10 *418:32 0.000755076
28 *266:10 *418:47 8.00842e-05
29 *308:14 *418:12 0
30 *314:10 *418:12 0
31 *336:48 *418:47 0.00102016
32 *366:14 *418:12 0.00393542
33 *369:10 *418:30 0
34 *374:37 *418:30 0.000543361
35 *383:34 *418:55 0.00012816
36 *397:20 *418:55 0.00012816
37 *407:12 *418:12 0.00472417
*RES
1 *1247:X *418:6 40 
2 *418:6 *418:12 47.0581 
3 *418:12 *418:30 46.2212 
4 *418:30 *418:32 5.0779 
5 *418:32 *1131:A 20 
6 *418:32 *418:47 48.4666 
7 *418:47 *418:55 40.9167 
8 *418:55 *1099:D 20 
*END

*D_NET *419 0.00086603
*CONN
*I *1345:A I *D sg13g2_buf_1
*I *1128:X O *D sg13g2_buf_1
*CAP
1 *1345:A 0.000393054
2 *1128:X 0.000393054
3 *1345:A *1374:A 0
4 FrameData_O[10] *1345:A 7.99213e-05
5 FrameData_O[11] *1345:A 0
6 FrameData_O[12] *1345:A 0
7 FrameData_O[8] *1345:A 0
8 *463:A *1345:A 0
*RES
1 *1128:X *1345:A 44.0479 
*END

*D_NET *420 0.0280584
*CONN
*I *1346:A I *D sg13g2_buf_1
*I *1129:X O *D sg13g2_buf_1
*CAP
1 *1346:A 0
2 *1129:X 0
3 *420:18 0
4 *420:14 0.00978452
5 *420:12 0.00992237
6 *420:6 0.000137846
7 *420:14 *432:12 0
8 *420:14 *448:26 0
9 *35:13 *420:14 0
10 *323:24 *420:14 0
11 *411:16 *420:14 0.00821362
12 *417:12 *420:12 0
*RES
1 *1129:X *420:6 40 
2 *420:6 *420:12 41.6171 
3 *420:12 *420:14 103.927 
4 *420:14 *420:18 40 
5 *420:18 *1346:A 40 
*END

*D_NET *421 0.0314107
*CONN
*I *1347:A I *D sg13g2_buf_1
*I *1130:X O *D sg13g2_buf_1
*CAP
1 *1347:A 0
2 *1130:X 0
3 *421:18 0
4 *421:14 0.00394101
5 *421:12 0.0041198
6 *421:6 0.00017879
7 *421:14 *422:18 0.014904
8 *421:14 *425:12 0
9 *239:23 *421:12 0
10 *340:14 *421:14 0.00826708
*RES
1 *1130:X *421:6 40 
2 *421:6 *421:12 41.6171 
3 *421:12 *421:14 77.4766 
4 *421:14 *421:18 40 
5 *421:18 *1347:A 40 
*END

*D_NET *422 0.027111
*CONN
*I *1348:A I *D sg13g2_buf_1
*I *1131:X O *D sg13g2_buf_1
*CAP
1 *1348:A 0
2 *1131:X 0.000653339
3 *422:26 0.000106894
4 *422:18 0.00420715
5 *422:16 0.00457035
6 *422:10 0.00112343
7 *422:10 *424:8 0.00044146
8 *422:18 *424:16 0
9 *422:18 *425:12 0
10 FrameData_O[13] *422:26 0
11 FrameData_O[15] *422:26 0
12 N2BEGb[7] *422:10 0.000239882
13 *462:A *422:26 0
14 *1097:A1 *422:10 0
15 *1101:GATE *422:10 0
16 *224:8 *422:10 0.000445433
17 *266:10 *422:10 0.000239691
18 *296:21 *422:10 0
19 *311:10 *422:10 0
20 *332:14 *422:10 0
21 *333:12 *422:16 0
22 *342:12 *422:10 0
23 *349:24 *422:16 0
24 *379:47 *422:10 0.000179386
25 *406:12 *422:10 0
26 *421:14 *422:18 0.014904
*RES
1 *1131:X *422:10 47.4057 
2 *422:10 *422:16 43.7801 
3 *422:16 *422:18 69.0718 
4 *422:18 *422:26 41.1639 
5 *422:26 *1348:A 40 
*END

*D_NET *423 0.0255586
*CONN
*I *1349:A I *D sg13g2_buf_1
*I *1132:X O *D sg13g2_buf_1
*CAP
1 *1349:A 0
2 *1132:X 0.000199988
3 *423:26 0.000147386
4 *423:16 0.00416078
5 *423:14 0.0043722
6 *423:8 0.00055879
7 *423:16 *424:16 0.0145355
8 *423:16 *434:14 0
9 *423:16 *443:24 0
10 *423:16 *443:30 0
11 *423:16 *443:34 0
12 *423:16 *443:44 0
13 *423:26 *424:16 0
14 *345:18 *423:8 0.000873226
15 *348:10 *423:8 0
16 *349:24 *423:14 0
17 *351:14 *423:8 0.00071064
*RES
1 *1132:X *423:8 44.0582 
2 *423:8 *423:14 43.1312 
3 *423:14 *423:16 67.1251 
4 *423:16 *423:26 41.4214 
5 *423:26 *1349:A 40 
*END

*D_NET *424 0.0301052
*CONN
*I *1350:A I *D sg13g2_buf_1
*I *1133:X O *D sg13g2_buf_1
*CAP
1 *1350:A 0
2 *1133:X 0.00032865
3 *424:20 0
4 *424:16 0.00479522
5 *424:14 0.00493839
6 *424:8 0.000471815
7 *424:8 *440:22 0.000126358
8 *424:16 *425:12 0
9 *424:16 *438:16 0
10 *424:16 *443:24 0
11 *136:12 *424:14 0.000242629
12 *141:12 *424:8 0.000232837
13 *311:10 *424:8 0
14 *320:14 *424:8 0
15 *328:14 *424:16 0.0039923
16 *333:12 *424:14 0
17 *422:10 *424:8 0.00044146
18 *422:18 *424:16 0
19 *423:16 *424:16 0.0145355
20 *423:26 *424:16 0
*RES
1 *1133:X *424:8 43.811 
2 *424:8 *424:14 41.6171 
3 *424:14 *424:16 73.5214 
4 *424:16 *424:20 40 
5 *424:20 *1350:A 40 
*END

*D_NET *425 0.0204084
*CONN
*I *1351:A I *D sg13g2_buf_1
*I *1134:X O *D sg13g2_buf_1
*CAP
1 *1351:A 0
2 *1134:X 0
3 *425:20 0.000647911
4 *425:12 0.00649822
5 *425:10 0.00585031
6 *425:6 0
7 *425:12 *438:16 0.00704058
8 *425:20 *426:22 0
9 *425:20 *427:20 0
10 *425:20 *432:16 0.000371392
11 *425:20 *438:24 0
12 *421:14 *425:12 0
13 *422:18 *425:12 0
14 *424:16 *425:12 0
*RES
1 *1134:X *425:6 40 
2 *425:6 *425:10 40 
3 *425:10 *425:12 74.7574 
4 *425:12 *425:20 46.2933 
5 *425:20 *1351:A 40 
*END

*D_NET *426 0.0251946
*CONN
*I *1352:A I *D sg13g2_buf_1
*I *1135:X O *D sg13g2_buf_1
*CAP
1 *1352:A 0
2 *1135:X 0.000651718
3 *426:22 0.00056827
4 *426:14 0.00150691
5 *426:10 0.00783828
6 *426:8 0.00755136
7 *426:8 *427:8 0
8 *426:10 *427:10 0
9 *426:10 *447:24 0
10 *426:10 *460:8 0
11 *426:14 *1370:A 0
12 *426:14 *1373:A 0
13 *426:14 *1374:A 0
14 *426:22 *431:16 0
15 FrameData_O[17] *426:22 0
16 FrameData_O[18] *426:22 0
17 FrameData_O[20] *426:22 0
18 FrameData_O[5] *426:14 0
19 N2BEG[5] *426:8 0.000143351
20 *1050:A *426:8 0
21 *1342:A *426:8 0
22 *29:17 *426:10 0
23 *73:11 *426:10 0.00071935
24 *74:11 *426:10 0
25 *77:19 *426:10 0
26 *180:9 *426:10 0.00621538
27 *297:24 *426:8 0
28 *298:8 *426:14 0
29 *298:18 *426:10 0
30 *331:10 *426:10 0
31 *339:12 *426:10 0
32 *425:20 *426:22 0
*RES
1 *1135:X *426:8 44.1266 
2 *426:8 *426:10 76.2406 
3 *426:10 *426:14 29.6832 
4 *426:14 *426:22 45.3354 
5 *426:22 *1352:A 20 
*END

*D_NET *427 0.029675
*CONN
*I *1353:A I *D sg13g2_buf_1
*I *1136:X O *D sg13g2_buf_1
*CAP
1 *1353:A 0
2 *1136:X 0.000743483
3 *427:20 0.00248915
4 *427:14 0.00394416
5 *427:10 0.00577734
6 *427:8 0.00506581
7 *427:10 *439:10 0
8 *427:20 *1355:A 0.00183255
9 *427:20 *436:22 0
10 *427:20 *438:24 0
11 FrameData_O[20] *427:20 0
12 FrameData_O[22] *427:20 0
13 *1161:A *427:14 0
14 *1342:A *427:8 0
15 *29:17 *427:10 0
16 *71:9 *427:14 0
17 *79:19 *427:10 0.00359466
18 *80:11 *427:10 0
19 *121:10 *427:8 0.000143351
20 *179:13 *427:10 0.00579579
21 *217:9 *427:10 0
22 *301:12 *427:14 0.00027334
23 *331:10 *427:10 0
24 *370:12 *427:10 0
25 *418:12 *427:8 1.54008e-05
26 *425:20 *427:20 0
27 *426:8 *427:8 0
28 *426:10 *427:10 0
*RES
1 *1136:X *427:8 47.0246 
2 *427:8 *427:10 52.7566 
3 *427:10 *427:14 33.2973 
4 *427:14 *427:20 47.6143 
5 *427:20 *1353:A 40 
*END

*D_NET *428 0.0235258
*CONN
*I *1354:A I *D sg13g2_buf_1
*I *1118:X O *D sg13g2_buf_1
*CAP
1 *1354:A 7.30387e-05
2 *1118:X 0.000117783
3 *428:18 0.00517719
4 *428:16 0.00522705
5 *428:10 0.00382516
6 *428:8 0.00382004
7 *428:10 *439:10 0
8 *428:18 *439:10 0
9 *428:18 *445:12 0
10 FrameData_O[2] *428:18 0
11 *1118:A *428:8 0
12 *4:9 *428:18 0
13 *26:21 *428:18 0
14 *29:5 *428:10 0
15 *29:5 *428:18 0
16 *29:17 *428:18 0
17 *30:7 *428:10 0.00520569
18 *76:9 *428:18 0
19 *78:13 *1354:A 7.98942e-05
20 *84:9 *428:18 0
21 *368:14 *428:16 0
22 *379:12 *428:10 0
23 *396:8 *428:8 0
*RES
1 *1118:X *428:8 40.9682 
2 *428:8 *428:10 39.9022 
3 *428:10 *428:16 41.1845 
4 *428:16 *428:18 58.195 
5 *428:18 *1354:A 40.7519 
*END

*D_NET *429 0.00995376
*CONN
*I *1100:D I *D sg13g2_dlhq_1
*I *1132:A I *D sg13g2_buf_1
*I *1258:X O *D sg13g2_buf_1
*CAP
1 *1100:D 0
2 *1132:A 0.000252534
3 *1258:X 0
4 *429:20 0.000580296
5 *429:12 0.00398688
6 *429:6 0.00365912
7 *429:12 *440:12 0
8 *429:12 *451:22 0.000447269
9 *1101:GATE *1132:A 0
10 *138:18 *1132:A 0
11 *138:18 *429:20 0
12 *296:38 *1132:A 0.000240187
13 *310:10 *429:12 0
14 *312:14 *429:12 0
15 *316:10 *429:20 0
16 *319:18 *429:12 0
17 *321:16 *429:12 0
18 *347:14 *429:20 0.000112314
19 *374:12 *429:12 0.000387348
20 *375:24 *429:12 0.000287804
*RES
1 *1258:X *429:6 40 
2 *429:6 *429:12 32.9085 
3 *429:12 *429:20 22.8219 
4 *429:20 *1132:A 22.6471 
5 *429:20 *1100:D 20 
*END

*D_NET *430 0.0195246
*CONN
*I *1355:A I *D sg13g2_buf_1
*I *1137:X O *D sg13g2_buf_1
*CAP
1 *1355:A 0.00060714
2 *1137:X 2.589e-05
3 *430:16 0.00130085
4 *430:10 0.00576406
5 *430:8 0.00509624
6 *1355:A *1361:A 0
7 *1355:A *432:22 0
8 *1355:A *436:22 0
9 *430:10 *452:10 0
10 *1073:A *430:10 0
11 *1073:B_N *430:10 0.000212969
12 *1224:A *430:8 4.78498e-05
13 *228:8 *430:10 0.000234244
14 *228:23 *430:10 0.000337563
15 *230:10 *430:10 0
16 *244:10 *430:10 0
17 *295:8 *430:10 0
18 *318:32 *430:10 0
19 *349:10 *430:10 0
20 *354:34 *430:8 4.75151e-05
21 *370:16 *430:10 0.0040177
22 *412:18 *430:10 0
23 *427:20 *1355:A 0.00183255
*RES
1 *1137:X *430:8 40.3193 
2 *430:8 *430:10 55.4758 
3 *430:10 *430:16 47.2409 
4 *430:16 *1355:A 48.5078 
*END

*D_NET *431 0.019575
*CONN
*I *1356:A I *D sg13g2_buf_1
*I *1138:X O *D sg13g2_buf_1
*CAP
1 *1356:A 0.000540583
2 *1138:X 0
3 *431:16 0.00344146
4 *431:14 0.00378506
5 *431:10 0.00383038
6 *431:6 0.00294619
7 *1356:A *1361:A 0
8 *431:10 *447:24 0
9 FrameData_O[17] *1356:A 0.0001447
10 FrameData_O[17] *431:16 7.52158e-05
11 FrameData_O[19] *1356:A 0
12 FrameData_O[20] *1356:A 7.94462e-05
13 FrameData_O[21] *1356:A 0
14 FrameData_O[22] *1356:A 0.000111828
15 FrameData_O[23] *1356:A 0
16 *1107:D *431:10 0.000128248
17 *1150:A *431:14 0
18 *1151:A *431:14 0
19 *70:9 *431:16 0
20 *71:9 *431:16 0
21 *82:11 *431:10 0.000612457
22 *82:15 *431:10 0
23 *84:17 *431:16 0
24 *85:11 *431:16 0.00364425
25 *324:20 *431:10 0
26 *339:12 *431:10 0
27 *354:14 *431:10 0
28 *355:26 *431:10 0.000235153
29 *367:16 *431:10 0
30 *408:20 *431:16 0
31 *426:22 *431:16 0
*RES
1 *1138:X *431:6 40 
2 *431:6 *431:10 48.0366 
3 *431:10 *431:14 27.0246 
4 *431:14 *431:16 36.9358 
5 *431:16 *1356:A 45.6444 
*END

*D_NET *432 0.0126586
*CONN
*I *1357:A I *D sg13g2_buf_1
*I *1139:X O *D sg13g2_buf_1
*CAP
1 *1357:A 0
2 *1139:X 0
3 *432:22 0.000422451
4 *432:16 0.00131675
5 *432:12 0.00572113
6 *432:10 0.00482683
7 *432:6 0
8 *432:16 *443:44 0
9 *432:22 *1361:A 0
10 *432:22 *434:28 0
11 *432:22 *436:22 0
12 *432:22 *439:18 0
13 *1355:A *432:22 0
14 *34:19 *432:16 0
15 *338:24 *432:12 0
16 *340:14 *432:12 0
17 *411:16 *432:12 0
18 *420:14 *432:12 0
19 *425:20 *432:16 0.000371392
*RES
1 *1139:X *432:6 40 
2 *432:6 *432:10 40 
3 *432:10 *432:12 61.4086 
4 *432:12 *432:16 30.2691 
5 *432:16 *432:22 43.5638 
6 *432:22 *1357:A 20 
*END

*D_NET *433 0.0221619
*CONN
*I *1358:A I *D sg13g2_buf_1
*I *1140:X O *D sg13g2_buf_1
*CAP
1 *1358:A 0.000624601
2 *1140:X 0
3 *433:18 0.000957155
4 *433:12 0.00425213
5 *433:10 0.00391957
6 *433:6 0
7 *1358:A *435:32 0.00182484
8 *1358:A *443:50 0
9 *433:12 *434:16 0
10 *433:12 *435:18 0.0105836
11 *433:12 *436:14 0
12 *433:12 *437:14 0
13 *433:12 *442:16 0
14 *433:12 *443:44 0
15 FrameData_O[23] *1358:A 0
16 FrameData_O[24] *1358:A 0
17 FrameData_O[25] *1358:A 0
*RES
1 *1140:X *433:6 40 
2 *433:6 *433:10 40 
3 *433:10 *433:12 60.1726 
4 *433:12 *433:18 43.7801 
5 *433:18 *1358:A 48.9816 
*END

*D_NET *434 0.028243
*CONN
*I *1359:A I *D sg13g2_buf_1
*I *1141:X O *D sg13g2_buf_1
*CAP
1 *1359:A 0
2 *1141:X 0
3 *434:28 0.0010478
4 *434:22 0.00143389
5 *434:16 0.00257866
6 *434:14 0.00290741
7 *434:10 0.000714845
8 *434:6 0
9 *434:14 *443:24 0.00228403
10 *434:14 *443:30 7.58342e-05
11 *434:16 *437:14 0.00563106
12 *434:16 *443:30 0
13 *434:16 *443:34 0.00972599
14 *434:16 *443:44 0
15 *434:28 *1361:A 0.000273284
16 *434:28 *435:32 0
17 *434:28 *437:28 0
18 *434:28 *439:18 0
19 *434:28 *442:32 0.00157015
20 FrameData_O[24] *434:28 0
21 *423:16 *434:14 0
22 *432:22 *434:28 0
23 *433:12 *434:16 0
*RES
1 *1141:X *434:6 40 
2 *434:6 *434:10 40 
3 *434:10 *434:14 11.0519 
4 *434:14 *434:16 45.5878 
5 *434:16 *434:22 44.429 
6 *434:22 *434:28 32.0716 
7 *434:28 *1359:A 20 
*END

*D_NET *435 0.0264828
*CONN
*I *1360:A I *D sg13g2_buf_1
*I *1142:X O *D sg13g2_buf_1
*CAP
1 *1360:A 0
2 *1142:X 5.7292e-05
3 *435:32 0.0012585
4 *435:24 0.00154646
5 *435:18 0.00302914
6 *435:16 0.0028133
7 *435:8 0.000129405
8 *435:18 *436:14 0.0014218
9 *435:32 *1361:A 0
10 *435:32 *437:28 0.0034344
11 FrameData_O[24] *435:32 7.92542e-05
12 FrameData_O[25] *435:32 0
13 FrameData_O[26] *435:32 0.000176511
14 *1358:A *435:32 0.00182484
15 *304:12 *435:32 0
16 *343:14 *435:18 0
17 *345:18 *435:8 0.000128353
18 *371:44 *435:8 0
19 *433:12 *435:18 0.0105836
20 *434:28 *435:32 0
*RES
1 *1142:X *435:8 40.5974 
2 *435:8 *435:16 40.6695 
3 *435:16 *435:18 48.8014 
4 *435:18 *435:24 43.3475 
5 *435:24 *435:32 40.5753 
6 *435:32 *1360:A 20 
*END

*D_NET *436 0.0260996
*CONN
*I *1361:A I *D sg13g2_buf_1
*I *1143:X O *D sg13g2_buf_1
*CAP
1 *1361:A 0.000610156
2 *1143:X 0
3 *436:22 0.00536016
4 *436:20 0.00483149
5 *436:14 0.00248644
6 *436:12 0.00245159
7 *436:6 4.66377e-05
8 *1361:A *1362:A 0
9 *1361:A *1364:A 0
10 *436:14 *442:16 0
11 *436:22 *438:24 0
12 *436:22 *439:18 0.00284591
13 *436:22 *442:20 0.00490822
14 *436:22 *442:32 0
15 *436:22 *458:10 0
16 FrameData_O[22] *1361:A 0
17 FrameData_O[26] *1361:A 0
18 FrameData_O[29] *1361:A 0
19 *1355:A *1361:A 0
20 *1355:A *436:22 0
21 *1356:A *1361:A 0
22 *83:33 *436:22 0
23 *263:10 *436:22 0.000159274
24 *263:16 *436:22 0.000335032
25 *302:14 *436:22 0
26 *306:12 *436:22 0
27 *328:20 *436:12 7.97281e-05
28 *343:14 *436:14 0
29 *362:18 *436:22 0
30 *381:20 *436:20 0.0001451
31 *393:16 *436:20 0.000144746
32 *404:10 *436:22 0
33 *427:20 *436:22 0
34 *432:22 *1361:A 0
35 *432:22 *436:22 0
36 *433:12 *436:14 0
37 *434:28 *1361:A 0.000273284
38 *435:18 *436:14 0.0014218
39 *435:32 *1361:A 0
*RES
1 *1143:X *436:6 40 
2 *436:6 *436:12 40.5356 
3 *436:12 *436:14 30.7558 
4 *436:14 *436:20 40.9682 
5 *436:20 *436:22 58.4731 
6 *436:22 *1361:A 45.8504 
*END

*D_NET *437 0.0340467
*CONN
*I *1362:A I *D sg13g2_buf_1
*I *1144:X O *D sg13g2_buf_1
*CAP
1 *1362:A 0.00033742
2 *1144:X 0
3 *437:28 0.00194225
4 *437:20 0.00204625
5 *437:14 0.00460294
6 *437:12 0.00422545
7 *437:6 6.39386e-05
8 *1362:A *1364:A 0.000208408
9 *437:14 *442:16 0
10 *437:14 *443:18 0
11 *437:14 *443:24 0.00489781
12 *437:28 *442:32 0.00444746
13 *437:28 *455:10 0
14 FrameData_O[29] *1362:A 0.000145071
15 FrameData_O[31] *1362:A 0.000209871
16 *1361:A *1362:A 0
17 *83:33 *437:28 0.00129804
18 *300:12 *437:28 0.000556379
19 *304:12 *437:28 0
20 *305:10 *437:28 0
21 *328:14 *437:14 0
22 *433:12 *437:14 0
23 *434:16 *437:14 0.00563106
24 *434:28 *437:28 0
25 *435:32 *437:28 0.0034344
*RES
1 *1144:X *437:6 40 
2 *437:6 *437:12 40.5356 
3 *437:12 *437:14 55.723 
4 *437:14 *437:20 44.8616 
5 *437:20 *437:28 49.4477 
6 *437:28 *1362:A 23.5844 
*END

*D_NET *438 0.0276644
*CONN
*I *1363:A I *D sg13g2_buf_1
*I *1145:X O *D sg13g2_buf_1
*CAP
1 *1363:A 0.000726488
2 *1145:X 0
3 *438:24 0.00498082
4 *438:22 0.00463066
5 *438:16 0.00208795
6 *438:14 0.00217312
7 *438:6 0.000461498
8 *1363:A *1364:A 0
9 *1363:A *1366:A 0
10 *438:24 *442:20 0
11 FrameData_O[28] *1363:A 0
12 FrameData_O[31] *1363:A 0
13 *70:9 *438:24 0
14 *302:14 *438:24 0
15 *328:14 *438:14 0
16 *328:14 *438:16 0.00556326
17 *340:14 *438:14 0
18 *348:10 *438:24 0
19 *408:20 *438:24 0
20 *424:16 *438:16 0
21 *425:12 *438:16 0.00704058
22 *425:20 *438:24 0
23 *427:20 *438:24 0
24 *436:22 *438:24 0
*RES
1 *1145:X *438:6 40 
2 *438:6 *438:14 44.5423 
3 *438:14 *438:16 33.8046 
4 *438:16 *438:22 43.5638 
5 *438:22 *438:24 43.8574 
6 *438:24 *1363:A 46.9422 
*END

*D_NET *439 0.0364677
*CONN
*I *1364:A I *D sg13g2_buf_1
*I *1146:X O *D sg13g2_buf_1
*CAP
1 *1364:A 0.000325882
2 *1146:X 0.00193415
3 *439:18 0.00117701
4 *439:14 0.00237859
5 *439:10 0.00753053
6 *439:8 0.00600307
7 *439:6 0.00193415
8 *439:14 *459:8 0
9 *439:18 *442:32 0
10 *1287:A *439:6 0
11 *1296:A *439:6 0
12 *1300:A *439:6 0
13 *1338:A *439:6 0
14 *1361:A *1364:A 0
15 *1362:A *1364:A 0.000208408
16 *1363:A *1364:A 0
17 *29:5 *439:10 0
18 *29:15 *439:10 0
19 *29:17 *439:10 0.00694495
20 *30:7 *439:10 0
21 *74:11 *439:14 0
22 *84:9 *439:10 0
23 *179:13 *439:10 0
24 *217:9 *439:10 0
25 *310:14 *439:6 0
26 *315:16 *439:6 0.000208063
27 *370:12 *439:10 0.00497702
28 *427:10 *439:10 0
29 *428:10 *439:10 0
30 *428:18 *439:10 0
31 *432:22 *439:18 0
32 *434:28 *439:18 0
33 *436:22 *439:18 0.00284591
*RES
1 *1146:X *439:6 37.8396 
2 *439:6 *439:8 20 
3 *439:8 *439:10 79.7014 
4 *439:10 *439:14 35.4603 
5 *439:14 *439:18 33.2046 
6 *439:18 *1364:A 43.1312 
*END

*D_NET *440 0.0114383
*CONN
*I *1133:A I *D sg13g2_buf_1
*I *1101:D I *D sg13g2_dlhq_1
*I *1269:X O *D sg13g2_buf_1
*CAP
1 *1133:A 4.48421e-05
2 *1101:D 0
3 *1269:X 6.15962e-05
4 *440:22 0.000207642
5 *440:14 0.000556843
6 *440:12 0.00262149
7 *440:8 0.00237872
8 N2BEGb[1] *1133:A 8.00842e-05
9 N2BEGb[1] *440:14 0.000175693
10 N2BEGb[2] *440:22 0.000112426
11 *1258:A *440:12 0.00012816
12 *135:14 *440:14 0
13 *141:12 *440:22 0
14 *297:10 *440:8 0.000111828
15 *297:16 *440:12 0
16 *308:12 *440:8 0.000112501
17 *310:10 *440:12 0.00400939
18 *320:14 *440:22 0
19 *369:16 *440:12 0
20 *374:37 *440:12 0.000710701
21 *424:8 *440:22 0.000126358
22 *429:12 *440:12 0
*RES
1 *1269:X *440:8 40.7519 
2 *440:8 *440:12 48.7782 
3 *440:12 *440:14 2.6986 
4 *440:14 *440:22 41.8437 
5 *440:22 *1101:D 20 
6 *440:14 *1133:A 20.5356 
*END

*D_NET *441 0.00289312
*CONN
*I *1365:A I *D sg13g2_buf_1
*I *1119:X O *D sg13g2_buf_1
*CAP
1 *1365:A 0.000147108
2 *1119:X 0.000355416
3 *441:12 0.000502524
4 FrameData_O[4] *1365:A 0
5 FrameData_O[5] *441:12 0.000175111
6 *26:21 *441:12 0.00104778
7 *29:17 *441:12 0.000665174
8 *78:13 *1365:A 0
*RES
1 *1119:X *441:12 45.9637 
2 *441:12 *1365:A 41.1845 
*END

*D_NET *442 0.0304614
*CONN
*I *1366:A I *D sg13g2_buf_1
*I *1147:X O *D sg13g2_buf_1
*CAP
1 *1366:A 0.000341547
2 *1147:X 0
3 *442:32 0.0026994
4 *442:26 0.00255704
5 *442:20 0.00208054
6 *442:16 0.00484871
7 *442:10 0.00296736
8 *442:6 0
9 *442:32 *458:10 0
10 *1150:A *442:26 0
11 *1151:A *442:26 0
12 *1157:A *442:26 0.000209083
13 *1363:A *1366:A 0
14 *83:33 *442:32 0.00136731
15 *177:15 *442:20 0.00192519
16 *232:12 *442:16 0
17 *232:31 *442:16 0
18 *306:12 *442:32 0
19 *336:32 *442:20 0.00033863
20 *336:48 *442:20 2.19989e-05
21 *348:10 *442:20 0
22 *409:34 *442:20 0.000178758
23 *433:12 *442:16 0
24 *434:28 *442:32 0.00157015
25 *436:14 *442:16 0
26 *436:22 *442:20 0.00490822
27 *436:22 *442:32 0
28 *437:14 *442:16 0
29 *437:28 *442:32 0.00444746
30 *438:24 *442:20 0
31 *439:18 *442:32 0
*RES
1 *1147:X *442:6 40 
2 *442:6 *442:10 40 
3 *442:10 *442:16 48.1087 
4 *442:16 *442:20 46.059 
5 *442:20 *442:26 41.8334 
6 *442:26 *442:32 33.6501 
7 *442:32 *1366:A 43.3475 
*END

*D_NET *443 0.0287016
*CONN
*I *1367:A I *D sg13g2_buf_1
*I *1148:X O *D sg13g2_buf_1
*CAP
1 *1367:A 0
2 *1148:X 0
3 *443:50 4.81715e-05
4 *443:44 0.00126563
5 *443:34 0.0038827
6 *443:30 0.00277137
7 *443:24 0.0012974
8 *443:18 0.00182195
9 *443:6 0.000630673
10 *1358:A *443:50 0
11 *328:14 *443:18 0
12 *328:14 *443:24 0
13 *408:26 *443:24 0
14 *423:16 *443:24 0
15 *423:16 *443:30 0
16 *423:16 *443:34 0
17 *423:16 *443:44 0
18 *424:16 *443:24 0
19 *432:16 *443:44 0
20 *433:12 *443:44 0
21 *434:14 *443:24 0.00228403
22 *434:14 *443:30 7.58342e-05
23 *434:16 *443:30 0
24 *434:16 *443:34 0.00972599
25 *434:16 *443:44 0
26 *437:14 *443:18 0
27 *437:14 *443:24 0.00489781
*RES
1 *1148:X *443:6 40 
2 *443:6 *443:18 47.1894 
3 *443:18 *443:24 43.1029 
4 *443:24 *443:30 21.2669 
5 *443:30 *443:34 45.2479 
6 *443:34 *443:44 34.9556 
7 *443:44 *443:50 40.3502 
8 *443:50 *1367:A 20 
*END

*D_NET *444 0.000328679
*CONN
*I *1368:A I *D sg13g2_buf_1
*I *1120:X O *D sg13g2_buf_1
*CAP
1 *1368:A 0.000164339
2 *1120:X 0.000164339
3 *1343:A *1368:A 0
4 *77:19 *1368:A 0
*RES
1 *1120:X *1368:A 41.4008 
*END

*D_NET *445 0.00154555
*CONN
*I *1369:A I *D sg13g2_buf_1
*I *1121:X O *D sg13g2_buf_1
*CAP
1 *1369:A 0
2 *1121:X 0.000772775
3 *445:12 0.000772775
4 FrameData_O[3] *445:12 0
5 FrameData_O[4] *445:12 0
6 *26:21 *445:12 0
7 *78:13 *445:12 0
8 *428:18 *445:12 0
*RES
1 *1121:X *445:12 46.9525 
2 *445:12 *1369:A 40 
*END

*D_NET *446 0.000677134
*CONN
*I *1370:A I *D sg13g2_buf_1
*I *1122:X O *D sg13g2_buf_1
*CAP
1 *1370:A 0.000258563
2 *1122:X 0.000258563
3 *1370:A *1374:A 1.54008e-05
4 FrameData_O[5] *1370:A 0.000144606
5 FrameData_O[6] *1370:A 0
6 *1343:A *1370:A 0
7 *426:14 *1370:A 0
*RES
1 *1122:X *1370:A 43.0591 
*END

*D_NET *447 0.0310549
*CONN
*I *1371:A I *D sg13g2_buf_1
*I *1123:X O *D sg13g2_buf_1
*CAP
1 *1371:A 0
2 *1123:X 0
3 *447:24 0.00363307
4 *447:18 0.00399323
5 *447:12 0.00358053
6 *447:10 0.00322038
7 *447:6 0
8 FrameData_O[9] *447:24 0
9 *29:38 *447:24 0
10 *30:13 *447:12 0
11 *31:11 *447:12 0.0117559
12 *73:11 *447:24 0
13 *77:19 *447:24 0
14 *82:15 *447:24 0
15 *298:18 *447:24 0.00255667
16 *339:12 *447:24 0.00231519
17 *417:14 *447:12 0
18 *426:10 *447:24 0
19 *431:10 *447:24 0
*RES
1 *1123:X *447:6 40 
2 *447:6 *447:10 40 
3 *447:10 *447:12 54.2398 
4 *447:12 *447:18 43.1312 
5 *447:18 *447:24 48.6984 
6 *447:24 *1371:A 40 
*END

*D_NET *448 0.0262041
*CONN
*I *1372:A I *D sg13g2_buf_1
*I *1124:X O *D sg13g2_buf_1
*CAP
1 *1372:A 0
2 *1124:X 7.80122e-05
3 *448:30 0
4 *448:26 0.000656903
5 *448:18 0.00766147
6 *448:16 0.00848082
7 *448:12 0.00147626
8 *448:8 7.80122e-05
9 *1124:A *448:8 0
10 *6:13 *448:16 0.0054439
11 *6:13 *448:18 0
12 *6:13 *448:26 0.00216953
13 *6:21 *448:26 7.962e-05
14 *35:13 *448:16 0
15 *35:13 *448:18 0
16 *35:13 *448:26 0
17 *179:17 *448:8 0
18 *417:22 *448:26 7.962e-05
19 *420:14 *448:26 0
*RES
1 *1124:X *448:8 40.7519 
2 *448:8 *448:12 40 
3 *448:12 *448:16 25.4204 
4 *448:16 *448:18 68.2375 
5 *448:18 *448:26 31.1549 
6 *448:26 *448:30 40 
7 *448:30 *1372:A 20 
*END

*D_NET *449 0.000654614
*CONN
*I *1373:A I *D sg13g2_buf_1
*I *1125:X O *D sg13g2_buf_1
*CAP
1 *1373:A 0.000271083
2 *1125:X 0.000271083
3 *1373:A *1374:A 0.000112448
4 *426:14 *1373:A 0
*RES
1 *1125:X *1373:A 43.1621 
*END

*D_NET *450 0.00106456
*CONN
*I *1374:A I *D sg13g2_buf_1
*I *1126:X O *D sg13g2_buf_1
*CAP
1 *1374:A 0.000452941
2 *1126:X 0.000452941
3 FrameData_O[10] *1374:A 0
4 FrameData_O[8] *1374:A 1.54285e-05
5 FrameData_O[9] *1374:A 0
6 *1126:A *1374:A 1.54008e-05
7 *1345:A *1374:A 0
8 *1370:A *1374:A 1.54008e-05
9 *1373:A *1374:A 0.000112448
10 *426:14 *1374:A 0
*RES
1 *1126:X *1374:A 45.1397 
*END

*D_NET *451 0.0103686
*CONN
*I *1134:A I *D sg13g2_buf_1
*I *1102:D I *D sg13g2_dlhq_1
*I *1274:X O *D sg13g2_buf_1
*CAP
1 *1134:A 0
2 *1102:D 0
3 *1274:X 0
4 *451:22 0.000118712
5 *451:14 0.00245752
6 *451:6 0.00233881
7 N2BEG[5] *451:14 0
8 *111:10 *451:14 0
9 *121:10 *451:14 4.77702e-05
10 *121:10 *451:22 4.77425e-05
11 *135:14 *451:14 0
12 *313:16 *451:14 0.00431516
13 *320:14 *451:14 0
14 *321:16 *451:22 0.000447182
15 *330:16 *451:14 2.20966e-05
16 *330:26 *451:14 0
17 *346:16 *451:14 0
18 *373:14 *451:14 0
19 *374:52 *451:14 0.000126358
20 *429:12 *451:22 0.000447269
*RES
1 *1274:X *451:6 40 
2 *451:6 *451:14 47.0684 
3 *451:14 *451:22 42.3999 
4 *451:22 *1102:D 20 
5 *451:14 *1134:A 20 
*END

*D_NET *452 0.012793
*CONN
*I *1375:A I *D sg13g2_buf_1
*I *1149:X O *D sg13g2_buf_1
*CAP
1 *1375:A 0
2 *1149:X 2.63207e-05
3 *452:14 0.00124319
4 *452:10 0.00537236
5 *452:8 0.00415549
6 *452:14 *454:10 0.000241195
7 *1073:B_N *452:10 0.000234598
8 *1160:A *452:14 0.000950571
9 *228:23 *452:10 0.000337164
10 *229:8 *452:10 0.000232131
11 *301:12 *452:14 0
12 *302:14 *452:14 0
13 *370:20 *452:14 0
14 *389:10 *452:10 0
15 *399:14 *452:10 0
16 *403:12 *452:10 0
17 *430:10 *452:10 0
*RES
1 *1149:X *452:8 40.3193 
2 *452:8 *452:10 35.4526 
3 *452:10 *452:14 32.4321 
4 *452:14 *1375:A 20 
*END

*D_NET *453 0.002446
*CONN
*I *1376:A I *D sg13g2_buf_1
*I *1159:X O *D sg13g2_buf_1
*CAP
1 *1376:A 2.60565e-05
2 *1159:X 0.000664825
3 *453:8 0.000690882
4 FrameStrobe_O[13] *1376:A 4.77425e-05
5 *1282:A *1376:A 4.77425e-05
6 *299:10 *453:8 0
7 *300:12 *453:8 0
8 *303:8 *453:8 0.000287342
9 *304:12 *453:8 0.000606279
10 *307:12 *453:8 0
11 *412:10 *453:8 7.51285e-05
*RES
1 *1159:X *453:8 47.7662 
2 *453:8 *1376:A 40.3193 
*END

*D_NET *454 0.00267209
*CONN
*I *1377:A I *D sg13g2_buf_1
*I *1160:X O *D sg13g2_buf_1
*CAP
1 *1377:A 0
2 *1160:X 0.000964925
3 *454:10 0.000964925
4 FrameStrobe_O[4] *454:10 0
5 *90:10 *454:10 0
6 *95:10 *454:10 0
7 *100:8 *454:10 0
8 *101:10 *454:10 0
9 *103:10 *454:10 0
10 *105:8 *454:10 0.000501046
11 *106:8 *454:10 0
12 *107:10 *454:10 0
13 *304:12 *454:10 0
14 *307:12 *454:10 0
15 *452:14 *454:10 0.000241195
*RES
1 *1160:X *454:10 49.3833 
2 *454:10 *1377:A 40 
*END

*D_NET *455 0.00337616
*CONN
*I *1378:A I *D sg13g2_buf_1
*I *1161:X O *D sg13g2_buf_1
*CAP
1 *1378:A 0.000291807
2 *1161:X 0.000300175
3 *455:10 0.000591981
4 *1378:A *1380:A 0
5 FrameStrobe_O[19] *1378:A 0
6 *1161:A *455:10 0
7 *304:12 *455:10 0.00113531
8 *305:10 *455:10 0.000976799
9 *306:12 *455:10 8.00842e-05
10 *437:28 *455:10 0
*RES
1 *1161:X *455:10 45.8298 
2 *455:10 *1378:A 42.6471 
*END

*D_NET *456 0.00062341
*CONN
*I *1379:A I *D sg13g2_buf_1
*I *1162:X O *D sg13g2_buf_1
*CAP
1 *1379:A 0.000239634
2 *1162:X 0.000239634
3 FrameStrobe_O[15] *1379:A 0.000144142
4 *1154:A *1379:A 0
5 *1162:A *1379:A 0
6 *306:12 *1379:A 0
*RES
1 *1162:X *1379:A 42.4617 
*END

*D_NET *457 0.00101489
*CONN
*I *1380:A I *D sg13g2_buf_1
*I *1163:X O *D sg13g2_buf_1
*CAP
1 *1380:A 0.000185017
2 *1163:X 0.000125911
3 *457:8 0.000310928
4 *1380:A *459:16 0
5 *1378:A *1380:A 0
6 *304:12 *457:8 0.000393039
*RES
1 *1163:X *457:8 41.8334 
2 *457:8 *1380:A 41.6171 
*END

*D_NET *458 0.00130207
*CONN
*I *1381:A I *D sg13g2_buf_1
*I *1164:X O *D sg13g2_buf_1
*CAP
1 *1381:A 0
2 *1164:X 0.000466997
3 *458:10 0.000466997
4 *458:10 *460:26 0.000127744
5 *85:21 *458:10 0.000240333
6 *298:18 *458:10 0
7 *436:22 *458:10 0
8 *442:32 *458:10 0
*RES
1 *1164:X *458:10 44.6865 
2 *458:10 *1381:A 40 
*END

*D_NET *459 0.00733919
*CONN
*I *1382:A I *D sg13g2_buf_1
*I *1165:X O *D sg13g2_buf_1
*CAP
1 *1382:A 0
2 *1165:X 0.000880039
3 *459:16 0.00137683
4 *459:8 0.00225687
5 *459:16 *461:20 0
6 *1380:A *459:16 0
7 *74:15 *459:16 0.00120573
8 *84:17 *459:16 0.00157197
9 *305:10 *459:16 4.77425e-05
10 *439:14 *459:8 0
*RES
1 *1165:X *459:8 49.1876 
2 *459:8 *459:16 37.4585 
3 *459:16 *1382:A 20 
*END

*D_NET *460 0.00821845
*CONN
*I *1383:A I *D sg13g2_buf_1
*I *1166:X O *D sg13g2_buf_1
*CAP
1 *1383:A 0
2 *1166:X 0.000387561
3 *460:26 0.000372076
4 *460:12 0.00160976
5 *460:8 0.00162525
6 *460:12 *461:10 0.00200783
7 *460:26 *461:20 7.48842e-05
8 FrameStrobe_O[19] *460:26 0
9 *1163:A *460:12 0
10 *1163:A *460:26 0
11 *1385:A *460:26 6.97048e-05
12 *73:11 *460:12 0
13 *74:15 *460:12 0
14 *77:19 *460:8 0
15 *298:18 *460:12 0.00194364
16 *426:10 *460:8 0
17 *458:10 *460:26 0.000127744
*RES
1 *1166:X *460:8 43.3166 
2 *460:8 *460:12 34.8114 
3 *460:12 *460:26 43.8831 
4 *460:26 *1383:A 20 
*END

*D_NET *461 0.00647481
*CONN
*I *1384:A I *D sg13g2_buf_1
*I *1167:X O *D sg13g2_buf_1
*CAP
1 *1384:A 0
2 *1167:X 0.00138625
3 *461:20 0.000809795
4 *461:10 0.00219605
5 *1162:A *461:10 0
6 *1163:A *461:10 0
7 *85:21 *461:20 0
8 *459:16 *461:20 0
9 *460:12 *461:10 0.00200783
10 *460:26 *461:20 7.48842e-05
*RES
1 *1167:X *461:10 34.8035 
2 *461:10 *461:20 48.0958 
3 *461:20 *1384:A 20 
*END
