*SPEF "ieee 1481-1999"
*DESIGN "N_term_single2"
*DATE "20:47:22 Monday August 25, 2025"
*VENDOR "The OpenROAD Project"
*PROGRAM "OpenROAD"
*VERSION "341650e72dad0dc8571822ff8c5d9c5e365327f7"
*DESIGN_FLOW "NAME_SCOPE LOCAL" "PIN_CAP NONE"
*DIVIDER /
*DELIMITER :
*BUS_DELIMITER []
*T_UNIT 1 NS
*C_UNIT 1 PF
*R_UNIT 1 OHM
*L_UNIT 1 HENRY

*NAME_MAP
*1 FrameData[0]
*2 FrameData[10]
*3 FrameData[11]
*4 FrameData[12]
*5 FrameData[13]
*6 FrameData[14]
*7 FrameData[15]
*8 FrameData[16]
*9 FrameData[17]
*10 FrameData[18]
*11 FrameData[19]
*12 FrameData[1]
*13 FrameData[20]
*14 FrameData[21]
*15 FrameData[22]
*16 FrameData[23]
*17 FrameData[24]
*18 FrameData[25]
*19 FrameData[26]
*20 FrameData[27]
*21 FrameData[28]
*22 FrameData[29]
*23 FrameData[2]
*24 FrameData[30]
*25 FrameData[31]
*26 FrameData[3]
*27 FrameData[4]
*28 FrameData[5]
*29 FrameData[6]
*30 FrameData[7]
*31 FrameData[8]
*32 FrameData[9]
*33 FrameData_O[0]
*34 FrameData_O[10]
*35 FrameData_O[11]
*36 FrameData_O[12]
*37 FrameData_O[13]
*38 FrameData_O[14]
*39 FrameData_O[15]
*40 FrameData_O[16]
*41 FrameData_O[17]
*42 FrameData_O[18]
*43 FrameData_O[19]
*44 FrameData_O[1]
*45 FrameData_O[20]
*46 FrameData_O[21]
*47 FrameData_O[22]
*48 FrameData_O[23]
*49 FrameData_O[24]
*50 FrameData_O[25]
*51 FrameData_O[26]
*52 FrameData_O[27]
*53 FrameData_O[28]
*54 FrameData_O[29]
*55 FrameData_O[2]
*56 FrameData_O[30]
*57 FrameData_O[31]
*58 FrameData_O[3]
*59 FrameData_O[4]
*60 FrameData_O[5]
*61 FrameData_O[6]
*62 FrameData_O[7]
*63 FrameData_O[8]
*64 FrameData_O[9]
*65 FrameStrobe[0]
*66 FrameStrobe[10]
*67 FrameStrobe[11]
*68 FrameStrobe[12]
*69 FrameStrobe[13]
*70 FrameStrobe[14]
*71 FrameStrobe[15]
*72 FrameStrobe[16]
*73 FrameStrobe[17]
*74 FrameStrobe[18]
*75 FrameStrobe[19]
*76 FrameStrobe[1]
*77 FrameStrobe[2]
*78 FrameStrobe[3]
*79 FrameStrobe[4]
*80 FrameStrobe[5]
*81 FrameStrobe[6]
*82 FrameStrobe[7]
*83 FrameStrobe[8]
*84 FrameStrobe[9]
*85 FrameStrobe_O[0]
*86 FrameStrobe_O[10]
*87 FrameStrobe_O[11]
*88 FrameStrobe_O[12]
*89 FrameStrobe_O[13]
*90 FrameStrobe_O[14]
*91 FrameStrobe_O[15]
*92 FrameStrobe_O[16]
*93 FrameStrobe_O[17]
*94 FrameStrobe_O[18]
*95 FrameStrobe_O[19]
*96 FrameStrobe_O[1]
*97 FrameStrobe_O[2]
*98 FrameStrobe_O[3]
*99 FrameStrobe_O[4]
*100 FrameStrobe_O[5]
*101 FrameStrobe_O[6]
*102 FrameStrobe_O[7]
*103 FrameStrobe_O[8]
*104 FrameStrobe_O[9]
*105 N1END[0]
*106 N1END[1]
*107 N1END[2]
*108 N1END[3]
*109 N2END[0]
*110 N2END[1]
*111 N2END[2]
*112 N2END[3]
*113 N2END[4]
*114 N2END[5]
*115 N2END[6]
*116 N2END[7]
*117 N2MID[0]
*118 N2MID[1]
*119 N2MID[2]
*120 N2MID[3]
*121 N2MID[4]
*122 N2MID[5]
*123 N2MID[6]
*124 N2MID[7]
*125 N4END[0]
*126 N4END[10]
*127 N4END[11]
*128 N4END[12]
*129 N4END[13]
*130 N4END[14]
*131 N4END[15]
*132 N4END[1]
*133 N4END[2]
*134 N4END[3]
*135 N4END[4]
*136 N4END[5]
*137 N4END[6]
*138 N4END[7]
*139 N4END[8]
*140 N4END[9]
*141 NN4END[0]
*142 NN4END[10]
*143 NN4END[11]
*144 NN4END[12]
*145 NN4END[13]
*146 NN4END[14]
*147 NN4END[15]
*148 NN4END[1]
*149 NN4END[2]
*150 NN4END[3]
*151 NN4END[4]
*152 NN4END[5]
*153 NN4END[6]
*154 NN4END[7]
*155 NN4END[8]
*156 NN4END[9]
*157 S1BEG[0]
*158 S1BEG[1]
*159 S1BEG[2]
*160 S1BEG[3]
*161 S2BEG[0]
*162 S2BEG[1]
*163 S2BEG[2]
*164 S2BEG[3]
*165 S2BEG[4]
*166 S2BEG[5]
*167 S2BEG[6]
*168 S2BEG[7]
*169 S2BEGb[0]
*170 S2BEGb[1]
*171 S2BEGb[2]
*172 S2BEGb[3]
*173 S2BEGb[4]
*174 S2BEGb[5]
*175 S2BEGb[6]
*176 S2BEGb[7]
*177 S4BEG[0]
*178 S4BEG[10]
*179 S4BEG[11]
*180 S4BEG[12]
*181 S4BEG[13]
*182 S4BEG[14]
*183 S4BEG[15]
*184 S4BEG[1]
*185 S4BEG[2]
*186 S4BEG[3]
*187 S4BEG[4]
*188 S4BEG[5]
*189 S4BEG[6]
*190 S4BEG[7]
*191 S4BEG[8]
*192 S4BEG[9]
*193 SS4BEG[0]
*194 SS4BEG[10]
*195 SS4BEG[11]
*196 SS4BEG[12]
*197 SS4BEG[13]
*198 SS4BEG[14]
*199 SS4BEG[15]
*200 SS4BEG[1]
*201 SS4BEG[2]
*202 SS4BEG[3]
*203 SS4BEG[4]
*204 SS4BEG[5]
*205 SS4BEG[6]
*206 SS4BEG[7]
*207 SS4BEG[8]
*208 SS4BEG[9]
*209 UserCLK
*210 UserCLKo
*213 net1
*214 net10
*215 net100
*216 net101
*217 net102
*218 net103
*219 net104
*220 net105
*221 net11
*222 net12
*223 net13
*224 net14
*225 net15
*226 net16
*227 net17
*228 net18
*229 net19
*230 net2
*231 net20
*232 net21
*233 net22
*234 net23
*235 net24
*236 net25
*237 net26
*238 net27
*239 net28
*240 net29
*241 net3
*242 net30
*243 net31
*244 net32
*245 net33
*246 net34
*247 net35
*248 net36
*249 net37
*250 net38
*251 net39
*252 net4
*253 net40
*254 net41
*255 net42
*256 net43
*257 net44
*258 net45
*259 net46
*260 net47
*261 net48
*262 net49
*263 net5
*264 net50
*265 net51
*266 net52
*267 net53
*268 net54
*269 net55
*270 net56
*271 net57
*272 net58
*273 net59
*274 net6
*275 net60
*276 net61
*277 net62
*278 net63
*279 net64
*280 net65
*281 net66
*282 net67
*283 net68
*284 net69
*285 net7
*286 net70
*287 net71
*288 net72
*289 net73
*290 net74
*291 net75
*292 net76
*293 net77
*294 net78
*295 net79
*296 net8
*297 net80
*298 net81
*299 net82
*300 net83
*301 net84
*302 net85
*303 net86
*304 net87
*305 net88
*306 net89
*307 net9
*308 net90
*309 net91
*310 net92
*311 net93
*312 net94
*313 net95
*314 net96
*315 net97
*316 net98
*317 net99
*318 FILLER_0_0
*319 FILLER_0_105
*320 FILLER_0_112
*321 FILLER_0_119
*322 FILLER_0_126
*323 FILLER_0_133
*324 FILLER_0_14
*325 FILLER_0_140
*326 FILLER_0_147
*327 FILLER_0_154
*328 FILLER_0_161
*329 FILLER_0_21
*330 FILLER_0_28
*331 FILLER_0_343
*332 FILLER_0_35
*333 FILLER_0_350
*334 FILLER_0_357
*335 FILLER_0_364
*336 FILLER_0_371
*337 FILLER_0_378
*338 FILLER_0_385
*339 FILLER_0_392
*340 FILLER_0_399
*341 FILLER_0_406
*342 FILLER_0_413
*343 FILLER_0_42
*344 FILLER_0_420
*345 FILLER_0_427
*346 FILLER_0_434
*347 FILLER_0_441
*348 FILLER_0_448
*349 FILLER_0_455
*350 FILLER_0_462
*351 FILLER_0_469
*352 FILLER_0_49
*353 FILLER_0_56
*354 FILLER_0_63
*355 FILLER_0_7
*356 FILLER_0_70
*357 FILLER_0_77
*358 FILLER_0_84
*359 FILLER_0_91
*360 FILLER_0_98
*361 FILLER_10_0
*362 FILLER_10_105
*363 FILLER_10_112
*364 FILLER_10_119
*365 FILLER_10_126
*366 FILLER_10_133
*367 FILLER_10_14
*368 FILLER_10_140
*369 FILLER_10_147
*370 FILLER_10_154
*371 FILLER_10_161
*372 FILLER_10_168
*373 FILLER_10_175
*374 FILLER_10_182
*375 FILLER_10_189
*376 FILLER_10_196
*377 FILLER_10_203
*378 FILLER_10_21
*379 FILLER_10_210
*380 FILLER_10_217
*381 FILLER_10_224
*382 FILLER_10_231
*383 FILLER_10_246
*384 FILLER_10_253
*385 FILLER_10_260
*386 FILLER_10_267
*387 FILLER_10_274
*388 FILLER_10_28
*389 FILLER_10_281
*390 FILLER_10_288
*391 FILLER_10_295
*392 FILLER_10_302
*393 FILLER_10_309
*394 FILLER_10_316
*395 FILLER_10_323
*396 FILLER_10_330
*397 FILLER_10_337
*398 FILLER_10_344
*399 FILLER_10_35
*400 FILLER_10_351
*401 FILLER_10_358
*402 FILLER_10_365
*403 FILLER_10_372
*404 FILLER_10_379
*405 FILLER_10_386
*406 FILLER_10_393
*407 FILLER_10_400
*408 FILLER_10_407
*409 FILLER_10_414
*410 FILLER_10_42
*411 FILLER_10_421
*412 FILLER_10_428
*413 FILLER_10_435
*414 FILLER_10_442
*415 FILLER_10_449
*416 FILLER_10_456
*417 FILLER_10_463
*418 FILLER_10_49
*419 FILLER_10_56
*420 FILLER_10_63
*421 FILLER_10_7
*422 FILLER_10_70
*423 FILLER_10_77
*424 FILLER_10_84
*425 FILLER_10_91
*426 FILLER_10_98
*427 FILLER_11_0
*428 FILLER_11_100
*429 FILLER_11_107
*430 FILLER_11_115
*431 FILLER_11_122
*432 FILLER_11_129
*433 FILLER_11_137
*434 FILLER_11_14
*435 FILLER_11_144
*436 FILLER_11_151
*437 FILLER_11_159
*438 FILLER_11_166
*439 FILLER_11_173
*440 FILLER_11_181
*441 FILLER_11_188
*442 FILLER_11_195
*443 FILLER_11_203
*444 FILLER_11_21
*445 FILLER_11_210
*446 FILLER_11_217
*447 FILLER_11_225
*448 FILLER_11_229
*449 FILLER_11_247
*450 FILLER_11_253
*451 FILLER_11_260
*452 FILLER_11_264
*453 FILLER_11_269
*454 FILLER_11_27
*455 FILLER_11_276
*456 FILLER_11_283
*457 FILLER_11_291
*458 FILLER_11_298
*459 FILLER_11_305
*460 FILLER_11_313
*461 FILLER_11_320
*462 FILLER_11_327
*463 FILLER_11_335
*464 FILLER_11_34
*465 FILLER_11_342
*466 FILLER_11_349
*467 FILLER_11_357
*468 FILLER_11_364
*469 FILLER_11_371
*470 FILLER_11_379
*471 FILLER_11_386
*472 FILLER_11_393
*473 FILLER_11_401
*474 FILLER_11_408
*475 FILLER_11_41
*476 FILLER_11_415
*477 FILLER_11_423
*478 FILLER_11_430
*479 FILLER_11_437
*480 FILLER_11_445
*481 FILLER_11_452
*482 FILLER_11_467
*483 FILLER_11_469
*484 FILLER_11_49
*485 FILLER_11_56
*486 FILLER_11_63
*487 FILLER_11_7
*488 FILLER_11_71
*489 FILLER_11_78
*490 FILLER_11_85
*491 FILLER_11_93
*492 FILLER_1_0
*493 FILLER_1_105
*494 FILLER_1_112
*495 FILLER_1_119
*496 FILLER_1_126
*497 FILLER_1_133
*498 FILLER_1_14
*499 FILLER_1_140
*500 FILLER_1_147
*501 FILLER_1_154
*502 FILLER_1_161
*503 FILLER_1_172
*504 FILLER_1_179
*505 FILLER_1_21
*506 FILLER_1_28
*507 FILLER_1_333
*508 FILLER_1_340
*509 FILLER_1_347
*510 FILLER_1_35
*511 FILLER_1_354
*512 FILLER_1_361
*513 FILLER_1_368
*514 FILLER_1_375
*515 FILLER_1_382
*516 FILLER_1_389
*517 FILLER_1_396
*518 FILLER_1_403
*519 FILLER_1_410
*520 FILLER_1_417
*521 FILLER_1_42
*522 FILLER_1_424
*523 FILLER_1_431
*524 FILLER_1_438
*525 FILLER_1_445
*526 FILLER_1_452
*527 FILLER_1_459
*528 FILLER_1_466
*529 FILLER_1_473
*530 FILLER_1_49
*531 FILLER_1_56
*532 FILLER_1_63
*533 FILLER_1_7
*534 FILLER_1_70
*535 FILLER_1_77
*536 FILLER_1_84
*537 FILLER_1_91
*538 FILLER_1_98
*539 FILLER_2_0
*540 FILLER_2_105
*541 FILLER_2_112
*542 FILLER_2_119
*543 FILLER_2_126
*544 FILLER_2_133
*545 FILLER_2_14
*546 FILLER_2_140
*547 FILLER_2_147
*548 FILLER_2_154
*549 FILLER_2_161
*550 FILLER_2_168
*551 FILLER_2_175
*552 FILLER_2_182
*553 FILLER_2_189
*554 FILLER_2_196
*555 FILLER_2_203
*556 FILLER_2_207
*557 FILLER_2_21
*558 FILLER_2_213
*559 FILLER_2_238
*560 FILLER_2_252
*561 FILLER_2_271
*562 FILLER_2_28
*563 FILLER_2_324
*564 FILLER_2_329
*565 FILLER_2_336
*566 FILLER_2_343
*567 FILLER_2_35
*568 FILLER_2_350
*569 FILLER_2_357
*570 FILLER_2_364
*571 FILLER_2_371
*572 FILLER_2_378
*573 FILLER_2_385
*574 FILLER_2_392
*575 FILLER_2_399
*576 FILLER_2_406
*577 FILLER_2_413
*578 FILLER_2_42
*579 FILLER_2_420
*580 FILLER_2_427
*581 FILLER_2_434
*582 FILLER_2_441
*583 FILLER_2_448
*584 FILLER_2_455
*585 FILLER_2_462
*586 FILLER_2_469
*587 FILLER_2_476
*588 FILLER_2_49
*589 FILLER_2_56
*590 FILLER_2_63
*591 FILLER_2_7
*592 FILLER_2_70
*593 FILLER_2_77
*594 FILLER_2_84
*595 FILLER_2_91
*596 FILLER_2_98
*597 FILLER_3_0
*598 FILLER_3_105
*599 FILLER_3_112
*600 FILLER_3_119
*601 FILLER_3_126
*602 FILLER_3_133
*603 FILLER_3_14
*604 FILLER_3_140
*605 FILLER_3_147
*606 FILLER_3_154
*607 FILLER_3_161
*608 FILLER_3_168
*609 FILLER_3_175
*610 FILLER_3_182
*611 FILLER_3_189
*612 FILLER_3_196
*613 FILLER_3_203
*614 FILLER_3_21
*615 FILLER_3_210
*616 FILLER_3_217
*617 FILLER_3_221
*618 FILLER_3_227
*619 FILLER_3_234
*620 FILLER_3_236
*621 FILLER_3_249
*622 FILLER_3_251
*623 FILLER_3_256
*624 FILLER_3_258
*625 FILLER_3_263
*626 FILLER_3_270
*627 FILLER_3_277
*628 FILLER_3_28
*629 FILLER_3_284
*630 FILLER_3_291
*631 FILLER_3_298
*632 FILLER_3_303
*633 FILLER_3_310
*634 FILLER_3_317
*635 FILLER_3_324
*636 FILLER_3_331
*637 FILLER_3_338
*638 FILLER_3_345
*639 FILLER_3_35
*640 FILLER_3_352
*641 FILLER_3_359
*642 FILLER_3_366
*643 FILLER_3_373
*644 FILLER_3_380
*645 FILLER_3_387
*646 FILLER_3_394
*647 FILLER_3_401
*648 FILLER_3_408
*649 FILLER_3_415
*650 FILLER_3_42
*651 FILLER_3_422
*652 FILLER_3_429
*653 FILLER_3_436
*654 FILLER_3_443
*655 FILLER_3_450
*656 FILLER_3_457
*657 FILLER_3_464
*658 FILLER_3_471
*659 FILLER_3_49
*660 FILLER_3_56
*661 FILLER_3_63
*662 FILLER_3_7
*663 FILLER_3_70
*664 FILLER_3_77
*665 FILLER_3_84
*666 FILLER_3_91
*667 FILLER_3_98
*668 FILLER_4_0
*669 FILLER_4_105
*670 FILLER_4_112
*671 FILLER_4_119
*672 FILLER_4_126
*673 FILLER_4_133
*674 FILLER_4_14
*675 FILLER_4_140
*676 FILLER_4_147
*677 FILLER_4_154
*678 FILLER_4_161
*679 FILLER_4_168
*680 FILLER_4_175
*681 FILLER_4_182
*682 FILLER_4_189
*683 FILLER_4_196
*684 FILLER_4_203
*685 FILLER_4_21
*686 FILLER_4_214
*687 FILLER_4_221
*688 FILLER_4_228
*689 FILLER_4_235
*690 FILLER_4_242
*691 FILLER_4_246
*692 FILLER_4_251
*693 FILLER_4_258
*694 FILLER_4_263
*695 FILLER_4_267
*696 FILLER_4_273
*697 FILLER_4_28
*698 FILLER_4_280
*699 FILLER_4_287
*700 FILLER_4_294
*701 FILLER_4_301
*702 FILLER_4_308
*703 FILLER_4_314
*704 FILLER_4_321
*705 FILLER_4_328
*706 FILLER_4_335
*707 FILLER_4_342
*708 FILLER_4_349
*709 FILLER_4_35
*710 FILLER_4_356
*711 FILLER_4_360
*712 FILLER_4_366
*713 FILLER_4_370
*714 FILLER_4_375
*715 FILLER_4_382
*716 FILLER_4_389
*717 FILLER_4_400
*718 FILLER_4_407
*719 FILLER_4_414
*720 FILLER_4_42
*721 FILLER_4_421
*722 FILLER_4_428
*723 FILLER_4_435
*724 FILLER_4_442
*725 FILLER_4_449
*726 FILLER_4_456
*727 FILLER_4_463
*728 FILLER_4_470
*729 FILLER_4_477
*730 FILLER_4_49
*731 FILLER_4_56
*732 FILLER_4_63
*733 FILLER_4_7
*734 FILLER_4_70
*735 FILLER_4_77
*736 FILLER_4_84
*737 FILLER_4_91
*738 FILLER_4_98
*739 FILLER_5_0
*740 FILLER_5_105
*741 FILLER_5_112
*742 FILLER_5_119
*743 FILLER_5_126
*744 FILLER_5_133
*745 FILLER_5_14
*746 FILLER_5_140
*747 FILLER_5_147
*748 FILLER_5_154
*749 FILLER_5_161
*750 FILLER_5_168
*751 FILLER_5_175
*752 FILLER_5_182
*753 FILLER_5_189
*754 FILLER_5_196
*755 FILLER_5_203
*756 FILLER_5_21
*757 FILLER_5_210
*758 FILLER_5_217
*759 FILLER_5_224
*760 FILLER_5_231
*761 FILLER_5_235
*762 FILLER_5_241
*763 FILLER_5_248
*764 FILLER_5_255
*765 FILLER_5_259
*766 FILLER_5_265
*767 FILLER_5_272
*768 FILLER_5_279
*769 FILLER_5_28
*770 FILLER_5_286
*771 FILLER_5_293
*772 FILLER_5_300
*773 FILLER_5_307
*774 FILLER_5_314
*775 FILLER_5_321
*776 FILLER_5_328
*777 FILLER_5_332
*778 FILLER_5_338
*779 FILLER_5_345
*780 FILLER_5_347
*781 FILLER_5_35
*782 FILLER_5_352
*783 FILLER_5_359
*784 FILLER_5_366
*785 FILLER_5_370
*786 FILLER_5_375
*787 FILLER_5_382
*788 FILLER_5_389
*789 FILLER_5_396
*790 FILLER_5_403
*791 FILLER_5_410
*792 FILLER_5_417
*793 FILLER_5_42
*794 FILLER_5_424
*795 FILLER_5_431
*796 FILLER_5_438
*797 FILLER_5_445
*798 FILLER_5_452
*799 FILLER_5_459
*800 FILLER_5_466
*801 FILLER_5_473
*802 FILLER_5_477
*803 FILLER_5_49
*804 FILLER_5_56
*805 FILLER_5_63
*806 FILLER_5_7
*807 FILLER_5_70
*808 FILLER_5_77
*809 FILLER_5_84
*810 FILLER_5_91
*811 FILLER_5_98
*812 FILLER_6_0
*813 FILLER_6_105
*814 FILLER_6_112
*815 FILLER_6_119
*816 FILLER_6_126
*817 FILLER_6_133
*818 FILLER_6_14
*819 FILLER_6_140
*820 FILLER_6_147
*821 FILLER_6_154
*822 FILLER_6_161
*823 FILLER_6_168
*824 FILLER_6_175
*825 FILLER_6_182
*826 FILLER_6_189
*827 FILLER_6_193
*828 FILLER_6_198
*829 FILLER_6_205
*830 FILLER_6_21
*831 FILLER_6_212
*832 FILLER_6_218
*833 FILLER_6_225
*834 FILLER_6_229
*835 FILLER_6_243
*836 FILLER_6_247
*837 FILLER_6_256
*838 FILLER_6_263
*839 FILLER_6_270
*840 FILLER_6_277
*841 FILLER_6_28
*842 FILLER_6_284
*843 FILLER_6_291
*844 FILLER_6_298
*845 FILLER_6_305
*846 FILLER_6_312
*847 FILLER_6_319
*848 FILLER_6_326
*849 FILLER_6_333
*850 FILLER_6_340
*851 FILLER_6_347
*852 FILLER_6_35
*853 FILLER_6_354
*854 FILLER_6_361
*855 FILLER_6_368
*856 FILLER_6_375
*857 FILLER_6_379
*858 FILLER_6_388
*859 FILLER_6_395
*860 FILLER_6_402
*861 FILLER_6_409
*862 FILLER_6_416
*863 FILLER_6_42
*864 FILLER_6_423
*865 FILLER_6_430
*866 FILLER_6_437
*867 FILLER_6_444
*868 FILLER_6_451
*869 FILLER_6_458
*870 FILLER_6_465
*871 FILLER_6_472
*872 FILLER_6_476
*873 FILLER_6_49
*874 FILLER_6_56
*875 FILLER_6_63
*876 FILLER_6_7
*877 FILLER_6_70
*878 FILLER_6_77
*879 FILLER_6_84
*880 FILLER_6_91
*881 FILLER_6_98
*882 FILLER_7_0
*883 FILLER_7_105
*884 FILLER_7_112
*885 FILLER_7_119
*886 FILLER_7_126
*887 FILLER_7_133
*888 FILLER_7_14
*889 FILLER_7_140
*890 FILLER_7_147
*891 FILLER_7_154
*892 FILLER_7_161
*893 FILLER_7_168
*894 FILLER_7_175
*895 FILLER_7_182
*896 FILLER_7_189
*897 FILLER_7_196
*898 FILLER_7_203
*899 FILLER_7_21
*900 FILLER_7_210
*901 FILLER_7_217
*902 FILLER_7_224
*903 FILLER_7_231
*904 FILLER_7_240
*905 FILLER_7_242
*906 FILLER_7_247
*907 FILLER_7_252
*908 FILLER_7_259
*909 FILLER_7_266
*910 FILLER_7_273
*911 FILLER_7_28
*912 FILLER_7_280
*913 FILLER_7_287
*914 FILLER_7_294
*915 FILLER_7_301
*916 FILLER_7_308
*917 FILLER_7_315
*918 FILLER_7_322
*919 FILLER_7_329
*920 FILLER_7_336
*921 FILLER_7_343
*922 FILLER_7_35
*923 FILLER_7_350
*924 FILLER_7_357
*925 FILLER_7_364
*926 FILLER_7_371
*927 FILLER_7_378
*928 FILLER_7_385
*929 FILLER_7_392
*930 FILLER_7_399
*931 FILLER_7_406
*932 FILLER_7_413
*933 FILLER_7_42
*934 FILLER_7_420
*935 FILLER_7_427
*936 FILLER_7_434
*937 FILLER_7_441
*938 FILLER_7_448
*939 FILLER_7_455
*940 FILLER_7_462
*941 FILLER_7_469
*942 FILLER_7_476
*943 FILLER_7_49
*944 FILLER_7_56
*945 FILLER_7_63
*946 FILLER_7_7
*947 FILLER_7_70
*948 FILLER_7_77
*949 FILLER_7_84
*950 FILLER_7_91
*951 FILLER_7_98
*952 FILLER_8_0
*953 FILLER_8_105
*954 FILLER_8_112
*955 FILLER_8_119
*956 FILLER_8_126
*957 FILLER_8_133
*958 FILLER_8_14
*959 FILLER_8_140
*960 FILLER_8_147
*961 FILLER_8_154
*962 FILLER_8_161
*963 FILLER_8_168
*964 FILLER_8_175
*965 FILLER_8_182
*966 FILLER_8_189
*967 FILLER_8_196
*968 FILLER_8_203
*969 FILLER_8_21
*970 FILLER_8_210
*971 FILLER_8_217
*972 FILLER_8_224
*973 FILLER_8_242
*974 FILLER_8_249
*975 FILLER_8_256
*976 FILLER_8_263
*977 FILLER_8_270
*978 FILLER_8_277
*979 FILLER_8_28
*980 FILLER_8_284
*981 FILLER_8_291
*982 FILLER_8_298
*983 FILLER_8_305
*984 FILLER_8_312
*985 FILLER_8_319
*986 FILLER_8_326
*987 FILLER_8_333
*988 FILLER_8_340
*989 FILLER_8_347
*990 FILLER_8_35
*991 FILLER_8_354
*992 FILLER_8_361
*993 FILLER_8_368
*994 FILLER_8_375
*995 FILLER_8_382
*996 FILLER_8_389
*997 FILLER_8_396
*998 FILLER_8_403
*999 FILLER_8_410
*1000 FILLER_8_417
*1001 FILLER_8_42
*1002 FILLER_8_424
*1003 FILLER_8_431
*1004 FILLER_8_438
*1005 FILLER_8_445
*1006 FILLER_8_452
*1007 FILLER_8_459
*1008 FILLER_8_466
*1009 FILLER_8_473
*1010 FILLER_8_477
*1011 FILLER_8_49
*1012 FILLER_8_56
*1013 FILLER_8_63
*1014 FILLER_8_7
*1015 FILLER_8_70
*1016 FILLER_8_77
*1017 FILLER_8_84
*1018 FILLER_8_91
*1019 FILLER_8_98
*1020 FILLER_9_0
*1021 FILLER_9_105
*1022 FILLER_9_112
*1023 FILLER_9_119
*1024 FILLER_9_126
*1025 FILLER_9_133
*1026 FILLER_9_14
*1027 FILLER_9_140
*1028 FILLER_9_147
*1029 FILLER_9_154
*1030 FILLER_9_161
*1031 FILLER_9_168
*1032 FILLER_9_175
*1033 FILLER_9_182
*1034 FILLER_9_189
*1035 FILLER_9_196
*1036 FILLER_9_203
*1037 FILLER_9_21
*1038 FILLER_9_210
*1039 FILLER_9_217
*1040 FILLER_9_224
*1041 FILLER_9_231
*1042 FILLER_9_245
*1043 FILLER_9_252
*1044 FILLER_9_259
*1045 FILLER_9_266
*1046 FILLER_9_273
*1047 FILLER_9_28
*1048 FILLER_9_280
*1049 FILLER_9_287
*1050 FILLER_9_294
*1051 FILLER_9_301
*1052 FILLER_9_308
*1053 FILLER_9_315
*1054 FILLER_9_322
*1055 FILLER_9_329
*1056 FILLER_9_336
*1057 FILLER_9_343
*1058 FILLER_9_35
*1059 FILLER_9_350
*1060 FILLER_9_357
*1061 FILLER_9_364
*1062 FILLER_9_371
*1063 FILLER_9_378
*1064 FILLER_9_385
*1065 FILLER_9_392
*1066 FILLER_9_399
*1067 FILLER_9_406
*1068 FILLER_9_413
*1069 FILLER_9_42
*1070 FILLER_9_420
*1071 FILLER_9_427
*1072 FILLER_9_434
*1073 FILLER_9_441
*1074 FILLER_9_448
*1075 FILLER_9_455
*1076 FILLER_9_462
*1077 FILLER_9_469
*1078 FILLER_9_476
*1079 FILLER_9_49
*1080 FILLER_9_56
*1081 FILLER_9_63
*1082 FILLER_9_7
*1083 FILLER_9_70
*1084 FILLER_9_77
*1085 FILLER_9_84
*1086 FILLER_9_91
*1087 FILLER_9_98
*1088 _000_
*1089 _001_
*1090 _002_
*1091 _003_
*1092 _004_
*1093 _005_
*1094 _006_
*1095 _007_
*1096 _008_
*1097 _009_
*1098 _010_
*1099 _011_
*1100 _012_
*1101 _013_
*1102 _014_
*1103 _015_
*1104 _016_
*1105 _017_
*1106 _018_
*1107 _019_
*1108 _020_
*1109 _021_
*1110 _022_
*1111 _023_
*1112 _024_
*1113 _025_
*1114 _026_
*1115 _027_
*1116 _028_
*1117 _029_
*1118 _030_
*1119 _031_
*1120 _032_
*1121 _033_
*1122 _034_
*1123 _035_
*1124 _036_
*1125 _037_
*1126 _038_
*1127 _039_
*1128 _040_
*1129 _041_
*1130 _042_
*1131 _043_
*1132 _044_
*1133 _045_
*1134 _046_
*1135 _047_
*1136 _048_
*1137 _049_
*1138 _050_
*1139 _051_
*1140 _052_
*1141 _053_
*1142 _054_
*1143 _055_
*1144 _056_
*1145 _057_
*1146 _058_
*1147 _059_
*1148 _060_
*1149 _061_
*1150 _062_
*1151 _063_
*1152 _064_
*1153 _065_
*1154 _066_
*1155 _067_
*1156 _068_
*1157 _069_
*1158 _070_
*1159 _071_
*1160 _072_
*1161 _073_
*1162 _074_
*1163 _075_
*1164 _076_
*1165 _077_
*1166 _078_
*1167 _079_
*1168 _080_
*1169 _081_
*1170 _082_
*1171 _083_
*1172 _084_
*1173 _085_
*1174 _086_
*1175 _087_
*1176 _088_
*1177 _089_
*1178 _090_
*1179 _091_
*1180 _092_
*1181 _093_
*1182 _094_
*1183 _095_
*1184 _096_
*1185 _097_
*1186 _098_
*1187 _099_
*1188 _100_
*1189 _101_
*1190 _102_
*1191 _103_
*1192 _104_
*1193 output1
*1194 output10
*1195 output100
*1196 output101
*1197 output102
*1198 output103
*1199 output104
*1200 output105
*1201 output11
*1202 output12
*1203 output13
*1204 output14
*1205 output15
*1206 output16
*1207 output17
*1208 output18
*1209 output19
*1210 output2
*1211 output20
*1212 output21
*1213 output22
*1214 output23
*1215 output24
*1216 output25
*1217 output26
*1218 output27
*1219 output28
*1220 output29
*1221 output3
*1222 output30
*1223 output31
*1224 output32
*1225 output33
*1226 output34
*1227 output35
*1228 output36
*1229 output37
*1230 output38
*1231 output39
*1232 output4
*1233 output40
*1234 output41
*1235 output42
*1236 output43
*1237 output44
*1238 output45
*1239 output46
*1240 output47
*1241 output48
*1242 output49
*1243 output5
*1244 output50
*1245 output51
*1246 output52
*1247 output53
*1248 output54
*1249 output55
*1250 output56
*1251 output57
*1252 output58
*1253 output59
*1254 output6
*1255 output60
*1256 output61
*1257 output62
*1258 output63
*1259 output64
*1260 output65
*1261 output66
*1262 output67
*1263 output68
*1264 output69
*1265 output7
*1266 output70
*1267 output71
*1268 output72
*1269 output73
*1270 output74
*1271 output75
*1272 output76
*1273 output77
*1274 output78
*1275 output79
*1276 output8
*1277 output80
*1278 output81
*1279 output82
*1280 output83
*1281 output84
*1282 output85
*1283 output86
*1284 output87
*1285 output88
*1286 output89
*1287 output9
*1288 output90
*1289 output91
*1290 output92
*1291 output93
*1292 output94
*1293 output95
*1294 output96
*1295 output97
*1296 output98
*1297 output99

*PORTS
FrameData[0] I
FrameData[10] I
FrameData[11] I
FrameData[12] I
FrameData[13] I
FrameData[14] I
FrameData[15] I
FrameData[16] I
FrameData[17] I
FrameData[18] I
FrameData[19] I
FrameData[1] I
FrameData[20] I
FrameData[21] I
FrameData[22] I
FrameData[23] I
FrameData[24] I
FrameData[25] I
FrameData[26] I
FrameData[27] I
FrameData[28] I
FrameData[29] I
FrameData[2] I
FrameData[30] I
FrameData[31] I
FrameData[3] I
FrameData[4] I
FrameData[5] I
FrameData[6] I
FrameData[7] I
FrameData[8] I
FrameData[9] I
FrameData_O[0] O
FrameData_O[10] O
FrameData_O[11] O
FrameData_O[12] O
FrameData_O[13] O
FrameData_O[14] O
FrameData_O[15] O
FrameData_O[16] O
FrameData_O[17] O
FrameData_O[18] O
FrameData_O[19] O
FrameData_O[1] O
FrameData_O[20] O
FrameData_O[21] O
FrameData_O[22] O
FrameData_O[23] O
FrameData_O[24] O
FrameData_O[25] O
FrameData_O[26] O
FrameData_O[27] O
FrameData_O[28] O
FrameData_O[29] O
FrameData_O[2] O
FrameData_O[30] O
FrameData_O[31] O
FrameData_O[3] O
FrameData_O[4] O
FrameData_O[5] O
FrameData_O[6] O
FrameData_O[7] O
FrameData_O[8] O
FrameData_O[9] O
FrameStrobe[0] I
FrameStrobe[10] I
FrameStrobe[11] I
FrameStrobe[12] I
FrameStrobe[13] I
FrameStrobe[14] I
FrameStrobe[15] I
FrameStrobe[16] I
FrameStrobe[17] I
FrameStrobe[18] I
FrameStrobe[19] I
FrameStrobe[1] I
FrameStrobe[2] I
FrameStrobe[3] I
FrameStrobe[4] I
FrameStrobe[5] I
FrameStrobe[6] I
FrameStrobe[7] I
FrameStrobe[8] I
FrameStrobe[9] I
FrameStrobe_O[0] O
FrameStrobe_O[10] O
FrameStrobe_O[11] O
FrameStrobe_O[12] O
FrameStrobe_O[13] O
FrameStrobe_O[14] O
FrameStrobe_O[15] O
FrameStrobe_O[16] O
FrameStrobe_O[17] O
FrameStrobe_O[18] O
FrameStrobe_O[19] O
FrameStrobe_O[1] O
FrameStrobe_O[2] O
FrameStrobe_O[3] O
FrameStrobe_O[4] O
FrameStrobe_O[5] O
FrameStrobe_O[6] O
FrameStrobe_O[7] O
FrameStrobe_O[8] O
FrameStrobe_O[9] O
N1END[0] I
N1END[1] I
N1END[2] I
N1END[3] I
N2END[0] I
N2END[1] I
N2END[2] I
N2END[3] I
N2END[4] I
N2END[5] I
N2END[6] I
N2END[7] I
N2MID[0] I
N2MID[1] I
N2MID[2] I
N2MID[3] I
N2MID[4] I
N2MID[5] I
N2MID[6] I
N2MID[7] I
N4END[0] I
N4END[10] I
N4END[11] I
N4END[12] I
N4END[13] I
N4END[14] I
N4END[15] I
N4END[1] I
N4END[2] I
N4END[3] I
N4END[4] I
N4END[5] I
N4END[6] I
N4END[7] I
N4END[8] I
N4END[9] I
NN4END[0] I
NN4END[10] I
NN4END[11] I
NN4END[12] I
NN4END[13] I
NN4END[14] I
NN4END[15] I
NN4END[1] I
NN4END[2] I
NN4END[3] I
NN4END[4] I
NN4END[5] I
NN4END[6] I
NN4END[7] I
NN4END[8] I
NN4END[9] I
S1BEG[0] O
S1BEG[1] O
S1BEG[2] O
S1BEG[3] O
S2BEG[0] O
S2BEG[1] O
S2BEG[2] O
S2BEG[3] O
S2BEG[4] O
S2BEG[5] O
S2BEG[6] O
S2BEG[7] O
S2BEGb[0] O
S2BEGb[1] O
S2BEGb[2] O
S2BEGb[3] O
S2BEGb[4] O
S2BEGb[5] O
S2BEGb[6] O
S2BEGb[7] O
S4BEG[0] O
S4BEG[10] O
S4BEG[11] O
S4BEG[12] O
S4BEG[13] O
S4BEG[14] O
S4BEG[15] O
S4BEG[1] O
S4BEG[2] O
S4BEG[3] O
S4BEG[4] O
S4BEG[5] O
S4BEG[6] O
S4BEG[7] O
S4BEG[8] O
S4BEG[9] O
SS4BEG[0] O
SS4BEG[10] O
SS4BEG[11] O
SS4BEG[12] O
SS4BEG[13] O
SS4BEG[14] O
SS4BEG[15] O
SS4BEG[1] O
SS4BEG[2] O
SS4BEG[3] O
SS4BEG[4] O
SS4BEG[5] O
SS4BEG[6] O
SS4BEG[7] O
SS4BEG[8] O
SS4BEG[9] O
UserCLK I
UserCLKo O

*D_NET *1 0.0167571
*CONN
*P FrameData[0] I
*I *1088:A I *D sg13g2_buf_1
*CAP
1 FrameData[0] 0.00228869
2 *1088:A 0.000889344
3 *1:13 0.00608984
4 *1:11 0.0052005
5 *1:9 0.00228869
6 *1088:A S2BEG[3] 0
7 *1088:A *1097:A 0
8 *1088:A *1257:A 0
9 *1088:A *12:33 0
10 *1088:A *27:21 0
11 *1088:A *120:15 0
12 *1088:A *276:12 0
13 *1:9 *12:5 0
14 *1:13 *2:17 0
15 *1:13 *5:5 0
16 *1:13 *8:5 0
17 *1:13 *132:13 0
*RES
1 FrameData[0] *1:9 44.8333 
2 *1:9 *1:11 20 
3 *1:11 *1:13 45.835 
4 *1:13 *1088:A 47.8383 
*END

*D_NET *2 0.016553
*CONN
*P FrameData[10] I
*I *1098:A I *D sg13g2_buf_1
*CAP
1 FrameData[10] 0.00369023
2 *1098:A 0
3 *2:17 0.00236427
4 *2:11 0.00277533
5 *2:5 0.00410129
6 *2:5 *3:11 0
7 *2:5 *27:13 0
8 *2:5 *32:5 0
9 *2:5 *106:13 0.00299688
10 *2:11 *139:11 0
11 *2:11 *218:8 0
12 *2:11 *308:8 0.000272673
13 *2:17 *1101:A 0
14 *2:17 *5:5 0
15 *2:17 *30:23 0.000176165
16 *2:17 *125:9 0
17 *2:17 *132:13 0
18 *2:17 *230:10 0
19 *2:17 *241:8 0
20 *2:17 *259:10 0.000176178
21 *2:17 *263:10 0
22 *1:13 *2:17 0
*RES
1 FrameData[10] *2:5 45.1861 
2 *2:5 *2:11 43.5638 
3 *2:11 *2:17 40.9399 
4 *2:17 *1098:A 20 
*END

*D_NET *3 0.0217664
*CONN
*P FrameData[11] I
*I *1099:A I *D sg13g2_buf_1
*CAP
1 FrameData[11] 0.00148972
2 *1099:A 0.000117482
3 *3:21 0.000736743
4 *3:13 0.00271784
5 *3:11 0.0035883
6 *1099:A *31:17 0.000176252
7 *1099:A *241:8 0
8 *1099:A *243:8 4.75525e-05
9 *3:11 *4:9 0
10 *3:11 *5:5 0
11 *3:13 *5:5 0.00847477
12 *3:13 *27:13 0
13 *3:13 *125:9 0.00316677
14 *3:21 *1128:A 0
15 *3:21 *4:19 0
16 *3:21 *31:17 0.00125097
17 *2:5 *3:11 0
*RES
1 FrameData[11] *3:11 17.9941 
2 *3:11 *3:13 39.2533 
3 *3:13 *3:21 47.6529 
4 *3:21 *1099:A 41.1845 
*END

*D_NET *4 0.014693
*CONN
*P FrameData[12] I
*I *1100:A I *D sg13g2_buf_1
*CAP
1 FrameData[12] 0.000335024
2 *1100:A 0
3 *4:19 0.000584494
4 *4:11 0.00516422
5 *4:9 0.00491475
6 *4:9 *5:5 0
7 *4:11 *23:19 0
8 *4:11 *28:17 0.00260629
9 *4:11 *30:17 0
10 *4:19 *315:22 0.00108822
11 *3:11 *4:9 0
12 *3:21 *4:19 0
*RES
1 FrameData[12] *4:9 43.1621 
2 *4:9 *4:11 52.2622 
3 *4:11 *4:19 47.0967 
4 *4:19 *1100:A 40 
*END

*D_NET *5 0.019411
*CONN
*P FrameData[13] I
*I *1101:A I *D sg13g2_buf_1
*CAP
1 FrameData[13] 0.00533176
2 *1101:A 0.000136336
3 *5:5 0.0054681
4 *1101:A *259:10 0
5 *5:5 *6:9 0
6 *5:5 *125:9 0
7 *1:13 *5:5 0
8 *2:17 *1101:A 0
9 *2:17 *5:5 0
10 *3:11 *5:5 0
11 *3:13 *5:5 0.00847477
12 *4:9 *5:5 0
*RES
1 FrameData[13] *5:5 60.2653 
2 *5:5 *1101:A 41.1845 
*END

*D_NET *6 0.0111227
*CONN
*P FrameData[14] I
*I *1102:A I *D sg13g2_buf_1
*CAP
1 FrameData[14] 0.00129727
2 *1102:A 0
3 *6:19 7.88706e-05
4 *6:13 0.00349973
5 *6:11 0.00342086
6 *6:9 0.00129727
7 *6:9 *7:11 0
8 *6:9 *8:5 0
9 *6:13 *8:13 0.00152871
10 *6:13 *10:15 0
11 *6:13 *29:13 0
12 *6:13 *82:17 0
13 *5:5 *6:9 0
*RES
1 FrameData[14] *6:9 35.0998 
2 *6:9 *6:11 20 
3 *6:11 *6:13 45.835 
4 *6:13 *6:19 40.5356 
5 *6:19 *1102:A 40 
*END

*D_NET *7 0.0212606
*CONN
*P FrameData[15] I
*I *1103:A I *D sg13g2_buf_1
*CAP
1 FrameData[15] 0.00062573
2 *1103:A 0
3 *7:21 0.00125443
4 *7:15 0.00409395
5 *7:11 0.00346526
6 *7:11 *8:5 0
7 *7:15 *9:7 0.00889548
8 *7:15 *9:15 0
9 *7:15 *10:5 0
10 *7:15 *11:5 0
11 *7:15 *111:9 0.00252934
12 *7:21 *8:21 0
13 *7:21 *9:15 0
14 *7:21 *111:9 0
15 *7:21 *265:8 0.000396398
16 *7:21 *312:10 0
17 *6:9 *7:11 0
*RES
1 FrameData[15] *7:11 46.695 
2 *7:11 *7:15 45.1655 
3 *7:15 *7:21 30.8047 
4 *7:21 *1103:A 20 
*END

*D_NET *8 0.0151751
*CONN
*P FrameData[16] I
*I *1104:A I *D sg13g2_buf_1
*CAP
1 FrameData[16] 0.00421146
2 *1104:A 0
3 *8:21 0.000468504
4 *8:13 0.000840367
5 *8:5 0.00458332
6 *8:5 *9:7 0
7 *8:5 *109:9 0
8 *8:5 *109:19 0
9 *8:5 *133:11 0
10 *8:5 *312:10 0.00108525
11 *8:13 *29:13 0
12 *8:13 *82:17 0.00126071
13 *8:21 *111:9 0
14 *8:21 *312:10 0.0011968
15 *1:13 *8:5 0
16 *6:9 *8:5 0
17 *6:13 *8:13 0.00152871
18 *7:11 *8:5 0
19 *7:21 *8:21 0
*RES
1 FrameData[16] *8:5 48.3997 
2 *8:5 *8:13 47.5602 
3 *8:13 *8:21 45.8607 
4 *8:21 *1104:A 40 
*END

*D_NET *9 0.0235491
*CONN
*P FrameData[17] I
*I *1105:A I *D sg13g2_buf_1
*CAP
1 FrameData[17] 0.00323659
2 *1105:A 0
3 *9:25 0.000459619
4 *9:15 0.00129179
5 *9:7 0.00406876
6 *9:7 *10:5 0
7 *9:7 *109:9 0
8 *9:15 *262:8 0
9 *9:15 *264:12 0
10 *9:15 *312:10 0.00146489
11 *9:25 *80:27 0.000181694
12 *9:25 *218:18 0.00190544
13 *9:25 *218:22 0.000128247
14 *9:25 *309:12 0.00183648
15 *9:25 *309:24 8.00842e-05
16 *7:15 *9:7 0.00889548
17 *7:15 *9:15 0
18 *7:21 *9:15 0
19 *8:5 *9:7 0
*RES
1 FrameData[17] *9:7 46.2161 
2 *9:7 *9:15 48.6488 
3 *9:15 *9:25 30.4545 
4 *9:25 *1105:A 20 
*END

*D_NET *10 0.0115203
*CONN
*P FrameData[18] I
*I *1106:A I *D sg13g2_buf_1
*CAP
1 FrameData[18] 0.00341939
2 *1106:A 0
3 *10:19 0
4 *10:15 0.00226953
5 *10:11 0.00234074
6 *10:5 0.0034906
7 *10:5 *11:5 0
8 *10:15 *29:13 0
9 *10:15 *220:16 0
10 *6:13 *10:15 0
11 *7:15 *10:5 0
12 *9:7 *10:5 0
*RES
1 FrameData[18] *10:5 35.7925 
2 *10:5 *10:11 40.7519 
3 *10:11 *10:15 44.3286 
4 *10:15 *10:19 40 
5 *10:19 *1106:A 20 
*END

*D_NET *11 0.013945
*CONN
*P FrameData[19] I
*I *1107:A I *D sg13g2_buf_1
*CAP
1 FrameData[19] 0.00504014
2 *1107:A 0
3 *11:13 0.000342299
4 *11:5 0.00538244
5 *11:5 *13:7 0
6 *11:5 *13:9 0
7 *11:5 *111:9 0
8 *11:5 *139:11 0
9 *11:5 *261:16 0
10 *11:5 *309:12 0.00274701
11 *11:13 *1108:A 0.000144542
12 *11:13 *259:12 0
13 *11:13 *260:14 0.000288588
14 *7:15 *11:5 0
15 *10:5 *11:5 0
*RES
1 FrameData[19] *11:5 59.2765 
2 *11:5 *11:13 43.3887 
3 *11:13 *1107:A 40 
*END

*D_NET *12 0.0247156
*CONN
*P FrameData[1] I
*I *1089:A I *D sg13g2_buf_1
*CAP
1 FrameData[1] 0.00330467
2 *1089:A 0
3 *12:33 0.0017426
4 *12:25 0.00253993
5 *12:15 0.00103701
6 *12:5 0.00354435
7 *12:5 *23:9 0
8 *12:5 *107:13 0.00241019
9 *12:5 *108:9 0
10 *12:5 *112:13 0.00103053
11 *12:15 *122:13 0
12 *12:15 *135:11 0.000240377
13 *12:15 *136:13 0.000240377
14 *12:15 *311:12 7.02123e-05
15 *12:25 *133:11 0
16 *12:25 *134:9 0.000563057
17 *12:25 *135:11 0.000709064
18 *12:33 S2BEG[3] 0
19 *12:33 S2BEG[5] 0
20 *12:33 *1092:A 0
21 *12:33 *1097:A 0
22 *12:33 *1257:A 0.000240214
23 *12:33 *1259:A 0
24 *12:33 *27:13 0.00369527
25 *12:33 *27:21 0
26 *12:33 *31:17 0.00334777
27 *12:33 *134:9 0
28 *12:33 *308:14 0
29 *1088:A *12:33 0
30 *1:9 *12:5 0
*RES
1 FrameData[1] *12:5 42.9613 
2 *12:5 *12:15 42.5338 
3 *12:15 *12:25 47.9104 
4 *12:25 *12:33 45.4925 
5 *12:33 *1089:A 20 
*END

*D_NET *13 0.0139944
*CONN
*P FrameData[20] I
*I *1108:A I *D sg13g2_buf_1
*CAP
1 FrameData[20] 0.00075794
2 *1108:A 9.34294e-05
3 *13:9 0.00526884
4 *13:7 0.00593335
5 *13:7 *14:5 0
6 *13:9 *14:5 0
7 *13:9 *139:11 0
8 *13:9 *139:15 0.00179628
9 *13:9 *259:12 0
10 *11:5 *13:7 0
11 *11:5 *13:9 0
12 *11:13 *1108:A 0.000144542
*RES
1 FrameData[20] *13:7 8.4254 
2 *13:7 *13:9 51.5206 
3 *13:9 *1108:A 40.9682 
*END

*D_NET *14 0.0165401
*CONN
*P FrameData[21] I
*I *1109:A I *D sg13g2_buf_1
*CAP
1 FrameData[21] 0.00510705
2 *1109:A 2.4561e-05
3 *14:5 0.00513161
4 *14:5 *15:7 0
5 *14:5 *259:12 0.00627689
6 *14:5 *260:14 0
7 *13:7 *14:5 0
8 *13:9 *14:5 0
*RES
1 FrameData[21] *14:5 58.5349 
2 *14:5 *1109:A 40.3193 
*END

*D_NET *15 0.0123296
*CONN
*P FrameData[22] I
*I *1110:A I *D sg13g2_buf_1
*CAP
1 FrameData[22] 0.00428553
2 *1110:A 0
3 *15:13 0.00181462
4 *15:7 0.00610015
5 *15:7 *16:5 0
6 *15:7 *260:14 0
7 *15:13 *16:5 0
8 *15:13 *19:13 0
9 *15:13 *227:8 0.000129281
10 *15:13 *260:14 0
11 *14:5 *15:7 0
*RES
1 FrameData[22] *15:7 45.7217 
2 *15:7 *15:13 36.8349 
3 *15:13 *1110:A 20 
*END

*D_NET *16 0.0143076
*CONN
*P FrameData[23] I
*I *1111:A I *D sg13g2_buf_1
*CAP
1 FrameData[23] 0.0061193
2 *1111:A 0.000193099
3 *16:5 0.0063124
4 *1111:A *1245:A 0
5 *1111:A *226:8 0
6 *16:5 *17:5 0
7 *16:5 *19:13 0
8 *16:5 *262:14 0.00168276
9 *15:7 *16:5 0
10 *15:13 *16:5 0
*RES
1 FrameData[23] *16:5 57.5461 
2 *16:5 *1111:A 41.6171 
*END

*D_NET *17 0.024583
*CONN
*P FrameData[24] I
*I *1112:A I *D sg13g2_buf_1
*CAP
1 FrameData[24] 0.00380312
2 *1112:A 7.85718e-05
3 *17:5 0.00388169
4 *1112:A *1113:A 0
5 *17:5 *18:5 0
6 *17:5 *19:13 0
7 *17:5 *257:10 0.00899754
8 *17:5 *258:12 0.00782204
9 *16:5 *17:5 0
*RES
1 FrameData[24] *17:5 60.2653 
2 *17:5 *1112:A 40.7519 
*END

*D_NET *18 0.0108449
*CONN
*P FrameData[25] I
*I *1113:A I *D sg13g2_buf_1
*CAP
1 FrameData[25] 0.00523529
2 *1113:A 0.000187184
3 *18:5 0.00542247
4 *1113:A *1245:A 0
5 *1113:A *226:8 0
6 *18:5 *19:11 0
7 *18:5 *226:12 0
8 *18:5 *257:10 0
9 *1112:A *1113:A 0
10 *17:5 *18:5 0
*RES
1 FrameData[25] *18:5 59.2765 
2 *18:5 *1113:A 41.6171 
*END

*D_NET *19 0.0221558
*CONN
*P FrameData[26] I
*I *1114:A I *D sg13g2_buf_1
*CAP
1 FrameData[26] 0.000526886
2 *1114:A 0.000238974
3 *19:13 0.00566578
4 *19:11 0.00595369
5 *1114:A *1246:A 0
6 *1114:A *235:8 0
7 *19:11 *20:11 0
8 *19:13 *228:8 0
9 *19:13 *258:12 0.00808895
10 *19:13 *262:14 0.00168155
11 *15:13 *19:13 0
12 *16:5 *19:13 0
13 *17:5 *19:13 0
14 *18:5 *19:11 0
*RES
1 FrameData[26] *19:11 45.4281 
2 *19:11 *19:13 58.4422 
3 *19:13 *1114:A 42.0497 
*END

*D_NET *20 0.00966839
*CONN
*P FrameData[27] I
*I *1115:A I *D sg13g2_buf_1
*CAP
1 FrameData[27] 0.000409191
2 *1115:A 0
3 *20:17 0
4 *20:13 0.004425
5 *20:11 0.00483419
6 *20:11 *21:7 0
7 *19:11 *20:11 0
*RES
1 FrameData[27] *20:11 44.3466 
2 *20:11 *20:13 57.4534 
3 *20:13 *20:17 40 
4 *20:17 *1115:A 40 
*END

*D_NET *21 0.0106872
*CONN
*P FrameData[28] I
*I *1116:A I *D sg13g2_buf_1
*CAP
1 FrameData[28] 0.00139043
2 *1116:A 0
3 *21:9 0.00375433
4 *21:7 0.00514476
5 *21:7 *22:7 0
6 *21:7 *22:9 0
7 *21:7 *220:24 0.00039766
8 *21:9 *22:9 0
9 *21:9 *24:5 0
10 *21:9 *233:12 0
11 *20:11 *21:7 0
*RES
1 FrameData[28] *21:7 16.4903 
2 *21:7 *21:9 44.6917 
3 *21:9 *1116:A 40 
*END

*D_NET *22 0.0106257
*CONN
*P FrameData[29] I
*I *1117:A I *D sg13g2_buf_1
*CAP
1 FrameData[29] 0.000760833
2 *1117:A 9.47931e-05
3 *22:9 0.00455202
4 *22:7 0.00521806
5 *1117:A *1118:A 0
6 *22:7 *24:5 0
7 *22:9 *24:5 0
8 *21:7 *22:7 0
9 *21:7 *22:9 0
10 *21:9 *22:9 0
*RES
1 FrameData[29] *22:7 8.4254 
2 *22:7 *22:9 50.779 
3 *22:9 *1117:A 40.9682 
*END

*D_NET *23 0.0210769
*CONN
*P FrameData[2] I
*I *1090:A I *D sg13g2_buf_1
*CAP
1 FrameData[2] 0.00305369
2 *1090:A 0
3 *23:27 0.00111976
4 *23:19 0.00354553
5 *23:15 0.00319223
6 *23:9 0.00382015
7 *23:9 *26:5 0
8 *23:9 *108:9 7.51285e-05
9 *23:19 *26:15 0.00570188
10 *23:19 *28:17 0
11 *23:19 *252:14 0.00034256
12 *23:27 *26:21 0
13 *23:27 *29:25 0.000145913
14 *23:27 *30:17 8.00135e-05
15 *23:27 *136:27 0
16 *23:27 *168:8 0
17 *23:27 *280:12 0
18 *4:11 *23:19 0
19 *12:5 *23:9 0
*RES
1 FrameData[2] *23:9 33.0012 
2 *23:9 *23:15 48.9713 
3 *23:15 *23:19 49.767 
4 *23:19 *23:27 48.7035 
5 *23:27 *1090:A 20 
*END

*D_NET *24 0.0108767
*CONN
*P FrameData[30] I
*I *1118:A I *D sg13g2_buf_1
*CAP
1 FrameData[30] 0.00524094
2 *1118:A 0.000197399
3 *24:5 0.00543833
4 *1118:A FrameStrobe_O[9] 0
5 *24:5 *25:5 0
6 *1117:A *1118:A 0
7 *21:9 *24:5 0
8 *22:7 *24:5 0
9 *22:9 *24:5 0
*RES
1 FrameData[30] *24:5 59.7709 
2 *24:5 *1118:A 41.7769 
*END

*D_NET *25 0.0111092
*CONN
*P FrameData[31] I
*I *1119:A I *D sg13g2_buf_1
*CAP
1 FrameData[31] 0.00529331
2 *1119:A 0.000253577
3 *25:5 0.00554689
4 *1119:A FrameStrobe_O[9] 0
5 *1119:A *1246:A 1.54556e-05
6 *24:5 *25:5 0
*RES
1 FrameData[31] *25:5 63.2317 
2 *25:5 *1119:A 42.9149 
*END

*D_NET *26 0.020043
*CONN
*P FrameData[3] I
*I *1091:A I *D sg13g2_buf_1
*CAP
1 FrameData[3] 0.0034098
2 *1091:A 0
3 *26:21 0.00107608
4 *26:15 0.00270091
5 *26:11 0.00238161
6 *26:5 0.00416659
7 *26:5 *27:7 0
8 *26:5 *28:5 0
9 *26:5 *108:9 0
10 *26:11 *30:11 0.000606081
11 *26:21 *28:17 0
12 *23:9 *26:5 0
13 *23:19 *26:15 0.00570188
14 *23:27 *26:21 0
*RES
1 FrameData[3] *26:5 36.0397 
2 *26:5 *26:11 48.5387 
3 *26:11 *26:15 46.8006 
4 *26:15 *26:21 48.3224 
5 *26:21 *1091:A 20 
*END

*D_NET *27 0.0197287
*CONN
*P FrameData[4] I
*I *1092:A I *D sg13g2_buf_1
*CAP
1 FrameData[4] 0.00219954
2 *1092:A 0.000366013
3 *27:21 0.000742989
4 *27:13 0.00277969
5 *27:11 0.00309758
6 *27:7 0.00289441
7 *1092:A *30:23 0
8 *1092:A *31:17 0.00020799
9 *1092:A *243:8 0.000143351
10 *27:7 *28:5 0
11 *27:13 *105:13 0
12 *27:13 *125:9 0
13 *27:13 *308:14 0.00311665
14 *27:21 *244:8 0.00014491
15 *27:21 *315:22 0.000340288
16 *1088:A *27:21 0
17 *2:5 *27:13 0
18 *3:13 *27:13 0
19 *12:33 *1092:A 0
20 *12:33 *27:13 0.00369527
21 *12:33 *27:21 0
22 *26:5 *27:7 0
*RES
1 FrameData[4] *27:7 44.6685 
2 *27:7 *27:11 26.8083 
3 *27:11 *27:13 35.2054 
4 *27:13 *27:21 43.8522 
5 *27:21 *1092:A 43.5638 
*END

*D_NET *28 0.0190988
*CONN
*P FrameData[5] I
*I *1093:A I *D sg13g2_buf_1
*CAP
1 FrameData[5] 0.0042604
2 *1093:A 0
3 *28:23 0.000130791
4 *28:17 0.00141039
5 *28:11 0.00183149
6 *28:5 0.0048123
7 *28:5 *29:5 0
8 *28:5 *110:9 0
9 *28:5 *117:13 0
10 *28:11 *29:9 0
11 *28:17 *30:17 0.00404716
12 *28:17 *134:19 0
13 *28:17 *252:14 0
14 *28:23 *78:13 0
15 *28:23 *258:8 0
16 *4:11 *28:17 0.00260629
17 *23:19 *28:17 0
18 *26:5 *28:5 0
19 *26:21 *28:17 0
20 *27:7 *28:5 0
*RES
1 FrameData[5] *28:5 43.4557 
2 *28:5 *28:11 45.9431 
3 *28:11 *28:17 41.3725 
4 *28:17 *28:23 41.1845 
5 *28:23 *1093:A 20 
*END

*D_NET *29 0.0204162
*CONN
*P FrameData[6] I
*I *1094:A I *D sg13g2_buf_1
*CAP
1 FrameData[6] 0.00365156
2 *1094:A 0.000194047
3 *29:25 0.00115296
4 *29:13 0.0027435
5 *29:9 0.00284465
6 *29:5 0.00471162
7 *1094:A *30:23 0
8 *1094:A *240:8 0
9 *29:5 *30:5 0
10 *29:5 *117:13 0
11 *29:5 *121:9 0.00219533
12 *29:5 *123:9 0.00198254
13 *29:9 *31:11 0.000437463
14 *29:13 *82:17 0
15 *29:13 *220:16 0
16 *29:25 *30:17 8.00135e-05
17 *29:25 *136:27 4.63914e-05
18 *29:25 *252:12 0
19 *29:25 *314:14 0
20 *29:25 *315:22 0.00023024
21 *6:13 *29:13 0
22 *8:13 *29:13 0
23 *10:15 *29:13 0
24 *23:27 *29:25 0.000145913
25 *28:5 *29:5 0
26 *28:11 *29:9 0
*RES
1 FrameData[6] *29:5 44.9389 
2 *29:5 *29:9 30.7017 
3 *29:9 *29:13 36.9126 
4 *29:13 *29:25 49.2185 
5 *29:25 *1094:A 41.6171 
*END

*D_NET *30 0.0174527
*CONN
*P FrameData[7] I
*I *1095:A I *D sg13g2_buf_1
*CAP
1 FrameData[7] 0.00326895
2 *1095:A 0
3 *30:23 0.000318003
4 *30:17 0.00259312
5 *30:11 0.00260508
6 *30:5 0.00359892
7 *30:5 *31:5 0
8 *30:5 *120:15 0
9 *30:5 *121:9 0
10 *30:17 *134:19 0
11 *30:17 *136:21 0
12 *30:23 *241:8 7.91399e-05
13 *30:23 *243:8 0
14 *1092:A *30:23 0
15 *1094:A *30:23 0
16 *2:17 *30:23 0.000176165
17 *4:11 *30:17 0
18 *23:27 *30:17 8.00135e-05
19 *26:11 *30:11 0.000606081
20 *28:17 *30:17 0.00404716
21 *29:5 *30:5 0
22 *29:25 *30:17 8.00135e-05
*RES
1 FrameData[7] *30:5 35.7925 
2 *30:5 *30:11 43.9964 
3 *30:11 *30:17 46.8418 
4 *30:17 *30:23 42.9149 
5 *30:23 *1095:A 20 
*END

*D_NET *31 0.0204165
*CONN
*P FrameData[8] I
*I *1096:A I *D sg13g2_buf_1
*CAP
1 FrameData[8] 0.00357882
2 *1096:A 0
3 *31:17 0.00141636
4 *31:11 0.00168634
5 *31:5 0.0038488
6 *31:5 *32:5 0
7 *31:5 *119:11 0.00246172
8 *31:5 *124:9 0.00193067
9 *31:17 *105:13 0
10 *31:17 *134:9 0
11 *31:17 *308:14 7.33256e-05
12 *31:17 *315:22 0
13 *1092:A *31:17 0.00020799
14 *1099:A *31:17 0.000176252
15 *3:21 *31:17 0.00125097
16 *12:33 *31:17 0.00334777
17 *29:9 *31:11 0.000437463
18 *30:5 *31:5 0
*RES
1 FrameData[8] *31:5 45.1861 
2 *31:5 *31:11 42.9149 
3 *31:11 *31:17 39.055 
4 *31:17 *1096:A 20 
*END

*D_NET *32 0.0149654
*CONN
*P FrameData[9] I
*I *1097:A I *D sg13g2_buf_1
*CAP
1 FrameData[9] 0.00535659
2 *1097:A 0.000149071
3 *32:5 0.00550566
4 *32:5 *106:13 0
5 *32:5 *124:9 0
6 *32:5 *129:13 0.0024871
7 *32:5 *310:16 0
8 *32:5 *314:14 0.00146696
9 *32:5 *315:22 0
10 *32:5 *317:16 0
11 *1088:A *1097:A 0
12 *2:5 *32:5 0
13 *12:33 *1097:A 0
14 *31:5 *32:5 0
*RES
1 FrameData[9] *32:5 59.5237 
2 *32:5 *1097:A 41.1845 
*END

*D_NET *33 0.00112869
*CONN
*P FrameData_O[0] O
*I *1193:X O *D sg13g2_buf_1
*CAP
1 FrameData_O[0] 0.000524645
2 *1193:X 0.000524645
3 FrameData_O[0] FrameData_O[1] 0
4 FrameData_O[0] FrameData_O[2] 7.93968e-05
*RES
1 *1193:X FrameData_O[0] 45.9225 
*END

*D_NET *34 0.00041191
*CONN
*P FrameData_O[10] O
*I *1210:X O *D sg13g2_buf_1
*CAP
1 FrameData_O[10] 0.000205955
2 *1210:X 0.000205955
3 FrameData_O[10] FrameData_O[11] 0
4 FrameData_O[10] FrameData_O[9] 0
5 FrameData_O[10] *1223:A 0
6 FrameData_O[10] *230:28 0
*RES
1 *1210:X FrameData_O[10] 42.2145 
*END

*D_NET *35 0.000630308
*CONN
*P FrameData_O[11] O
*I *1221:X O *D sg13g2_buf_1
*CAP
1 FrameData_O[11] 0.000307426
2 *1221:X 0.000307426
3 FrameData_O[11] FrameData_O[12] 0
4 FrameData_O[11] FrameData_O[13] 0
5 FrameData_O[11] FrameData_O[9] 0
6 FrameData_O[11] *230:28 1.54556e-05
7 FrameData_O[11] *243:10 0
8 FrameData_O[10] FrameData_O[11] 0
*RES
1 *1221:X FrameData_O[11] 43.2033 
*END

*D_NET *36 0.000407177
*CONN
*P FrameData_O[12] O
*I *1232:X O *D sg13g2_buf_1
*CAP
1 FrameData_O[12] 0.000203588
2 *1232:X 0.000203588
3 FrameData_O[12] FrameData_O[13] 0
4 FrameData_O[12] *230:28 0
5 FrameData_O[11] FrameData_O[12] 0
*RES
1 *1232:X FrameData_O[12] 42.2145 
*END

*D_NET *37 0.000716342
*CONN
*P FrameData_O[13] O
*I *1243:X O *D sg13g2_buf_1
*CAP
1 FrameData_O[13] 0.000320564
2 *1243:X 0.000320564
3 FrameData_O[13] FrameData_O[14] 0
4 FrameData_O[13] FrameData_O[15] 0
5 FrameData_O[13] *1243:A 0
6 FrameData_O[13] *230:28 7.52149e-05
7 FrameData_O[13] *274:22 0
8 FrameData_O[11] FrameData_O[13] 0
9 FrameData_O[12] FrameData_O[13] 0
*RES
1 *1243:X FrameData_O[13] 43.4196 
*END

*D_NET *38 0.000297607
*CONN
*P FrameData_O[14] O
*I *1254:X O *D sg13g2_buf_1
*CAP
1 FrameData_O[14] 0.000148804
2 *1254:X 0.000148804
3 FrameData_O[14] FrameData_O[15] 0
4 FrameData_O[13] FrameData_O[14] 0
*RES
1 *1254:X FrameData_O[14] 41.6789 
*END

*D_NET *39 0.000697051
*CONN
*P FrameData_O[15] O
*I *1265:X O *D sg13g2_buf_1
*CAP
1 FrameData_O[15] 0.000348526
2 *1265:X 0.000348526
3 FrameData_O[15] FrameData_O[16] 0
4 FrameData_O[15] FrameData_O[17] 0
5 FrameData_O[15] *274:22 0
6 FrameData_O[15] *296:8 0
7 FrameData_O[13] FrameData_O[15] 0
8 FrameData_O[14] FrameData_O[15] 0
*RES
1 *1265:X FrameData_O[15] 43.6359 
*END

*D_NET *40 0.000297607
*CONN
*P FrameData_O[16] O
*I *1276:X O *D sg13g2_buf_1
*CAP
1 FrameData_O[16] 0.000148804
2 *1276:X 0.000148804
3 FrameData_O[16] FrameData_O[17] 0
4 FrameData_O[15] FrameData_O[16] 0
*RES
1 *1276:X FrameData_O[16] 41.6789 
*END

*D_NET *41 0.000721195
*CONN
*P FrameData_O[17] O
*I *1287:X O *D sg13g2_buf_1
*CAP
1 FrameData_O[17] 0.000360598
2 *1287:X 0.000360598
3 FrameData_O[17] FrameData_O[18] 0
4 FrameData_O[17] *214:18 0
5 FrameData_O[15] FrameData_O[17] 0
6 FrameData_O[16] FrameData_O[17] 0
*RES
1 *1287:X FrameData_O[17] 43.8522 
*END

*D_NET *42 0.000352109
*CONN
*P FrameData_O[18] O
*I *1194:X O *D sg13g2_buf_1
*CAP
1 FrameData_O[18] 0.000176055
2 *1194:X 0.000176055
3 FrameData_O[18] FrameData_O[19] 0
4 FrameData_O[18] *1194:A 0
5 FrameData_O[17] FrameData_O[18] 0
*RES
1 *1194:X FrameData_O[18] 41.9982 
*END

*D_NET *43 0.000597556
*CONN
*P FrameData_O[19] O
*I *1201:X O *D sg13g2_buf_1
*CAP
1 FrameData_O[19] 0.000298778
2 *1201:X 0.000298778
3 FrameData_O[19] FrameData_O[20] 0
4 FrameData_O[19] *1287:A 0
5 FrameData_O[18] FrameData_O[19] 0
*RES
1 *1201:X FrameData_O[19] 43.0797 
*END

*D_NET *44 0.00115582
*CONN
*P FrameData_O[1] O
*I *1202:X O *D sg13g2_buf_1
*CAP
1 FrameData_O[1] 0.000577909
2 *1202:X 0.000577909
3 FrameData_O[1] FrameData_O[2] 0
4 FrameData_O[1] *1202:A 0
5 FrameData_O[1] *237:20 0
6 FrameData_O[0] FrameData_O[1] 0
*RES
1 *1202:X FrameData_O[1] 46.0461 
*END

*D_NET *45 0.000646354
*CONN
*P FrameData_O[20] O
*I *1203:X O *D sg13g2_buf_1
*CAP
1 FrameData_O[20] 0.000323177
2 *1203:X 0.000323177
3 FrameData_O[20] FrameData_O[21] 0
4 FrameData_O[20] FrameData_O[22] 0
5 FrameData_O[20] *1287:A 0
6 FrameData_O[20] *214:18 0
7 FrameData_O[20] *221:8 0
8 FrameData_O[19] FrameData_O[20] 0
*RES
1 *1203:X FrameData_O[20] 43.2033 
*END

*D_NET *46 0.000649323
*CONN
*P FrameData_O[21] O
*I *1204:X O *D sg13g2_buf_1
*CAP
1 FrameData_O[21] 0.000324662
2 *1204:X 0.000324662
3 FrameData_O[21] FrameData_O[22] 0
4 FrameData_O[21] *1201:A 0
5 FrameData_O[21] *1287:A 0
6 FrameData_O[20] FrameData_O[21] 0
*RES
1 *1204:X FrameData_O[21] 43.296 
*END

*D_NET *47 0.000667694
*CONN
*P FrameData_O[22] O
*I *1205:X O *D sg13g2_buf_1
*CAP
1 FrameData_O[22] 0.000333847
2 *1205:X 0.000333847
3 FrameData_O[22] FrameData_O[23] 0
4 FrameData_O[22] FrameData_O[24] 0
5 FrameData_O[22] *1205:A 0
6 FrameData_O[22] *224:22 0
7 FrameData_O[20] FrameData_O[22] 0
8 FrameData_O[21] FrameData_O[22] 0
*RES
1 *1205:X FrameData_O[22] 43.4196 
*END

*D_NET *48 0.00070476
*CONN
*P FrameData_O[23] O
*I *1206:X O *D sg13g2_buf_1
*CAP
1 FrameData_O[23] 0.000344652
2 *1206:X 0.000344652
3 FrameData_O[23] FrameData_O[24] 0
4 FrameData_O[23] FrameData_O[25] 1.54556e-05
5 FrameData_O[23] *1206:A 0
6 FrameData_O[23] *1207:A 0
7 FrameData_O[22] FrameData_O[23] 0
*RES
1 *1206:X FrameData_O[23] 43.6153 
*END

*D_NET *49 0.00082781
*CONN
*P FrameData_O[24] O
*I *1207:X O *D sg13g2_buf_1
*CAP
1 FrameData_O[24] 0.000341873
2 *1207:X 0.000341873
3 FrameData_O[24] FrameData_O[25] 0
4 FrameData_O[24] FrameData_O[26] 0
5 FrameData_O[24] *1206:A 0
6 FrameData_O[24] *1207:A 0
7 FrameData_O[24] *1209:A 1.54008e-05
8 FrameData_O[24] *224:22 0
9 FrameData_O[24] *226:14 0.000128663
10 FrameData_O[22] FrameData_O[24] 0
11 FrameData_O[23] FrameData_O[24] 0
*RES
1 *1207:X FrameData_O[24] 43.6359 
*END

*D_NET *50 0.000758977
*CONN
*P FrameData_O[25] O
*I *1208:X O *D sg13g2_buf_1
*CAP
1 FrameData_O[25] 0.000371761
2 *1208:X 0.000371761
3 FrameData_O[25] FrameData_O[26] 0
4 FrameData_O[25] *1206:A 0
5 FrameData_O[25] *1208:A 0
6 FrameData_O[25] *1209:A 0
7 FrameData_O[23] FrameData_O[25] 1.54556e-05
8 FrameData_O[24] FrameData_O[25] 0
*RES
1 *1208:X FrameData_O[25] 43.8316 
*END

*D_NET *51 0.00101597
*CONN
*P FrameData_O[26] O
*I *1209:X O *D sg13g2_buf_1
*CAP
1 FrameData_O[26] 0.000355441
2 *1209:X 0.000355441
3 FrameData_O[26] FrameData_O[27] 0
4 FrameData_O[26] *1208:A 0
5 FrameData_O[26] *1209:A 0.000176424
6 FrameData_O[26] *228:16 0.000128663
7 FrameData_O[24] FrameData_O[26] 0
8 FrameData_O[25] FrameData_O[26] 0
*RES
1 *1209:X FrameData_O[26] 43.8522 
*END

*D_NET *52 0.000769838
*CONN
*P FrameData_O[27] O
*I *1211:X O *D sg13g2_buf_1
*CAP
1 FrameData_O[27] 0.000384919
2 *1211:X 0.000384919
3 FrameData_O[27] FrameData_O[28] 0
4 FrameData_O[27] *228:16 0
5 FrameData_O[26] FrameData_O[27] 0
*RES
1 *1211:X FrameData_O[27] 43.9758 
*END

*D_NET *53 0.00114046
*CONN
*P FrameData_O[28] O
*I *1212:X O *D sg13g2_buf_1
*CAP
1 FrameData_O[28] 0.00046605
2 *1212:X 0.00046605
3 FrameData_O[28] FrameData_O[29] 0
4 FrameData_O[28] FrameData_O[30] 8.01116e-05
5 FrameData_O[28] *1212:A 0
6 FrameData_O[28] *228:16 0
7 FrameData_O[28] *231:20 0.000128248
8 FrameData_O[27] FrameData_O[28] 0
*RES
1 *1212:X FrameData_O[28] 45.1809 
*END

*D_NET *54 0.00129028
*CONN
*P FrameData_O[29] O
*I *1213:X O *D sg13g2_buf_1
*CAP
1 FrameData_O[29] 0.00063405
2 *1213:X 0.00063405
3 FrameData_O[29] FrameData_O[30] 0
4 FrameData_O[29] *1207:A 2.21754e-05
5 FrameData_O[29] *1209:A 0
6 FrameData_O[28] FrameData_O[29] 0
*RES
1 *1213:X FrameData_O[29] 46.4581 
*END

*D_NET *55 0.00139553
*CONN
*P FrameData_O[2] O
*I *1214:X O *D sg13g2_buf_1
*CAP
1 FrameData_O[2] 0.000547949
2 *1214:X 0.000547949
3 FrameData_O[2] FrameData_O[3] 0
4 FrameData_O[2] *1202:A 0
5 FrameData_O[2] *1218:A 0
6 FrameData_O[2] *237:20 0.000220237
7 FrameData_O[0] FrameData_O[2] 7.93968e-05
8 FrameData_O[1] FrameData_O[2] 0
*RES
1 *1214:X FrameData_O[2] 46.2418 
*END

*D_NET *56 0.00163455
*CONN
*P FrameData_O[30] O
*I *1215:X O *D sg13g2_buf_1
*CAP
1 FrameData_O[30] 0.00077722
2 *1215:X 0.00077722
3 FrameData_O[30] FrameData_O[31] 0
4 FrameData_O[30] *1212:A 0
5 FrameData_O[28] FrameData_O[30] 8.01116e-05
6 FrameData_O[29] FrameData_O[30] 0
*RES
1 *1215:X FrameData_O[30] 48.3121 
*END

*D_NET *57 0.00191658
*CONN
*P FrameData_O[31] O
*I *1216:X O *D sg13g2_buf_1
*CAP
1 FrameData_O[31] 0.000788496
2 *1216:X 0.000788496
3 FrameData_O[31] FrameStrobe_O[19] 0.000339583
4 FrameData_O[30] FrameData_O[31] 0
*RES
1 *1216:X FrameData_O[31] 49.6305 
*END

*D_NET *58 0.000585676
*CONN
*P FrameData_O[3] O
*I *1217:X O *D sg13g2_buf_1
*CAP
1 FrameData_O[3] 0.000292838
2 *1217:X 0.000292838
3 FrameData_O[3] FrameData_O[4] 0
4 FrameData_O[3] FrameData_O[5] 0
5 FrameData_O[3] *237:20 0
6 FrameData_O[2] FrameData_O[3] 0
*RES
1 *1217:X FrameData_O[3] 43.2033 
*END

*D_NET *59 0.000406344
*CONN
*P FrameData_O[4] O
*I *1218:X O *D sg13g2_buf_1
*CAP
1 FrameData_O[4] 0.000203172
2 *1218:X 0.000203172
3 FrameData_O[4] FrameData_O[5] 0
4 FrameData_O[4] *1218:A 0
5 FrameData_O[3] FrameData_O[4] 0
*RES
1 *1218:X FrameData_O[4] 42.2145 
*END

*D_NET *60 0.000467976
*CONN
*P FrameData_O[5] O
*I *1219:X O *D sg13g2_buf_1
*CAP
1 FrameData_O[5] 0.000233988
2 *1219:X 0.000233988
3 FrameData_O[5] FrameData_O[6] 0
4 FrameData_O[5] FrameData_O[7] 0
5 FrameData_O[5] *238:18 0
6 FrameData_O[3] FrameData_O[5] 0
7 FrameData_O[4] FrameData_O[5] 0
*RES
1 *1219:X FrameData_O[5] 42.6677 
*END

*D_NET *61 0.000297607
*CONN
*P FrameData_O[6] O
*I *1220:X O *D sg13g2_buf_1
*CAP
1 FrameData_O[6] 0.000148804
2 *1220:X 0.000148804
3 FrameData_O[6] FrameData_O[7] 0
4 FrameData_O[5] FrameData_O[6] 0
*RES
1 *1220:X FrameData_O[6] 41.6789 
*END

*D_NET *62 0.000573399
*CONN
*P FrameData_O[7] O
*I *1222:X O *D sg13g2_buf_1
*CAP
1 FrameData_O[7] 0.000222369
2 *1222:X 0.000222369
3 FrameData_O[7] FrameData_O[8] 0
4 FrameData_O[7] FrameData_O[9] 0
5 FrameData_O[7] *238:18 0
6 FrameData_O[7] *240:18 0.000128662
7 FrameData_O[5] FrameData_O[7] 0
8 FrameData_O[6] FrameData_O[7] 0
*RES
1 *1222:X FrameData_O[7] 42.6677 
*END

*D_NET *63 0.000297607
*CONN
*P FrameData_O[8] O
*I *1223:X O *D sg13g2_buf_1
*CAP
1 FrameData_O[8] 0.000148804
2 *1223:X 0.000148804
3 FrameData_O[8] FrameData_O[9] 0
4 FrameData_O[7] FrameData_O[8] 0
*RES
1 *1223:X FrameData_O[8] 41.6789 
*END

*D_NET *64 0.00052156
*CONN
*P FrameData_O[9] O
*I *1224:X O *D sg13g2_buf_1
*CAP
1 FrameData_O[9] 0.00026078
2 *1224:X 0.00026078
3 FrameData_O[9] *240:18 0
4 FrameData_O[9] *243:10 0
5 FrameData_O[10] FrameData_O[9] 0
6 FrameData_O[11] FrameData_O[9] 0
7 FrameData_O[7] FrameData_O[9] 0
8 FrameData_O[8] FrameData_O[9] 0
*RES
1 *1224:X FrameData_O[9] 42.987 
*END

*D_NET *65 0.0113246
*CONN
*P FrameStrobe[0] I
*I *1120:A I *D sg13g2_buf_1
*CAP
1 FrameStrobe[0] 0.00206845
2 *1120:A 0
3 *65:9 0.00206845
4 *65:9 *1288:A 0.00017625
5 *65:9 *76:7 0
6 *65:9 *79:15 0
7 *65:9 *81:17 0.00359096
8 *65:9 *125:9 0.00311541
9 *65:9 *204:10 0.00030506
10 *65:9 *209:9 0
*RES
1 FrameStrobe[0] *65:9 47.4289 
2 *65:9 *1120:A 40 
*END

*D_NET *66 0.0119681
*CONN
*P FrameStrobe[10] I
*I *1130:A I *D sg13g2_buf_1
*CAP
1 FrameStrobe[10] 0.000483741
2 *1130:A 0.000272591
3 *66:17 0.00166173
4 *66:11 0.00187288
5 *1130:A *109:27 0
6 *1130:A *111:23 0
7 *66:11 *67:13 8.005e-05
8 *66:11 *84:7 0
9 *66:11 *197:16 0
10 *66:11 *222:24 0.00140117
11 *66:11 *237:14 0.00150728
12 *66:17 *77:21 0
13 *66:17 *82:15 0
14 *66:17 *196:14 0
15 *66:17 *197:16 0.000437834
16 *66:17 *240:10 0.00262742
17 *66:17 *243:10 0
18 *66:17 *315:22 0.00162338
*RES
1 FrameStrobe[10] *66:11 48.4872 
2 *66:11 *66:17 39.2404 
3 *66:17 *1130:A 42.4823 
*END

*D_NET *67 0.00762971
*CONN
*P FrameStrobe[11] I
*I *1131:A I *D sg13g2_buf_1
*CAP
1 FrameStrobe[11] 0.000781887
2 *1131:A 0.000852018
3 *67:21 0.00108042
4 *67:13 0.00101029
5 *1131:A SS4BEG[10] 0
6 *1131:A SS4BEG[9] 0
7 *1131:A *1174:A 0
8 *1131:A *205:12 0.000112426
9 *1131:A *317:16 0.000112198
10 *67:13 *1133:A 7.9225e-05
11 *67:13 *68:11 0
12 *67:13 *77:11 0.00113539
13 *67:13 *82:11 0
14 *67:13 *237:14 0.00203716
15 *67:21 *77:21 0.000274223
16 *67:21 *196:14 0
17 *67:21 *316:30 7.44237e-05
18 *66:11 *67:13 8.005e-05
*RES
1 FrameStrobe[11] *67:13 31.845 
2 *67:13 *67:21 42.3999 
3 *67:21 *1131:A 47.828 
*END

*D_NET *68 0.00565757
*CONN
*P FrameStrobe[12] I
*I *1132:A I *D sg13g2_buf_1
*CAP
1 FrameStrobe[12] 0.000826885
2 *1132:A 0.000759017
3 *68:11 0.0015859
4 *1132:A *1289:A 0.00133892
5 *1132:A *79:15 0.00114685
6 *1132:A *248:10 0
7 *68:11 *1133:A 0
8 *68:11 *69:11 0
9 *68:11 *70:15 0
10 *68:11 *71:15 0
11 *68:11 *82:11 0
12 *68:11 *239:16 0
13 *67:13 *68:11 0
*RES
1 FrameStrobe[12] *68:11 47.6838 
2 *68:11 *1132:A 28.9713 
*END

*D_NET *69 0.0033557
*CONN
*P FrameStrobe[13] I
*I *1133:A I *D sg13g2_buf_1
*CAP
1 FrameStrobe[13] 0.000227724
2 *1133:A 0.0011767
3 *69:11 0.00140443
4 *1133:A *72:9 0
5 *1133:A *84:7 0
6 *69:11 *70:15 0
7 *69:11 *222:24 0.000234158
8 *69:11 *237:14 0.000233463
9 *67:13 *1133:A 7.9225e-05
10 *68:11 *1133:A 0
11 *68:11 *69:11 0
*RES
1 FrameStrobe[13] *69:11 42.5544 
2 *69:11 *1133:A 31.1343 
*END

*D_NET *70 0.00432797
*CONN
*P FrameStrobe[14] I
*I *1134:A I *D sg13g2_buf_1
*CAP
1 FrameStrobe[14] 0.000502169
2 *1134:A 0.000797515
3 *70:15 0.00129968
4 *1134:A *73:9 0
5 *1134:A *74:13 0.00114701
6 *70:15 *71:15 0.00058159
7 *70:15 *237:14 0
8 *70:15 *239:16 0
9 *68:11 *70:15 0
10 *69:11 *70:15 0
*RES
1 FrameStrobe[14] *70:15 45.4796 
2 *70:15 *1134:A 27.6735 
*END

*D_NET *71 0.00498204
*CONN
*P FrameStrobe[15] I
*I *1135:A I *D sg13g2_buf_1
*CAP
1 FrameStrobe[15] 0.00057253
2 *1135:A 0.000901247
3 *71:15 0.00147378
4 *1135:A *1139:A 0.00111467
5 *1135:A *74:13 0
6 *1135:A *251:10 0
7 *1135:A *256:16 0
8 *71:15 *72:9 0.000338232
9 *71:15 *237:14 0
10 *71:15 *239:16 0
11 *68:11 *71:15 0
12 *70:15 *71:15 0.00058159
*RES
1 FrameStrobe[15] *71:15 46.6847 
2 *71:15 *1135:A 29.5378 
*END

*D_NET *72 0.00494506
*CONN
*P FrameStrobe[16] I
*I *1136:A I *D sg13g2_buf_1
*CAP
1 FrameStrobe[16] 0.0020674
2 *1136:A 0.000171929
3 *72:9 0.00223933
4 *72:9 *73:9 0
5 *72:9 *74:13 0
6 *72:9 *250:10 0.00012816
7 *72:9 *250:16 0
8 *72:9 *263:10 0
9 *72:9 *274:22 0
10 *72:9 *285:10 0
11 *1133:A *72:9 0
12 *71:15 *72:9 0.000338232
*RES
1 FrameStrobe[16] *72:9 39.1786 
2 *72:9 *1136:A 41.6171 
*END

*D_NET *73 0.00464694
*CONN
*P FrameStrobe[17] I
*I *1137:A I *D sg13g2_buf_1
*CAP
1 FrameStrobe[17] 0.00232347
2 *1137:A 0
3 *73:9 0.00232347
4 *73:9 *74:13 0
5 *73:9 *230:18 0
6 *73:9 *241:10 0
7 *1134:A *73:9 0
8 *72:9 *73:9 0
*RES
1 FrameStrobe[17] *73:9 39.2713 
2 *73:9 *1137:A 40 
*END

*D_NET *74 0.0048304
*CONN
*P FrameStrobe[18] I
*I *1138:A I *D sg13g2_buf_1
*CAP
1 FrameStrobe[18] 0.0018417
2 *1138:A 0
3 *74:13 0.0018417
4 *74:13 *1139:A 0
5 *74:13 *75:15 0
6 *74:13 *214:18 0
7 *74:13 *250:10 0
8 *74:13 *250:16 0
9 *74:13 *251:10 0
10 *74:13 *296:8 0
11 *1134:A *74:13 0.00114701
12 *1135:A *74:13 0
13 *72:9 *74:13 0
14 *73:9 *74:13 0
*RES
1 FrameStrobe[18] *74:13 38.9211 
2 *74:13 *1138:A 40 
*END

*D_NET *75 0.00340263
*CONN
*P FrameStrobe[19] I
*I *1139:A I *D sg13g2_buf_1
*CAP
1 FrameStrobe[19] 0.000152864
2 *1139:A 0.00099112
3 *75:15 0.00114398
4 *75:15 *222:24 0
5 *1135:A *1139:A 0.00111467
6 *74:13 *1139:A 0
7 *74:13 *75:15 0
*RES
1 FrameStrobe[19] *75:15 41.8231 
2 *75:15 *1139:A 30.815 
*END

*D_NET *76 0.00827461
*CONN
*P FrameStrobe[1] I
*I *1121:A I *D sg13g2_buf_1
*CAP
1 FrameStrobe[1] 0.00178004
2 *1121:A 0
3 *76:11 0.00213959
4 *76:7 0.00391964
5 *76:7 *1173:A 0
6 *76:7 *77:11 0
7 *76:7 *78:7 0
8 *76:7 *209:9 0
9 *76:7 *215:26 0.000435337
10 *76:11 *111:9 0
11 *76:11 *215:18 0
12 *76:11 *312:10 0
13 *65:9 *76:7 0
*RES
1 FrameStrobe[1] *76:7 34.6569 
2 *76:7 *76:11 38.8902 
3 *76:11 *1121:A 20 
*END

*D_NET *77 0.00930175
*CONN
*P FrameStrobe[2] I
*I *1122:A I *D sg13g2_buf_1
*CAP
1 FrameStrobe[2] 0.000544003
2 *1122:A 0.000277841
3 *77:21 0.00221994
4 *77:11 0.0024861
5 *1122:A *1267:A 4.77425e-05
6 *1122:A *239:8 0
7 *77:11 *78:7 0
8 *77:11 *207:8 0.00113389
9 *77:21 *1162:A 0.000769475
10 *77:21 *83:23 0
11 *77:21 *83:31 0
12 *77:21 *135:17 0
13 *77:21 *196:14 0
14 *77:21 *205:12 0.000176083
15 *77:21 *219:22 0.00012596
16 *77:21 *234:22 0
17 *77:21 *234:24 0
18 *77:21 *242:10 0
19 *77:21 *295:18 0
20 *77:21 *308:22 0.000111102
21 *66:17 *77:21 0
22 *67:13 *77:11 0.00113539
23 *67:21 *77:21 0.000274223
24 *76:7 *77:11 0
*RES
1 FrameStrobe[2] *77:11 47.6529 
2 *77:11 *77:21 37.3143 
3 *77:21 *1122:A 42.3999 
*END

*D_NET *78 0.0117527
*CONN
*P FrameStrobe[3] I
*I *1123:A I *D sg13g2_buf_1
*CAP
1 FrameStrobe[3] 0.000845415
2 *1123:A 0
3 *78:13 0.00158102
4 *78:7 0.00242644
5 *78:7 *1198:A 0.000952866
6 *78:7 *79:15 0.000920569
7 *78:7 *195:10 0.000240377
8 *78:13 *230:10 0.000240767
9 *78:13 *241:10 0
10 *78:13 *244:10 0.00454528
11 *78:13 *258:8 0
12 *78:13 *308:14 0
13 *28:23 *78:13 0
14 *76:7 *78:7 0
15 *77:11 *78:7 0
*RES
1 FrameStrobe[3] *78:7 29.2494 
2 *78:7 *78:13 42.7321 
3 *78:13 *1123:A 20 
*END

*D_NET *79 0.0130389
*CONN
*P FrameStrobe[4] I
*I *1124:A I *D sg13g2_buf_1
*CAP
1 FrameStrobe[4] 0.00220119
2 *1124:A 0
3 *79:21 0.00124888
4 *79:15 0.00345006
5 *79:15 *1198:A 0
6 *79:15 *1289:A 4.76977e-05
7 *79:15 *80:11 0
8 *79:15 *81:11 0
9 *79:15 *81:17 0
10 *79:15 *125:9 0.00146271
11 *79:15 *195:10 0.000240377
12 *79:15 *230:18 6.04415e-05
13 *79:21 *125:9 0
14 *79:21 *230:10 0
15 *79:21 *230:18 0.00226014
16 *79:21 *258:8 0
17 *79:21 *259:10 0
18 *1132:A *79:15 0.00114685
19 *65:9 *79:15 0
20 *78:7 *79:15 0.000920569
*RES
1 FrameStrobe[4] *79:15 42.7012 
2 *79:15 *79:21 31.2457 
3 *79:21 *1124:A 20 
*END

*D_NET *80 0.0159925
*CONN
*P FrameStrobe[5] I
*I *1125:A I *D sg13g2_buf_1
*CAP
1 FrameStrobe[5] 0.000406574
2 *1125:A 0
3 *80:27 0.00110456
4 *80:17 0.00245194
5 *80:11 0.00175395
6 *80:11 *81:11 0
7 *80:11 *82:11 0
8 *80:11 *198:10 0.000208035
9 *80:17 *82:15 0
10 *80:17 *313:34 0
11 *80:27 *214:16 0.000182524
12 *80:27 *218:22 0.00455542
13 *80:27 *309:12 0.000289418
14 *80:27 *309:24 0.000356312
15 *80:27 *309:32 0.00450206
16 *9:25 *80:27 0.000181694
17 *79:15 *80:11 0
*RES
1 FrameStrobe[5] *80:11 43.4196 
2 *80:11 *80:17 34.9453 
3 *80:17 *80:27 45.3174 
4 *80:27 *1125:A 20 
*END

*D_NET *81 0.0195899
*CONN
*P FrameStrobe[6] I
*I *1126:A I *D sg13g2_buf_1
*CAP
1 FrameStrobe[6] 0.000998877
2 *1126:A 0
3 *81:17 0.00162801
4 *81:11 0.00262689
5 *81:11 *1289:A 0.00114629
6 *81:11 *82:11 0
7 *81:11 *198:10 0.000208255
8 *81:11 *312:16 0.00122149
9 *81:17 *125:9 0.00164155
10 *81:17 *241:10 0.00506848
11 *81:17 *308:14 0.00145908
12 *65:9 *81:17 0.00359096
13 *79:15 *81:11 0
14 *79:15 *81:17 0
15 *80:11 *81:11 0
*RES
1 FrameStrobe[6] *81:11 31.2476 
2 *81:11 *81:17 31.6725 
3 *81:17 *1126:A 40 
*END

*D_NET *82 0.0108976
*CONN
*P FrameStrobe[7] I
*I *1127:A I *D sg13g2_buf_1
*CAP
1 FrameStrobe[7] 0.000796289
2 *1127:A 0
3 *82:21 0
4 *82:17 0.00277841
5 *82:15 0.00387562
6 *82:11 0.00189349
7 *82:11 *84:7 0
8 *82:11 *197:8 0
9 *82:11 *215:32 0.000181192
10 *82:11 *239:16 0
11 *82:11 *312:16 0
12 *82:15 *313:34 0.000111863
13 *82:17 *274:12 0
14 *6:13 *82:17 0
15 *8:13 *82:17 0.00126071
16 *29:13 *82:17 0
17 *66:17 *82:15 0
18 *67:13 *82:11 0
19 *68:11 *82:11 0
20 *80:11 *82:11 0
21 *80:17 *82:15 0
22 *81:11 *82:11 0
*RES
1 FrameStrobe[7] *82:11 47.1544 
2 *82:11 *82:15 31.5669 
3 *82:15 *82:17 32.7334 
4 *82:17 *82:21 40 
5 *82:21 *1127:A 40 
*END

*D_NET *83 0.0166402
*CONN
*P FrameStrobe[8] I
*I *1128:A I *D sg13g2_buf_1
*CAP
1 FrameStrobe[8] 0.000834496
2 *1128:A 0.00100745
3 *83:31 0.0022979
4 *83:23 0.00220448
5 *83:11 0.00174853
6 *1128:A *1250:A 7.92265e-05
7 *1128:A *105:13 0.000369668
8 *1128:A *262:8 0
9 *1128:A *267:18 0
10 *83:11 *204:10 0.00118699
11 *83:11 *222:24 0
12 *83:23 SS4BEG[0] 0
13 *83:23 *1283:A 0.000208062
14 *83:23 *134:31 0
15 *83:23 *135:17 0
16 *83:23 *180:8 0.000386407
17 *83:23 *192:12 4.75151e-05
18 *83:23 *193:10 0
19 *83:23 *302:16 0
20 *83:23 *306:42 0.000649654
21 *83:31 *1162:A 0
22 *83:31 *115:9 0.00162239
23 *83:31 *130:25 0
24 *83:31 *234:22 0.00119623
25 *83:31 *238:12 0.000193717
26 *83:31 *238:16 0.00242632
27 *83:31 *288:8 0.000181192
28 *3:21 *1128:A 0
29 *77:21 *83:23 0
30 *77:21 *83:31 0
*RES
1 FrameStrobe[8] *83:11 49.9086 
2 *83:11 *83:23 49.4657 
3 *83:23 *83:31 39.5597 
4 *83:31 *1128:A 49.3215 
*END

*D_NET *84 0.0121147
*CONN
*P FrameStrobe[9] I
*I *1129:A I *D sg13g2_buf_1
*CAP
1 FrameStrobe[9] 0.00170383
2 *1129:A 0
3 *84:11 0.00209679
4 *84:7 0.00380062
5 *84:7 *1289:A 0
6 *84:7 *312:16 0
7 *84:11 *214:18 0
8 *84:11 *223:10 0
9 *84:11 *309:32 0.0045135
10 *1133:A *84:7 0
11 *66:11 *84:7 0
12 *82:11 *84:7 0
*RES
1 FrameStrobe[9] *84:7 35.2785 
2 *84:7 *84:11 43.8342 
3 *84:11 *1129:A 20 
*END

*D_NET *85 0.000614835
*CONN
*P FrameStrobe_O[0] O
*I *1225:X O *D sg13g2_buf_1
*CAP
1 FrameStrobe_O[0] 0.000307417
2 *1225:X 0.000307417
*RES
1 *1225:X FrameStrobe_O[0] 23.1106 
*END

*D_NET *86 0.000522747
*CONN
*P FrameStrobe_O[10] O
*I *1226:X O *D sg13g2_buf_1
*CAP
1 FrameStrobe_O[10] 0.000261374
2 *1226:X 0.000261374
*RES
1 *1226:X FrameStrobe_O[10] 23.1106 
*END

*D_NET *87 0.000522747
*CONN
*P FrameStrobe_O[11] O
*I *1227:X O *D sg13g2_buf_1
*CAP
1 FrameStrobe_O[11] 0.000261374
2 *1227:X 0.000261374
*RES
1 *1227:X FrameStrobe_O[11] 23.1106 
*END

*D_NET *88 0.000522747
*CONN
*P FrameStrobe_O[12] O
*I *1228:X O *D sg13g2_buf_1
*CAP
1 FrameStrobe_O[12] 0.000261374
2 *1228:X 0.000261374
*RES
1 *1228:X FrameStrobe_O[12] 23.1106 
*END

*D_NET *89 0.000522747
*CONN
*P FrameStrobe_O[13] O
*I *1229:X O *D sg13g2_buf_1
*CAP
1 FrameStrobe_O[13] 0.000261374
2 *1229:X 0.000261374
*RES
1 *1229:X FrameStrobe_O[13] 23.1106 
*END

*D_NET *90 0.000543482
*CONN
*P FrameStrobe_O[14] O
*I *1230:X O *D sg13g2_buf_1
*CAP
1 FrameStrobe_O[14] 0.000271741
2 *1230:X 0.000271741
*RES
1 *1230:X FrameStrobe_O[14] 23.1106 
*END

*D_NET *91 0.000522747
*CONN
*P FrameStrobe_O[15] O
*I *1231:X O *D sg13g2_buf_1
*CAP
1 FrameStrobe_O[15] 0.000261374
2 *1231:X 0.000261374
*RES
1 *1231:X FrameStrobe_O[15] 23.1106 
*END

*D_NET *92 0.000522747
*CONN
*P FrameStrobe_O[16] O
*I *1233:X O *D sg13g2_buf_1
*CAP
1 FrameStrobe_O[16] 0.000261374
2 *1233:X 0.000261374
*RES
1 *1233:X FrameStrobe_O[16] 23.1106 
*END

*D_NET *93 0.000522747
*CONN
*P FrameStrobe_O[17] O
*I *1234:X O *D sg13g2_buf_1
*CAP
1 FrameStrobe_O[17] 0.000261374
2 *1234:X 0.000261374
*RES
1 *1234:X FrameStrobe_O[17] 23.1106 
*END

*D_NET *94 0.000522747
*CONN
*P FrameStrobe_O[18] O
*I *1235:X O *D sg13g2_buf_1
*CAP
1 FrameStrobe_O[18] 0.000261374
2 *1235:X 0.000261374
*RES
1 *1235:X FrameStrobe_O[18] 23.1106 
*END

*D_NET *95 0.000862651
*CONN
*P FrameStrobe_O[19] O
*I *1236:X O *D sg13g2_buf_1
*CAP
1 FrameStrobe_O[19] 0.000261534
2 *1236:X 0.000261534
3 FrameData_O[31] FrameStrobe_O[19] 0.000339583
*RES
1 *1236:X FrameStrobe_O[19] 23.1106 
*END

*D_NET *96 0.000602567
*CONN
*P FrameStrobe_O[1] O
*I *1237:X O *D sg13g2_buf_1
*CAP
1 FrameStrobe_O[1] 0.000301284
2 *1237:X 0.000301284
*RES
1 *1237:X FrameStrobe_O[1] 23.1106 
*END

*D_NET *97 0.000602567
*CONN
*P FrameStrobe_O[2] O
*I *1238:X O *D sg13g2_buf_1
*CAP
1 FrameStrobe_O[2] 0.000301284
2 *1238:X 0.000301284
*RES
1 *1238:X FrameStrobe_O[2] 23.1106 
*END

*D_NET *98 0.000602567
*CONN
*P FrameStrobe_O[3] O
*I *1239:X O *D sg13g2_buf_1
*CAP
1 FrameStrobe_O[3] 0.000301284
2 *1239:X 0.000301284
*RES
1 *1239:X FrameStrobe_O[3] 23.1106 
*END

*D_NET *99 0.000602567
*CONN
*P FrameStrobe_O[4] O
*I *1240:X O *D sg13g2_buf_1
*CAP
1 FrameStrobe_O[4] 0.000301284
2 *1240:X 0.000301284
*RES
1 *1240:X FrameStrobe_O[4] 23.1106 
*END

*D_NET *100 0.000602567
*CONN
*P FrameStrobe_O[5] O
*I *1241:X O *D sg13g2_buf_1
*CAP
1 FrameStrobe_O[5] 0.000301284
2 *1241:X 0.000301284
*RES
1 *1241:X FrameStrobe_O[5] 23.1106 
*END

*D_NET *101 0.000602567
*CONN
*P FrameStrobe_O[6] O
*I *1242:X O *D sg13g2_buf_1
*CAP
1 FrameStrobe_O[6] 0.000301284
2 *1242:X 0.000301284
*RES
1 *1242:X FrameStrobe_O[6] 23.1106 
*END

*D_NET *102 0.000762129
*CONN
*P FrameStrobe_O[7] O
*I *1244:X O *D sg13g2_buf_1
*CAP
1 FrameStrobe_O[7] 0.000381064
2 *1244:X 0.000381064
*RES
1 *1244:X FrameStrobe_O[7] 24.3054 
*END

*D_NET *103 0.000602567
*CONN
*P FrameStrobe_O[8] O
*I *1245:X O *D sg13g2_buf_1
*CAP
1 FrameStrobe_O[8] 0.000301284
2 *1245:X 0.000301284
*RES
1 *1245:X FrameStrobe_O[8] 23.1106 
*END

*D_NET *104 0.000555792
*CONN
*P FrameStrobe_O[9] O
*I *1246:X O *D sg13g2_buf_1
*CAP
1 FrameStrobe_O[9] 0.000277896
2 *1246:X 0.000277896
3 *1118:A FrameStrobe_O[9] 0
4 *1119:A FrameStrobe_O[9] 0
*RES
1 *1246:X FrameStrobe_O[9] 23.1106 
*END

*D_NET *105 0.0124813
*CONN
*P N1END[0] I
*I *1143:A I *D sg13g2_buf_1
*CAP
1 N1END[0] 0.00103772
2 *1143:A 0
3 *105:13 0.00164378
4 *105:7 0.0026815
5 *105:7 *106:7 0
6 *105:13 *106:13 0.00475913
7 *105:13 *134:9 0.0019895
8 *105:13 *315:22 0
9 *1128:A *105:13 0.000369668
10 *27:13 *105:13 0
11 *31:17 *105:13 0
*RES
1 N1END[0] *105:7 29.2494 
2 *105:7 *105:13 46.3165 
3 *105:13 *1143:A 20 
*END

*D_NET *106 0.0126237
*CONN
*P N1END[1] I
*I *1142:A I *D sg13g2_buf_1
*CAP
1 N1END[1] 0.00102976
2 *1142:A 0
3 *106:13 0.00140407
4 *106:7 0.00243383
5 *106:7 *107:13 0
6 *106:7 *108:9 0
7 *106:7 *117:13 0
8 *106:7 *119:7 0
9 *106:13 *129:13 0
10 *106:13 *215:14 0
11 *106:13 *315:22 0
12 *2:5 *106:13 0.00299688
13 *32:5 *106:13 0
14 *105:7 *106:7 0
15 *105:13 *106:13 0.00475913
*RES
1 N1END[1] *106:7 29.0331 
2 *106:7 *106:13 44.3698 
3 *106:13 *1142:A 20 
*END

*D_NET *107 0.00953321
*CONN
*P N1END[2] I
*I *1141:A I *D sg13g2_buf_1
*CAP
1 N1END[2] 0.000959581
2 *1141:A 0.000170332
3 *107:13 0.00112991
4 *1141:A *141:13 0.000305735
5 *1141:A *148:11 0.000305735
6 *107:13 *108:9 0
7 *107:13 *118:9 0.0021442
8 *107:13 *138:9 0.00102704
9 *107:13 *150:15 0.00108048
10 *12:5 *107:13 0.00241019
11 *106:7 *107:13 0
*RES
1 N1END[2] *107:13 38.3958 
2 *107:13 *1141:A 42.0497 
*END

*D_NET *108 0.00716968
*CONN
*P N1END[3] I
*I *1140:A I *D sg13g2_buf_1
*CAP
1 N1END[3] 0.00128728
2 *1140:A 0.000109363
3 *108:9 0.00139665
4 *1140:A *130:15 0.000176252
5 *1140:A *131:11 7.92265e-05
6 *108:9 *113:11 0
7 *108:9 *116:13 0.000708525
8 *108:9 *117:13 0
9 *108:9 *122:13 0.00273334
10 *108:9 *140:17 0.000603915
11 *12:5 *108:9 0
12 *23:9 *108:9 7.51285e-05
13 *26:5 *108:9 0
14 *106:7 *108:9 0
15 *107:13 *108:9 0
*RES
1 N1END[3] *108:9 37.5718 
2 *108:9 *1140:A 41.1845 
*END

*D_NET *109 0.0162064
*CONN
*P N2END[0] I
*I *1159:A I *D sg13g2_buf_1
*CAP
1 N2END[0] 0.00267502
2 *1159:A 0
3 *109:27 0.00173814
4 *109:19 0.00230827
5 *109:9 0.00324515
6 *109:9 *110:9 0
7 *109:9 *111:7 0
8 *109:9 *124:9 0
9 *109:9 *312:10 0.000445763
10 *109:19 *133:11 0.00130681
11 *109:19 *139:11 0
12 *109:19 *218:8 0
13 *109:19 *312:10 0
14 *109:27 *1267:A 1.54008e-05
15 *109:27 *133:11 0
16 *109:27 *133:19 0.0031127
17 *109:27 *246:10 0
18 *109:27 *258:8 0
19 *109:27 *285:10 0.00135916
20 *109:27 *312:10 0
21 *1130:A *109:27 0
22 *8:5 *109:9 0
23 *8:5 *109:19 0
24 *9:7 *109:9 0
*RES
1 N2END[0] *109:9 43.1956 
2 *109:9 *109:19 47.5396 
3 *109:19 *109:27 40.9591 
4 *109:27 *1159:A 20 
*END

*D_NET *110 0.0120165
*CONN
*P N2END[1] I
*I *1158:A I *D sg13g2_buf_1
*CAP
1 N2END[1] 0.00133277
2 *1158:A 0
3 *110:25 0
4 *110:21 0.00179058
5 *110:15 0.00188001
6 *110:9 0.00142221
7 *110:9 *111:7 0
8 *110:9 *117:13 0
9 *110:9 *122:13 0
10 *110:9 *311:12 0.000710633
11 *110:21 *126:15 0.00480125
12 *110:21 *131:19 0
13 *110:21 *213:18 7.90769e-05
14 *110:21 *217:14 0
15 *110:21 *217:18 0
16 *110:21 *311:24 0
17 *28:5 *110:9 0
18 *109:9 *110:9 0
*RES
1 N2END[1] *110:9 32.3188 
2 *110:9 *110:15 40.7519 
3 *110:15 *110:21 43.7518 
4 *110:21 *110:25 40 
5 *110:25 *1158:A 20 
*END

*D_NET *111 0.0186725
*CONN
*P N2END[2] I
*I *1157:A I *D sg13g2_buf_1
*CAP
1 N2END[2] 0.00165951
2 *1157:A 0
3 *111:23 0.00159177
4 *111:9 0.00408448
5 *111:7 0.00415221
6 *111:7 *112:13 0
7 *111:7 *113:11 0
8 *111:7 *115:9 0
9 *111:9 *135:13 0
10 *111:9 *215:18 0.00401868
11 *111:9 *261:16 0
12 *111:9 *265:8 0.000395896
13 *111:9 *312:10 0
14 *111:23 S4BEG[5] 0
15 *111:23 S4BEG[6] 0
16 *111:23 *1167:A 0
17 *111:23 *1277:A 0
18 *111:23 *1281:A 0.000240569
19 *111:23 *246:10 0
20 *1130:A *111:23 0
21 *7:15 *111:9 0.00252934
22 *7:21 *111:9 0
23 *8:21 *111:9 0
24 *11:5 *111:9 0
25 *76:11 *111:9 0
26 *109:9 *111:7 0
27 *110:9 *111:7 0
*RES
1 N2END[2] *111:7 33.6426 
2 *111:7 *111:9 32.4862 
3 *111:9 *111:23 34.4303 
4 *111:23 *1157:A 20 
*END

*D_NET *112 0.00933671
*CONN
*P N2END[3] I
*I *1156:A I *D sg13g2_buf_1
*CAP
1 N2END[3] 0.000598867
2 *1156:A 5.10268e-05
3 *112:25 5.10268e-05
4 *112:21 0.00236651
5 *112:13 0.00296538
6 *1156:A S4BEG[4] 8.00842e-05
7 *112:13 *113:11 0.000765374
8 *112:13 *114:15 0
9 *112:13 *116:13 0
10 *112:21 *113:15 0
11 *112:21 *114:19 0.00142791
12 *112:21 *118:23 0
13 *112:21 *126:15 0
14 *112:21 *127:15 0
15 *112:21 *222:20 0
16 *12:5 *112:13 0.00103053
17 *111:7 *112:13 0
*RES
1 N2END[3] *112:13 47.6632 
2 *112:13 *112:21 45.7397 
3 *112:21 *112:25 40 
4 *112:25 *1156:A 40.5356 
*END

*D_NET *113 0.0103594
*CONN
*P N2END[4] I
*I *1155:A I *D sg13g2_buf_1
*CAP
1 N2END[4] 0.000379402
2 *1155:A 0.000549537
3 *113:25 0.00103602
4 *113:15 0.00219519
5 *113:11 0.00208812
6 *1155:A S4BEG[1] 0.000240111
7 *1155:A S4BEG[2] 0.000369477
8 *1155:A *1266:A 1.54008e-05
9 *1155:A *127:29 0.00113577
10 *1155:A *138:9 0.000552108
11 *113:11 *114:15 0
12 *113:11 *115:9 0
13 *113:11 *116:13 0.000446352
14 *113:15 *118:23 0
15 *113:15 *127:15 0
16 *113:25 *127:29 8.89261e-05
17 *113:25 *138:9 0
18 *113:25 *167:10 0.000497577
19 *108:9 *113:11 0
20 *111:7 *113:11 0
21 *112:13 *113:11 0.000765374
22 *112:21 *113:15 0
*RES
1 N2END[4] *113:11 44.8416 
2 *113:11 *113:15 36.171 
3 *113:15 *113:25 45.0676 
4 *113:25 *1155:A 48.0237 
*END

*D_NET *114 0.0111696
*CONN
*P N2END[5] I
*I *1154:A I *D sg13g2_buf_1
*CAP
1 N2END[5] 0.000871883
2 *1154:A 0
3 *114:23 0
4 *114:19 0.00134802
5 *114:15 0.0022199
6 *114:15 *126:11 0.000435039
7 *114:15 *149:11 0.0007112
8 *114:19 *126:15 0.00415564
9 *112:13 *114:15 0
10 *112:21 *114:19 0.00142791
11 *113:11 *114:15 0
*RES
1 N2END[5] *114:15 49.4657 
2 *114:15 *114:19 39.3846 
3 *114:19 *114:23 40 
4 *114:23 *1154:A 40 
*END

*D_NET *115 0.00981814
*CONN
*P N2END[6] I
*I *1153:A I *D sg13g2_buf_1
*CAP
1 N2END[6] 0.00268518
2 *1153:A 0.000159905
3 *115:9 0.00284508
4 *1153:A *234:12 0.000112541
5 *1153:A *238:12 0
6 *115:9 *1162:A 0
7 *115:9 *119:11 0
8 *115:9 *120:15 0
9 *115:9 *121:9 0
10 *115:9 *125:7 0
11 *115:9 *129:23 0
12 *115:9 *130:25 0
13 *115:9 *267:18 0.00200151
14 *115:9 *313:12 0.000391531
15 *83:31 *115:9 0.00162239
16 *111:7 *115:9 0
17 *113:11 *115:9 0
*RES
1 N2END[6] *115:9 48.6031 
2 *115:9 *1153:A 41.0312 
*END

*D_NET *116 0.00885847
*CONN
*P N2END[7] I
*I *1152:A I *D sg13g2_buf_1
*CAP
1 N2END[7] 0.000517339
2 *1152:A 0
3 *116:21 0.000981214
4 *116:13 0.00149855
5 *116:13 *136:13 0.000175618
6 *116:13 *137:13 0.000175809
7 *116:21 *118:17 0
8 *116:21 *118:31 0.00129544
9 *116:21 *140:17 0
10 *116:21 *143:13 0
11 *116:21 *144:25 0
12 *116:21 *146:17 0
13 *116:21 *148:11 0.00123801
14 *116:21 *151:17 0
15 *116:21 *156:13 0.000550155
16 *116:21 *165:10 0
17 *116:21 *268:8 0.000542263
18 *116:21 *271:10 0.000388074
19 *116:21 *278:8 0.000341119
20 *108:9 *116:13 0.000708525
21 *112:13 *116:13 0
22 *113:11 *116:13 0.000446352
*RES
1 N2END[7] *116:13 46.18 
2 *116:13 *116:21 34.8629 
3 *116:21 *1152:A 40 
*END

*D_NET *117 0.010889
*CONN
*P N2MID[0] I
*I *1151:A I *D sg13g2_buf_1
*CAP
1 N2MID[0] 0.00254281
2 *1151:A 0
3 *117:13 0.00254281
4 *117:13 *118:9 0
5 *117:13 *119:7 0
6 *117:13 *123:9 0.00277776
7 *117:13 *142:15 0.000871029
8 *117:13 *153:21 0
9 *117:13 *155:13 0.000887772
10 *117:13 *272:8 0.000554492
11 *117:13 *306:20 0.000712343
12 *117:13 *316:18 0
13 *28:5 *117:13 0
14 *29:5 *117:13 0
15 *106:7 *117:13 0
16 *108:9 *117:13 0
17 *110:9 *117:13 0
*RES
1 N2MID[0] *117:13 49.9215 
2 *117:13 *1151:A 40 
*END

*D_NET *118 0.0102255
*CONN
*P N2MID[1] I
*I *1150:A I *D sg13g2_buf_1
*CAP
1 N2MID[1] 0.000865921
2 *1150:A 6.608e-05
3 *118:31 0.000504223
4 *118:23 0.000679089
5 *118:17 0.000694528
6 *118:9 0.0013195
7 *1150:A *146:17 4.76977e-05
8 *118:9 *119:7 0
9 *118:9 *138:9 7.51285e-05
10 *118:9 *149:11 0.000552415
11 *118:17 *122:13 0.000713862
12 *118:17 *138:9 4.77425e-05
13 *118:17 *139:11 0.000272605
14 *118:17 *150:15 0
15 *118:17 *156:13 0.000182517
16 *118:31 *156:13 0.000764568
17 *107:13 *118:9 0.0021442
18 *112:21 *118:23 0
19 *113:15 *118:23 0
20 *116:21 *118:17 0
21 *116:21 *118:31 0.00129544
22 *117:13 *118:9 0
*RES
1 N2MID[1] *118:9 31.8244 
2 *118:9 *118:17 45.15 
3 *118:17 *118:23 42.0806 
4 *118:23 *118:31 46.5714 
5 *118:31 *1150:A 40.6695 
*END

*D_NET *119 0.0130046
*CONN
*P N2MID[2] I
*I *1149:A I *D sg13g2_buf_1
*CAP
1 N2MID[2] 0.000788152
2 *1149:A 0
3 *119:11 0.00147522
4 *119:7 0.00226337
5 *119:7 *120:7 0
6 *119:11 *120:15 0.00506737
7 *119:11 *124:9 0
8 *119:11 *129:23 0.00034112
9 *119:11 *269:8 0.00060761
10 *31:5 *119:11 0.00246172
11 *106:7 *119:7 0
12 *115:9 *119:11 0
13 *117:13 *119:7 0
14 *118:9 *119:7 0
*RES
1 N2MID[2] *119:7 26.8701 
2 *119:7 *119:11 44.823 
3 *119:11 *1149:A 20 
*END

*D_NET *120 0.0106945
*CONN
*P N2MID[3] I
*I *1148:A I *D sg13g2_buf_1
*CAP
1 N2MID[3] 0.000834636
2 *1148:A 0
3 *120:15 0.00197894
4 *120:7 0.00281358
5 *120:7 *121:9 0
6 *120:7 *124:9 0
7 *120:15 *121:9 0
8 *120:15 *267:18 0
9 *120:15 *313:12 0
10 *1088:A *120:15 0
11 *30:5 *120:15 0
12 *115:9 *120:15 0
13 *119:7 *120:7 0
14 *119:11 *120:15 0.00506737
*RES
1 N2MID[3] *120:7 26.6538 
2 *120:7 *120:15 44.2565 
3 *120:15 *1148:A 20 
*END

*D_NET *121 0.008574
*CONN
*P N2MID[4] I
*I *1147:A I *D sg13g2_buf_1
*CAP
1 N2MID[4] 0.00249234
2 *1147:A 0.000102531
3 *121:9 0.00259487
4 *1147:A *306:20 4.77425e-05
5 *121:9 *122:13 0
6 *121:9 *123:9 0
7 *121:9 *130:25 0.00114118
8 *29:5 *121:9 0.00219533
9 *30:5 *121:9 0
10 *115:9 *121:9 0
11 *120:7 *121:9 0
12 *120:15 *121:9 0
*RES
1 N2MID[4] *121:9 45.2041 
2 *121:9 *1147:A 40.9682 
*END

*D_NET *122 0.00713066
*CONN
*P N2MID[5] I
*I *1146:A I *D sg13g2_buf_1
*CAP
1 N2MID[5] 0.00132787
2 *1146:A 8.30525e-05
3 *122:13 0.00141092
4 *122:13 *123:9 0
5 *122:13 *140:17 0
6 *122:13 *145:13 0.000236557
7 *122:13 *148:11 0
8 *122:13 *156:13 0.000549924
9 *122:13 *311:12 7.51285e-05
10 *12:15 *122:13 0
11 *108:9 *122:13 0.00273334
12 *110:9 *122:13 0
13 *118:17 *122:13 0.000713862
14 *121:9 *122:13 0
*RES
1 N2MID[5] *122:13 38.2104 
2 *122:13 *1146:A 40.7519 
*END

*D_NET *123 0.00982833
*CONN
*P N2MID[6] I
*I *1145:A I *D sg13g2_buf_1
*CAP
1 N2MID[6] 0.00158126
2 *1145:A 5.30606e-05
3 *123:9 0.00163432
4 *1145:A *142:15 4.77425e-05
5 *123:9 *124:9 0
6 *123:9 *130:25 0.000929138
7 *123:9 *142:15 0.000822496
8 *29:5 *123:9 0.00198254
9 *117:13 *123:9 0.00277776
10 *121:9 *123:9 0
11 *122:13 *123:9 0
*RES
1 N2MID[6] *123:9 42.7939 
2 *123:9 *1145:A 40.5356 
*END

*D_NET *124 0.00974743
*CONN
*P N2MID[7] I
*I *1144:A I *D sg13g2_buf_1
*CAP
1 N2MID[7] 0.0024316
2 *1144:A 6.06591e-05
3 *124:9 0.00249226
4 *124:9 *269:8 0.000501546
5 *124:9 *310:16 0.00129746
6 *124:9 *317:16 0.00103323
7 *31:5 *124:9 0.00193067
8 *32:5 *124:9 0
9 *109:9 *124:9 0
10 *119:11 *124:9 0
11 *120:7 *124:9 0
12 *123:9 *124:9 0
*RES
1 N2MID[7] *124:9 47.1817 
2 *124:9 *1144:A 40.5356 
*END

*D_NET *125 0.0198348
*CONN
*P N4END[0] I
*I *1175:A I *D sg13g2_buf_1
*CAP
1 N4END[0] 0.00131569
2 *1175:A 0.000756776
3 *125:9 0.00390079
4 *125:7 0.00445971
5 *1175:A *1173:A 1.54008e-05
6 *1175:A *1174:A 0
7 *1175:A *208:10 0
8 *125:7 *132:7 0
9 *125:9 *230:18 0
10 *125:9 *263:10 0
11 *125:9 *308:14 0
12 *2:17 *125:9 0
13 *3:13 *125:9 0.00316677
14 *5:5 *125:9 0
15 *27:13 *125:9 0
16 *65:9 *125:9 0.00311541
17 *79:15 *125:9 0.00146271
18 *79:21 *125:9 0
19 *81:17 *125:9 0.00164155
20 *115:9 *125:7 0
*RES
1 N4END[0] *125:7 30.9798 
2 *125:7 *125:9 39.9022 
3 *125:9 *1175:A 46.3757 
*END

*D_NET *126 0.0141421
*CONN
*P N4END[10] I
*I *1165:A I *D sg13g2_buf_1
*CAP
1 N4END[10] 0.000352616
2 *1165:A 0
3 *126:23 0.000337237
4 *126:15 0.00153456
5 *126:11 0.00154994
6 *126:11 *127:11 0
7 *126:11 *131:11 0
8 *126:15 *213:20 0.000666931
9 *126:15 *217:18 0
10 *126:23 *187:8 2.16289e-05
11 *126:23 *302:16 0.000287296
12 *126:23 *316:18 0
13 *110:21 *126:15 0.00480125
14 *112:21 *126:15 0
15 *114:15 *126:11 0.000435039
16 *114:19 *126:15 0.00415564
*RES
1 N4END[10] *126:11 43.296 
2 *126:11 *126:15 45.5646 
3 *126:15 *126:23 43.2033 
4 *126:23 *1165:A 40 
*END

*D_NET *127 0.00923582
*CONN
*P N4END[11] I
*I *1164:A I *D sg13g2_buf_1
*CAP
1 N4END[11] 0.000134336
2 *1164:A 0.000808045
3 *127:29 0.00140978
4 *127:15 0.00224856
5 *127:11 0.00178116
6 *1164:A S4BEG[15] 0.000369477
7 *1164:A SS4BEG[0] 0.000369477
8 *1164:A *190:24 0
9 *1164:A *191:10 0.000814589
10 *1164:A *237:14 0
11 *127:11 *128:9 0
12 *127:15 *128:13 0
13 *127:15 *222:20 7.57097e-05
14 *1155:A *127:29 0.00113577
15 *112:21 *127:15 0
16 *113:15 *127:15 0
17 *113:25 *127:29 8.89261e-05
18 *126:11 *127:11 0
*RES
1 N4END[11] *127:11 41.133 
2 *127:11 *127:15 35.4294 
3 *127:15 *127:29 47.7456 
4 *127:29 *1164:A 49.2597 
*END

*D_NET *128 0.00509367
*CONN
*P N4END[12] I
*I *1163:A I *D sg13g2_buf_1
*CAP
1 N4END[12] 2.01846e-05
2 *1163:A 0
3 *128:19 0.000289493
4 *128:13 0.00252665
5 *128:9 0.00225734
6 *128:9 *129:13 0
7 *128:13 *222:20 0
8 *128:19 *180:18 0
9 *127:11 *128:9 0
10 *127:15 *128:13 0
*RES
1 N4END[12] *128:9 40.1648 
2 *128:9 *128:13 46.5534 
3 *128:13 *128:19 42.9149 
4 *128:19 *1163:A 40 
*END

*D_NET *129 0.0134465
*CONN
*P N4END[13] I
*I *1162:A I *D sg13g2_buf_1
*CAP
1 N4END[13] 0.00161227
2 *1162:A 0.000491957
3 *129:23 0.00109823
4 *129:13 0.00221854
5 *1162:A *136:33 0
6 *1162:A *242:10 0.00151211
7 *1162:A *317:16 0
8 *129:13 *130:15 0
9 *129:13 *154:13 0.000240377
10 *129:13 *218:8 0
11 *129:13 *308:8 0.000755197
12 *129:13 *315:22 0.00156896
13 *129:23 S1BEG[0] 0.000175503
14 *129:23 *267:18 0.000175693
15 *129:23 *317:16 0
16 *32:5 *129:13 0.0024871
17 *77:21 *1162:A 0.000769475
18 *83:31 *1162:A 0
19 *106:13 *129:13 0
20 *115:9 *1162:A 0
21 *115:9 *129:23 0
22 *119:11 *129:23 0.00034112
23 *128:9 *129:13 0
*RES
1 N4END[13] *129:13 41.3313 
2 *129:13 *129:23 46.1491 
3 *129:23 *1162:A 47.9207 
*END

*D_NET *130 0.0107236
*CONN
*P N4END[14] I
*I *1161:A I *D sg13g2_buf_1
*CAP
1 N4END[14] 0.000718598
2 *1161:A 0
3 *130:25 0.00187972
4 *130:15 0.00259832
5 *130:15 *131:11 0
6 *130:15 *141:13 0.00023103
7 *130:15 *142:15 4.77425e-05
8 *130:15 *148:11 0.000338245
9 *130:15 *151:17 0
10 *130:15 *216:16 1.54008e-05
11 *130:15 *267:10 0
12 *130:25 *184:8 0
13 *130:25 *187:8 0
14 *130:25 *213:8 0
15 *130:25 *234:12 0
16 *130:25 *238:12 0
17 *130:25 *239:16 0.00135379
18 *130:25 *306:20 0
19 *130:25 *306:26 0.00129419
20 *1140:A *130:15 0.000176252
21 *83:31 *130:25 0
22 *115:9 *130:25 0
23 *121:9 *130:25 0.00114118
24 *123:9 *130:25 0.000929138
25 *129:13 *130:15 0
*RES
1 N4END[14] *130:15 47.1482 
2 *130:15 *130:25 42.5673 
3 *130:25 *1161:A 40 
*END

*D_NET *131 0.00849516
*CONN
*P N4END[15] I
*I *1160:A I *D sg13g2_buf_1
*CAP
1 N4END[15] 0.000570143
2 *1160:A 0
3 *131:23 0
4 *131:19 0.00152582
5 *131:11 0.00209596
6 *131:11 *141:13 0
7 *131:19 *217:14 0.000673002
8 *131:19 *217:18 0
9 *131:19 *311:24 0.00355101
10 *1140:A *131:11 7.92265e-05
11 *110:21 *131:19 0
12 *126:11 *131:11 0
13 *130:15 *131:11 0
*RES
1 N4END[15] *131:11 44.5938 
2 *131:11 *131:19 40.5485 
3 *131:19 *131:23 40 
4 *131:23 *1160:A 40 
*END

*D_NET *132 0.0172527
*CONN
*P N4END[1] I
*I *1174:A I *D sg13g2_buf_1
*CAP
1 N4END[1] 0.00165525
2 *1174:A 0.00093389
3 *132:13 0.00462322
4 *132:7 0.00534459
5 *1174:A *1173:A 0
6 *1174:A *208:10 0.000240331
7 *1174:A *247:10 0
8 *132:7 *133:11 0
9 *132:13 *133:11 0.00226273
10 *132:13 *133:19 0.00195767
11 *132:13 *209:9 0
12 *132:13 *220:8 0
13 *132:13 *247:10 0
14 *132:13 *248:10 0.000235055
15 *132:13 *263:10 0
16 *1131:A *1174:A 0
17 *1175:A *1174:A 0
18 *1:13 *132:13 0
19 *2:17 *132:13 0
20 *125:7 *132:7 0
*RES
1 N4END[1] *132:7 32.9265 
2 *132:7 *132:13 39.0576 
3 *132:13 *1174:A 45.3406 
*END

*D_NET *133 0.023091
*CONN
*P N4END[2] I
*I *1173:A I *D sg13g2_buf_1
*CAP
1 N4END[2] 0.00217334
2 *1173:A 0.00127855
3 *133:19 0.00351613
4 *133:11 0.00441092
5 *1173:A SS4BEG[15] 0
6 *1173:A *206:14 0.000143519
7 *1173:A *209:9 0
8 *1173:A *310:28 0.000176511
9 *133:11 *1189:A 0.000402458
10 *133:11 *134:9 0
11 *133:11 *135:11 0
12 *133:19 *248:10 0
13 *133:19 *285:10 0.00233428
14 *1174:A *1173:A 0
15 *1175:A *1173:A 1.54008e-05
16 *8:5 *133:11 0
17 *12:25 *133:11 0
18 *76:7 *1173:A 0
19 *109:19 *133:11 0.00130681
20 *109:27 *133:11 0
21 *109:27 *133:19 0.0031127
22 *132:7 *133:11 0
23 *132:13 *133:11 0.00226273
24 *132:13 *133:19 0.00195767
*RES
1 N4END[2] *133:11 43.9475 
2 *133:11 *133:19 49.4477 
3 *133:19 *1173:A 31.5051 
*END

*D_NET *134 0.0146054
*CONN
*P N4END[3] I
*I *1172:A I *D sg13g2_buf_1
*CAP
1 N4END[3] 0.00186669
2 *1172:A 0
3 *134:31 0.00119188
4 *134:19 0.003486
5 *134:15 0.00233844
6 *134:9 0.00191102
7 *134:9 *1189:A 0.000402458
8 *134:9 *135:11 0
9 *134:19 *136:21 0
10 *134:19 *137:17 0
11 *134:19 *252:14 0
12 *134:31 *135:17 0
13 *134:31 *135:23 0.000338218
14 *134:31 *137:23 0
15 *134:31 *179:8 0
16 *134:31 *183:14 0
17 *134:31 *206:14 0.00044333
18 *134:31 *292:12 0
19 *134:31 *293:10 7.48466e-05
20 *12:25 *134:9 0.000563057
21 *12:33 *134:9 0
22 *28:17 *134:19 0
23 *30:17 *134:19 0
24 *31:17 *134:9 0
25 *83:23 *134:31 0
26 *105:13 *134:9 0.0019895
27 *133:11 *134:9 0
*RES
1 N4END[3] *134:9 38.7151 
2 *134:9 *134:15 40.3193 
3 *134:15 *134:19 45.0702 
4 *134:19 *134:31 31.3609 
5 *134:31 *1172:A 40 
*END

*D_NET *135 0.0249244
*CONN
*P N4END[4] I
*I *1171:A I *D sg13g2_buf_1
*CAP
1 N4END[4] 0.00184526
2 *1171:A 0
3 *135:23 7.59071e-05
4 *135:17 0.00154145
5 *135:13 0.00330786
6 *135:11 0.00368758
7 *135:11 *1191:A 0.000175798
8 *135:11 *136:13 0
9 *135:11 *312:6 0
10 *135:13 *214:16 0
11 *135:13 *214:18 0.00349112
12 *135:13 *215:18 0.00566292
13 *135:13 *261:16 0.00351383
14 *135:17 *308:22 0
15 *135:23 *292:12 0.000335047
16 *12:15 *135:11 0.000240377
17 *12:25 *135:11 0.000709064
18 *77:21 *135:17 0
19 *83:23 *135:17 0
20 *111:9 *135:13 0
21 *133:11 *135:11 0
22 *134:9 *135:11 0
23 *134:31 *135:17 0
24 *134:31 *135:23 0.000338218
*RES
1 N4END[4] *135:11 36.1916 
2 *135:11 *135:13 34.711 
3 *135:13 *135:17 32.8647 
4 *135:17 *135:23 41.5862 
5 *135:23 *1171:A 20 
*END

*D_NET *136 0.0147942
*CONN
*P N4END[5] I
*I *1170:A I *D sg13g2_buf_1
*CAP
1 N4END[5] 0.000885666
2 *1170:A 0
3 *136:33 0.000605992
4 *136:27 0.000784369
5 *136:21 0.00208502
6 *136:17 0.00190664
7 *136:13 0.000885666
8 *136:13 *137:13 0.00072353
9 *136:13 *139:11 0
10 *136:13 *141:13 0.000234224
11 *136:13 *148:11 0.000234311
12 *136:13 *310:8 0.000659625
13 *136:13 *312:6 1.54008e-05
14 *136:21 *137:17 0
15 *136:33 *242:10 0.00257734
16 *136:33 *317:16 0.00273408
17 *1162:A *136:33 0
18 *12:15 *136:13 0.000240377
19 *23:27 *136:27 0
20 *29:25 *136:27 4.63914e-05
21 *30:17 *136:21 0
22 *116:13 *136:13 0.000175618
23 *134:19 *136:21 0
24 *135:11 *136:13 0
*RES
1 N4END[5] *136:13 49.7953 
2 *136:13 *136:17 40 
3 *136:17 *136:21 37.6542 
4 *136:21 *136:27 41.4008 
5 *136:27 *136:33 32.973 
6 *136:33 *1170:A 20 
*END

*D_NET *137 0.0146606
*CONN
*P N4END[6] I
*I *1169:A I *D sg13g2_buf_1
*CAP
1 N4END[6] 0.000882277
2 *1169:A 0.000119153
3 *137:23 0.000394971
4 *137:17 0.00277018
5 *137:15 0.00249436
6 *137:13 0.000882277
7 *1169:A SS4BEG[2] 0.00017625
8 *137:13 *150:15 0.00027253
9 *137:13 *312:6 4.77425e-05
10 *137:13 *313:12 0.000143351
11 *137:17 *216:26 0
12 *137:17 *310:20 0.00532455
13 *137:17 *313:24 0
14 *137:23 *183:14 7.95113e-05
15 *137:23 *293:16 0.00017413
16 *116:13 *137:13 0.000175809
17 *134:19 *137:17 0
18 *134:31 *137:23 0
19 *136:13 *137:13 0.00072353
20 *136:21 *137:17 0
*RES
1 N4END[6] *137:13 48.6211 
2 *137:13 *137:15 20 
3 *137:15 *137:17 31.7446 
4 *137:17 *137:23 42.4823 
5 *137:23 *1169:A 41.1845 
*END

*D_NET *138 0.015272
*CONN
*P N4END[7] I
*I *1168:A I *D sg13g2_buf_1
*CAP
1 N4END[7] 0.00153052
2 *1168:A 0
3 *138:25 0.000898776
4 *138:15 0.000998899
5 *138:9 0.00163064
6 *138:9 *140:17 0
7 *138:9 *147:13 0.000711511
8 *138:9 *150:15 0
9 *138:9 *152:13 0.00134368
10 *138:9 *154:13 0
11 *138:9 *163:10 0.000922314
12 *138:9 *167:10 0.000497577
13 *138:9 *170:10 0.000181192
14 *138:15 S2BEGb[3] 0.000176394
15 *138:15 S2BEGb[4] 0.00017625
16 *138:25 SS4BEG[6] 0.000144542
17 *138:25 *1284:A 0
18 *138:25 *177:10 0.00098317
19 *138:25 *179:8 0.000560457
20 *138:25 *180:18 0.000390334
21 *138:25 *203:10 0.000181819
22 *138:25 *237:14 0.0022419
23 *1155:A *138:9 0.000552108
24 *107:13 *138:9 0.00102704
25 *113:25 *138:9 0
26 *118:9 *138:9 7.51285e-05
27 *118:17 *138:9 4.77425e-05
*RES
1 N4END[7] *138:9 40.9399 
2 *138:9 *138:15 41.1845 
3 *138:15 *138:25 34.3479 
4 *138:25 *1168:A 20 
*END

*D_NET *139 0.0190564
*CONN
*P N4END[8] I
*I *1167:A I *D sg13g2_buf_1
*CAP
1 N4END[8] 0.00248851
2 *1167:A 0.00122306
3 *139:15 0.00253454
4 *139:11 0.00379999
5 *1167:A S4BEG[10] 4.77425e-05
6 *1167:A *247:14 0
7 *139:11 *150:15 0
8 *139:11 *152:13 0.00036963
9 *139:11 *218:8 0
10 *139:11 *218:18 0.00116332
11 *139:11 *308:8 0
12 *139:11 *310:8 0.000659405
13 *139:11 *312:6 0
14 *139:15 *218:18 0.00210409
15 *139:15 *218:22 0
16 *139:15 *223:10 0.00259722
17 *2:11 *139:11 0
18 *11:5 *139:11 0
19 *13:9 *139:11 0
20 *13:9 *139:15 0.00179628
21 *109:19 *139:11 0
22 *111:23 *1167:A 0
23 *118:17 *139:11 0.000272605
24 *136:13 *139:11 0
*RES
1 N4END[8] *139:11 44.3492 
2 *139:11 *139:15 40.6206 
3 *139:15 *1167:A 30.7017 
*END

*D_NET *140 0.0107525
*CONN
*P N4END[9] I
*I *1166:A I *D sg13g2_buf_1
*CAP
1 N4END[9] 0.00302295
2 *1166:A 0.000355336
3 *140:17 0.00337829
4 *1166:A SS4BEG[1] 8.00842e-05
5 *1166:A SS4BEG[2] 8.00842e-05
6 *1166:A *179:8 0.00070637
7 *1166:A *181:16 0
8 *1166:A *183:14 0
9 *1166:A *190:16 0.000304438
10 *140:17 *145:13 0
11 *140:17 *150:15 0
12 *140:17 *152:13 0.000176769
13 *140:17 *154:13 0.00135203
14 *140:17 *161:10 0
15 *140:17 *165:10 0
16 *140:17 *168:8 0
17 *140:17 *176:8 0
18 *140:17 *177:10 1.55212e-05
19 *140:17 *190:16 4.81958e-05
20 *140:17 *281:10 0
21 *140:17 *282:10 0.00023464
22 *140:17 *283:10 0
23 *140:17 *284:10 0
24 *140:17 *286:10 0.000393822
25 *140:17 *288:18 0
26 *108:9 *140:17 0.000603915
27 *116:21 *140:17 0
28 *122:13 *140:17 0
29 *138:9 *140:17 0
*RES
1 N4END[9] *140:17 49.9112 
2 *140:17 *1166:A 44.6659 
*END

*D_NET *141 0.00375697
*CONN
*P NN4END[0] I
*I *1191:A I *D sg13g2_buf_1
*CAP
1 NN4END[0] 0.000966088
2 *1191:A 0.000102742
3 *141:13 0.00106883
4 *1191:A *312:6 0.000175693
5 *141:13 *148:11 0
6 *141:13 *151:17 0.000496828
7 *141:13 *311:12 0
8 *1141:A *141:13 0.000305735
9 *130:15 *141:13 0.00023103
10 *131:11 *141:13 0
11 *135:11 *1191:A 0.000175798
12 *136:13 *141:13 0.000234224
*RES
1 NN4END[0] *141:13 49.1732 
2 *141:13 *1191:A 21.1845 
*END

*D_NET *142 0.0036797
*CONN
*P NN4END[10] I
*I *1181:A I *D sg13g2_buf_1
*CAP
1 NN4END[10] 0.000833625
2 *1181:A 0
3 *142:15 0.000833625
4 *142:15 *1251:A 4.77425e-05
5 *142:15 *143:13 0
6 *142:15 *156:13 0
7 *142:15 *306:10 0.000175693
8 *1145:A *142:15 4.77425e-05
9 *117:13 *142:15 0.000871029
10 *123:9 *142:15 0.000822496
11 *130:15 *142:15 4.77425e-05
*RES
1 NN4END[10] *142:15 49.6511 
2 *142:15 *1181:A 20 
*END

*D_NET *143 0.00313084
*CONN
*P NN4END[11] I
*I *1180:A I *D sg13g2_buf_1
*CAP
1 NN4END[11] 0.000828455
2 *1180:A 0
3 *143:13 0.000828455
4 *143:13 *1251:A 4.77425e-05
5 *143:13 *144:13 0.000446767
6 *143:13 *144:25 0.00023426
7 *143:13 *146:17 0.000393736
8 *143:13 *155:13 0
9 *143:13 *161:10 0.000175457
10 *143:13 *315:14 0.000175973
11 *143:13 *316:18 0
12 *116:21 *143:13 0
13 *142:15 *143:13 0
*RES
1 NN4END[11] *143:13 48.6211 
2 *143:13 *1180:A 20 
*END

*D_NET *144 0.00376016
*CONN
*P NN4END[12] I
*I *1179:A I *D sg13g2_buf_1
*CAP
1 NN4END[12] 0.000665883
2 *1179:A 0
3 *144:25 0.000284534
4 *144:13 0.000950417
5 *144:13 *1248:A 5.58e-06
6 *144:13 *1253:A 0.000112426
7 *144:13 *145:13 0
8 *144:13 *146:17 7.9225e-05
9 *144:13 *161:10 0.000175693
10 *144:13 *316:18 0.000555201
11 *144:25 *153:21 7.9225e-05
12 *144:25 *268:8 0.000170948
13 *144:25 *315:14 0
14 *116:21 *144:25 0
15 *143:13 *144:13 0.000446767
16 *143:13 *144:25 0.00023426
*RES
1 NN4END[12] *144:13 46.984 
2 *144:13 *144:25 43.1621 
3 *144:25 *1179:A 20 
*END

*D_NET *145 0.0029875
*CONN
*P NN4END[13] I
*I *1178:A I *D sg13g2_buf_1
*CAP
1 NN4END[13] 0.000832571
2 *1178:A 0
3 *145:13 0.000832571
4 *145:13 *146:17 0
5 *145:13 *151:17 0.000144677
6 *145:13 *156:13 0
7 *145:13 *163:10 0.000175693
8 *145:13 *273:8 0.000765434
9 *122:13 *145:13 0.000236557
10 *140:17 *145:13 0
11 *144:13 *145:13 0
*RES
1 NN4END[13] *145:13 48.3739 
2 *145:13 *1178:A 20 
*END

*D_NET *146 0.00313357
*CONN
*P NN4END[14] I
*I *1177:A I *D sg13g2_buf_1
*CAP
1 NN4END[14] 0.000882618
2 *1177:A 0
3 *146:17 0.000882618
4 *146:17 S1BEG[0] 0
5 *146:17 *147:13 0
6 *146:17 *155:13 0.000175693
7 *146:17 *160:10 7.51285e-05
8 *146:17 *163:10 0.00020878
9 *146:17 *215:14 0
10 *146:17 *271:10 0.000388074
11 *146:17 *316:18 0
12 *1150:A *146:17 4.76977e-05
13 *116:21 *146:17 0
14 *143:13 *146:17 0.000393736
15 *144:13 *146:17 7.9225e-05
16 *145:13 *146:17 0
*RES
1 NN4END[14] *146:17 49.3215 
2 *146:17 *1177:A 20 
*END

*D_NET *147 0.00295545
*CONN
*P NN4END[15] I
*I *1176:A I *D sg13g2_buf_1
*CAP
1 NN4END[15] 0.000429196
2 *1176:A 0
3 *147:13 0.000429196
4 *147:13 S1BEG[0] 0
5 *147:13 *155:13 0.000369362
6 *147:13 *156:13 0.000304679
7 *147:13 *158:10 0.000711511
8 *138:9 *147:13 0.000711511
9 *146:17 *147:13 0
*RES
1 NN4END[15] *147:13 46.3963 
2 *147:13 *1176:A 20 
*END

*D_NET *148 0.00370013
*CONN
*P NN4END[1] I
*I *1190:A I *D sg13g2_buf_1
*CAP
1 NN4END[1] 0.000791916
2 *1190:A 0
3 *148:11 0.000791916
4 *148:11 *149:11 0
5 *148:11 *151:17 0
6 *1141:A *148:11 0.000305735
7 *116:21 *148:11 0.00123801
8 *122:13 *148:11 0
9 *130:15 *148:11 0.000338245
10 *136:13 *148:11 0.000234311
11 *141:13 *148:11 0
*RES
1 NN4END[1] *148:11 49.2597 
2 *148:11 *1190:A 20 
*END

*D_NET *149 0.00459552
*CONN
*P NN4END[2] I
*I *1189:A I *D sg13g2_buf_1
*CAP
1 NN4END[2] 0.000526719
2 *1189:A 0.000223059
3 *149:11 0.000749778
4 *149:11 *150:15 0
5 *149:11 *152:13 0.00102743
6 *114:15 *149:11 0.0007112
7 *118:9 *149:11 0.000552415
8 *133:11 *1189:A 0.000402458
9 *134:9 *1189:A 0.000402458
10 *148:11 *149:11 0
*RES
1 NN4END[2] *149:11 48.1473 
2 *149:11 *1189:A 22.6986 
*END

*D_NET *150 0.00378151
*CONN
*P NN4END[3] I
*I *1188:A I *D sg13g2_buf_1
*CAP
1 NN4END[3] 0.000749543
2 *1188:A 0
3 *150:15 0.000749543
4 *150:15 *151:17 0
5 *150:15 *154:13 0.00092941
6 *107:13 *150:15 0.00108048
7 *118:17 *150:15 0
8 *137:13 *150:15 0.00027253
9 *138:9 *150:15 0
10 *139:11 *150:15 0
11 *140:17 *150:15 0
12 *149:11 *150:15 0
*RES
1 NN4END[3] *150:15 49.4657 
2 *150:15 *1188:A 20 
*END

*D_NET *151 0.0028279
*CONN
*P NN4END[4] I
*I *1187:A I *D sg13g2_buf_1
*CAP
1 NN4END[4] 0.000949746
2 *1187:A 0
3 *151:17 0.000949746
4 *151:17 *152:13 0
5 *151:17 *153:21 0
6 *151:17 *216:16 0.000111076
7 *151:17 *218:8 0.000175824
8 *151:17 *315:14 0
9 *116:21 *151:17 0
10 *130:15 *151:17 0
11 *141:13 *151:17 0.000496828
12 *145:13 *151:17 0.000144677
13 *148:11 *151:17 0
14 *150:15 *151:17 0
*RES
1 NN4END[4] *151:17 49.3215 
2 *151:17 *1187:A 20 
*END

*D_NET *152 0.00415826
*CONN
*P NN4END[5] I
*I *1186:A I *D sg13g2_buf_1
*CAP
1 NN4END[5] 0.000620375
2 *1186:A 0
3 *152:13 0.000620375
4 *152:13 *153:21 0
5 *138:9 *152:13 0.00134368
6 *139:11 *152:13 0.00036963
7 *140:17 *152:13 0.000176769
8 *149:11 *152:13 0.00102743
9 *151:17 *152:13 0
*RES
1 NN4END[5] *152:13 49.3627 
2 *152:13 *1186:A 20 
*END

*D_NET *153 0.00260141
*CONN
*P NN4END[6] I
*I *1185:A I *D sg13g2_buf_1
*CAP
1 NN4END[6] 0.00105088
2 *1185:A 0
3 *153:21 0.00105088
4 *153:21 *154:13 0
5 *153:21 *155:13 0
6 *153:21 *215:8 0.00034066
7 *153:21 *215:14 0
8 *153:21 *216:16 7.97574e-05
9 *153:21 *267:10 0
10 *153:21 *316:8 0
11 *117:13 *153:21 0
12 *144:25 *153:21 7.9225e-05
13 *151:17 *153:21 0
14 *152:13 *153:21 0
*RES
1 NN4END[6] *153:21 49.5275 
2 *153:21 *1185:A 20 
*END

*D_NET *154 0.00398953
*CONN
*P NN4END[7] I
*I *1184:A I *D sg13g2_buf_1
*CAP
1 NN4END[7] 0.000645362
2 *1184:A 0
3 *154:13 0.000645362
4 *154:13 *158:10 0.00017699
5 *129:13 *154:13 0.000240377
6 *138:9 *154:13 0
7 *140:17 *154:13 0.00135203
8 *150:15 *154:13 0.00092941
9 *153:21 *154:13 0
*RES
1 NN4END[7] *154:13 49.3627 
2 *154:13 *1184:A 20 
*END

*D_NET *155 0.00361904
*CONN
*P NN4END[8] I
*I *1183:A I *D sg13g2_buf_1
*CAP
1 NN4END[8] 0.000770788
2 *1183:A 0
3 *155:13 0.000770788
4 *155:13 *156:13 0
5 *155:13 *158:10 0.000304679
6 *155:13 *215:8 0.000339956
7 *155:13 *316:18 0
8 *117:13 *155:13 0.000887772
9 *143:13 *155:13 0
10 *146:17 *155:13 0.000175693
11 *147:13 *155:13 0.000369362
12 *153:21 *155:13 0
*RES
1 NN4END[8] *155:13 49.1155 
2 *155:13 *1183:A 20 
*END

*D_NET *156 0.00408687
*CONN
*P NN4END[9] I
*I *1182:A I *D sg13g2_buf_1
*CAP
1 NN4END[9] 0.000670708
2 *1182:A 0
3 *156:13 0.000670708
4 *156:13 *273:8 0.000393607
5 *116:21 *156:13 0.000550155
6 *118:17 *156:13 0.000182517
7 *118:31 *156:13 0.000764568
8 *122:13 *156:13 0.000549924
9 *142:15 *156:13 0
10 *145:13 *156:13 0
11 *147:13 *156:13 0.000304679
12 *155:13 *156:13 0
*RES
1 NN4END[9] *156:13 49.3627 
2 *156:13 *1182:A 20 
*END

*D_NET *157 0.00237246
*CONN
*P S1BEG[0] O
*I *1247:X O *D sg13g2_buf_1
*CAP
1 S1BEG[0] 0.000971079
2 *1247:X 0.000971079
3 S1BEG[0] S1BEG[1] 0
4 S1BEG[0] S1BEG[2] 0
5 S1BEG[0] *1249:A 4.77425e-05
6 S1BEG[0] *1252:A 4.77425e-05
7 S1BEG[0] *1256:A 8.00842e-05
8 S1BEG[0] *162:10 7.92265e-05
9 *129:23 S1BEG[0] 0.000175503
10 *146:17 S1BEG[0] 0
11 *147:13 S1BEG[0] 0
*RES
1 *1247:X S1BEG[0] 27.6003 
*END

*D_NET *158 0.00246168
*CONN
*P S1BEG[1] O
*I *1248:X O *D sg13g2_buf_1
*CAP
1 S1BEG[1] 4.78129e-05
2 *1248:X 0.000586436
3 *158:10 0.000634249
4 S1BEG[1] S1BEG[2] 0
5 S1BEG[0] S1BEG[1] 0
6 *147:13 *158:10 0.000711511
7 *154:13 *158:10 0.00017699
8 *155:13 *158:10 0.000304679
*RES
1 *1248:X *158:10 46.8495 
2 *158:10 S1BEG[1] 20.3811 
*END

*D_NET *159 0.00182839
*CONN
*P S1BEG[2] O
*I *1249:X O *D sg13g2_buf_1
*CAP
1 S1BEG[2] 0.000834539
2 *1249:X 0.000834539
3 S1BEG[2] S1BEG[3] 0
4 S1BEG[2] *1256:A 8.00842e-05
5 S1BEG[2] *162:10 7.92265e-05
6 S1BEG[0] S1BEG[2] 0
7 S1BEG[1] S1BEG[2] 0
*RES
1 *1249:X S1BEG[2] 26.9216 
*END

*D_NET *160 0.0021543
*CONN
*P S1BEG[3] O
*I *1250:X O *D sg13g2_buf_1
*CAP
1 S1BEG[3] 0.000405413
2 *1250:X 0.00026937
3 *160:10 0.000674784
4 S1BEG[3] S2BEG[0] 0
5 S1BEG[3] S2BEG[1] 0
6 S1BEG[3] *1258:A 0
7 S1BEG[3] *279:10 4.75151e-05
8 S1BEG[3] *280:12 7.98567e-05
9 *160:10 *162:10 0.000287256
10 *160:10 *271:10 0.000111685
11 *160:10 *276:12 0.00012816
12 *160:10 *278:8 0
13 *160:10 *279:10 7.51285e-05
14 *160:10 *316:18 0
15 S1BEG[2] S1BEG[3] 0
16 *146:17 *160:10 7.51285e-05
*RES
1 *1250:X *160:10 43.0797 
2 *160:10 S1BEG[3] 22.7896 
*END

*D_NET *161 0.00244748
*CONN
*P S2BEG[0] O
*I *1251:X O *D sg13g2_buf_1
*CAP
1 S2BEG[0] 0.000156493
2 *1251:X 0.000536577
3 *161:10 0.00069307
4 S2BEG[0] S2BEG[1] 0
5 *161:10 *163:10 0.000710187
6 S1BEG[3] S2BEG[0] 0
7 *140:17 *161:10 0
8 *143:13 *161:10 0.000175457
9 *144:13 *161:10 0.000175693
*RES
1 *1251:X *161:10 45.4899 
2 *161:10 S2BEG[0] 21.2463 
*END

*D_NET *162 0.00257661
*CONN
*P S2BEG[1] O
*I *1252:X O *D sg13g2_buf_1
*CAP
1 S2BEG[1] 0.000428208
2 *1252:X 0.000161627
3 *162:10 0.000589836
4 S2BEG[1] S2BEG[2] 0
5 S2BEG[1] S2BEG[3] 0
6 S2BEG[1] *1258:A 4.76977e-05
7 S2BEG[1] *167:10 0.000272788
8 *162:10 *280:12 0.000128576
9 *162:10 *316:18 0.000502169
10 S1BEG[0] *162:10 7.92265e-05
11 S1BEG[2] *162:10 7.92265e-05
12 S1BEG[3] S2BEG[1] 0
13 S2BEG[0] S2BEG[1] 0
14 *160:10 *162:10 0.000287256
*RES
1 *1252:X *162:10 42.8634 
2 *162:10 S2BEG[1] 23.8419 
*END

*D_NET *163 0.00301649
*CONN
*P S2BEG[2] O
*I *1253:X O *D sg13g2_buf_1
*CAP
1 S2BEG[2] 0.000118402
2 *1253:X 0.000341313
3 *163:10 0.000459715
4 S2BEG[2] S2BEG[3] 0
5 S2BEG[2] *167:10 8.00842e-05
6 S2BEG[1] S2BEG[2] 0
7 *138:9 *163:10 0.000922314
8 *145:13 *163:10 0.000175693
9 *146:17 *163:10 0.00020878
10 *161:10 *163:10 0.000710187
*RES
1 *1253:X *163:10 45.7062 
2 *163:10 S2BEG[2] 21.03 
*END

*D_NET *164 0.0014539
*CONN
*P S2BEG[3] O
*I *1255:X O *D sg13g2_buf_1
*CAP
1 S2BEG[3] 0.00066329
2 *1255:X 0.00066329
3 S2BEG[3] S2BEG[4] 0
4 S2BEG[3] S2BEG[5] 0
5 S2BEG[3] *1257:A 0
6 S2BEG[3] *1259:A 7.98484e-05
7 S2BEG[3] *167:10 4.74714e-05
8 S2BEG[1] S2BEG[3] 0
9 S2BEG[2] S2BEG[3] 0
10 *1088:A S2BEG[3] 0
11 *12:33 S2BEG[3] 0
*RES
1 *1255:X S2BEG[3] 25.8195 
*END

*D_NET *165 0.00141784
*CONN
*P S2BEG[4] O
*I *1256:X O *D sg13g2_buf_1
*CAP
1 S2BEG[4] 0.000277958
2 *1256:X 0.000393397
3 *165:10 0.000671355
4 S2BEG[4] S2BEG[5] 0
5 *165:10 *168:8 7.51285e-05
6 *165:10 *278:8 0
7 S2BEG[3] S2BEG[4] 0
8 *116:21 *165:10 0
9 *140:17 *165:10 0
*RES
1 *1256:X *165:10 43.6359 
2 *165:10 S2BEG[4] 22.1115 
*END

*D_NET *166 0.0012025
*CONN
*P S2BEG[5] O
*I *1257:X O *D sg13g2_buf_1
*CAP
1 S2BEG[5] 0.000513028
2 *1257:X 0.000513028
3 S2BEG[5] S2BEG[6] 0
4 S2BEG[5] S2BEG[7] 0
5 S2BEG[5] S2BEGb[0] 0
6 S2BEG[5] *222:8 0.000176439
7 S2BEG[5] *234:12 0
8 S2BEG[3] S2BEG[5] 0
9 S2BEG[4] S2BEG[5] 0
10 *12:33 S2BEG[5] 0
*RES
1 *1257:X S2BEG[5] 24.6247 
*END

*D_NET *167 0.00209725
*CONN
*P S2BEG[6] O
*I *1258:X O *D sg13g2_buf_1
*CAP
1 S2BEG[6] 7.59346e-05
2 *1258:X 0.000274939
3 *167:10 0.000350874
4 S2BEG[1] *167:10 0.000272788
5 S2BEG[2] *167:10 8.00842e-05
6 S2BEG[3] *167:10 4.74714e-05
7 S2BEG[5] S2BEG[6] 0
8 *113:25 *167:10 0.000497577
9 *138:9 *167:10 0.000497577
*RES
1 *1258:X *167:10 44.1612 
2 *167:10 S2BEG[6] 20.5974 
*END

*D_NET *168 0.000979908
*CONN
*P S2BEG[7] O
*I *1259:X O *D sg13g2_buf_1
*CAP
1 S2BEG[7] 0.0002814
2 *1259:X 0.00017099
3 *168:8 0.00045239
4 S2BEG[7] S2BEGb[0] 0
5 S2BEG[7] *222:8 0
6 *168:8 *280:12 0
7 S2BEG[5] S2BEG[7] 0
8 *23:27 *168:8 0
9 *140:17 *168:8 0
10 *165:10 *168:8 7.51285e-05
*RES
1 *1259:X *168:8 41.8334 
2 *168:8 S2BEG[7] 22.3278 
*END

*D_NET *169 0.00135461
*CONN
*P S2BEGb[0] O
*I *1260:X O *D sg13g2_buf_1
*CAP
1 S2BEGb[0] 0.000581725
2 *1260:X 0.000581725
3 S2BEGb[0] S2BEGb[1] 0
4 S2BEGb[0] S2BEGb[3] 0
5 S2BEGb[0] *170:10 0
6 S2BEGb[0] *237:10 4.78044e-05
7 S2BEGb[0] *281:10 0.000143351
8 S2BEG[5] S2BEGb[0] 0
9 S2BEG[7] S2BEGb[0] 0
*RES
1 *1260:X S2BEGb[0] 25.3251 
*END

*D_NET *170 0.00114099
*CONN
*P S2BEGb[1] O
*I *1261:X O *D sg13g2_buf_1
*CAP
1 S2BEGb[1] 0.000130583
2 *1261:X 0.00018349
3 *170:10 0.000314072
4 S2BEGb[1] S2BEGb[2] 0
5 *170:10 S2BEGb[2] 4.77425e-05
6 *170:10 S2BEGb[3] 0.00020878
7 *170:10 *171:10 7.51285e-05
8 *170:10 *237:10 0
9 S2BEGb[0] S2BEGb[1] 0
10 S2BEGb[0] *170:10 0
11 *138:9 *170:10 0.000181192
*RES
1 *1261:X *170:10 42.2454 
2 *170:10 S2BEGb[1] 21.03 
*END

*D_NET *171 0.00153288
*CONN
*P S2BEGb[2] O
*I *1262:X O *D sg13g2_buf_1
*CAP
1 S2BEGb[2] 0.000146971
2 *1262:X 0.000382148
3 *171:10 0.000529119
4 S2BEGb[2] S2BEGb[3] 0
5 *171:10 S2BEGb[6] 0.000175886
6 *171:10 S2BEGb[7] 0.000175886
7 S2BEGb[1] S2BEGb[2] 0
8 *170:10 S2BEGb[2] 4.77425e-05
9 *170:10 *171:10 7.51285e-05
*RES
1 *1262:X *171:10 43.5123 
2 *171:10 S2BEGb[2] 21.2463 
*END

*D_NET *172 0.00152416
*CONN
*P S2BEGb[3] O
*I *1263:X O *D sg13g2_buf_1
*CAP
1 S2BEGb[3] 0.000474039
2 *1263:X 0.000474039
3 S2BEGb[3] S2BEGb[4] 0
4 S2BEGb[3] *1260:A 0.00011101
5 S2BEGb[3] *1261:A 7.98942e-05
6 S2BEGb[0] S2BEGb[3] 0
7 S2BEGb[2] S2BEGb[3] 0
8 *138:15 S2BEGb[3] 0.000176394
9 *170:10 S2BEGb[3] 0.00020878
*RES
1 *1263:X S2BEGb[3] 24.6247 
*END

*D_NET *173 0.00181277
*CONN
*P S2BEGb[4] O
*I *1264:X O *D sg13g2_buf_1
*CAP
1 S2BEGb[4] 0.000490109
2 *1264:X 3.4443e-05
3 *173:8 0.000524552
4 S2BEGb[4] S2BEGb[5] 0
5 S2BEGb[4] *1261:A 7.98942e-05
6 S2BEGb[4] *1263:A 0.000143791
7 *173:8 *213:8 0.000181608
8 *173:8 *316:18 0.000182121
9 S2BEGb[3] S2BEGb[4] 0
10 *138:15 S2BEGb[4] 0.00017625
*RES
1 *1264:X *173:8 40.8446 
2 *173:8 S2BEGb[4] 24.2745 
*END

*D_NET *174 0.00168495
*CONN
*P S2BEGb[5] O
*I *1266:X O *D sg13g2_buf_1
*CAP
1 S2BEGb[5] 0.000461062
2 *1266:X 0.000237845
3 *174:10 0.000698908
4 S2BEGb[5] S2BEGb[6] 0
5 S2BEGb[5] *1263:A 4.75444e-05
6 *174:10 S4BEG[1] 0.00011101
7 *174:10 *283:10 0
8 *174:10 *284:10 0.000128576
9 S2BEGb[4] S2BEGb[5] 0
*RES
1 *1266:X *174:10 42.0909 
2 *174:10 S2BEGb[5] 23.6256 
*END

*D_NET *175 0.00181544
*CONN
*P S2BEGb[6] O
*I *1267:X O *D sg13g2_buf_1
*CAP
1 S2BEGb[6] 0.000747822
2 *1267:X 0.000747822
3 S2BEGb[6] S2BEGb[7] 0
4 S2BEGb[6] *1263:A 0
5 S2BEGb[6] *1264:A 0.00014391
6 S2BEGb[6] *1267:A 0
7 S2BEGb[6] *239:8 0
8 S2BEGb[5] S2BEGb[6] 0
9 *171:10 S2BEGb[6] 0.000175886
*RES
1 *1267:X S2BEGb[6] 26.3866 
*END

*D_NET *176 0.00231377
*CONN
*P S2BEGb[7] O
*I *1268:X O *D sg13g2_buf_1
*CAP
1 S2BEGb[7] 0.000249537
2 *1268:X 0.000326055
3 *176:8 0.000575592
4 S2BEGb[7] S4BEG[0] 0.000143116
5 *176:8 *177:10 0.000768452
6 *176:8 *282:10 7.51285e-05
7 S2BEGb[6] S2BEGb[7] 0
8 *140:17 *176:8 0
9 *171:10 S2BEGb[7] 0.000175886
*RES
1 *1268:X *176:8 43.811 
2 *176:8 S2BEGb[7] 22.3278 
*END

*D_NET *177 0.00295943
*CONN
*P S4BEG[0] O
*I *1269:X O *D sg13g2_buf_1
*CAP
1 S4BEG[0] 0.000275166
2 *1269:X 0.000241831
3 *177:10 0.000516997
4 S4BEG[0] S4BEG[1] 1.51749e-05
5 S2BEGb[7] S4BEG[0] 0.000143116
6 *138:25 *177:10 0.00098317
7 *140:17 *177:10 1.55212e-05
8 *176:8 *177:10 0.000768452
*RES
1 *1269:X *177:10 44.8719 
2 *177:10 S4BEG[0] 22.5647 
*END

*D_NET *178 0.00257986
*CONN
*P S4BEG[10] O
*I *1270:X O *D sg13g2_buf_1
*CAP
1 S4BEG[10] 0.000946402
2 *1270:X 0.000946402
3 S4BEG[10] S4BEG[11] 0
4 S4BEG[10] S4BEG[9] 0
5 S4BEG[10] *1269:A 4.75525e-05
6 S4BEG[10] *1279:A 0
7 S4BEG[10] *1280:A 0.000175693
8 S4BEG[10] *1283:A 0
9 S4BEG[10] *186:10 0.000175693
10 S4BEG[10] *190:24 0.000240377
11 *1167:A S4BEG[10] 4.77425e-05
*RES
1 *1270:X S4BEG[10] 29.0846 
*END

*D_NET *179 0.00322162
*CONN
*P S4BEG[11] O
*I *1271:X O *D sg13g2_buf_1
*CAP
1 S4BEG[11] 0.000271822
2 *1271:X 0.00042262
3 *179:8 0.000694442
4 S4BEG[11] S4BEG[12] 0
5 S4BEG[11] *186:10 0.000175886
6 *179:8 *180:18 0.000390023
7 *179:8 *203:10 0
8 S4BEG[10] S4BEG[11] 0
9 *1166:A *179:8 0.00070637
10 *134:31 *179:8 0
11 *138:25 *179:8 0.000560457
*RES
1 *1271:X *179:8 45.7886 
2 *179:8 S4BEG[11] 22.3278 
*END

*D_NET *180 0.00318661
*CONN
*P S4BEG[12] O
*I *1272:X O *D sg13g2_buf_1
*CAP
1 S4BEG[12] 0.000276199
2 *1272:X 9.67583e-05
3 *180:18 0.000631483
4 *180:8 0.000452043
5 S4BEG[12] S4BEG[13] 0
6 *180:8 *193:10 0.00038719
7 *180:18 *181:16 0.000176173
8 *180:18 *316:18 0
9 S4BEG[11] S4BEG[12] 0
10 *83:23 *180:8 0.000386407
11 *128:19 *180:18 0
12 *138:25 *180:18 0.000390334
13 *179:8 *180:18 0.000390023
*RES
1 *1272:X *180:8 41.8334 
2 *180:8 *180:18 44.4496 
3 *180:18 S4BEG[12] 22.1115 
*END

*D_NET *181 0.00258214
*CONN
*P S4BEG[13] O
*I *1273:X O *D sg13g2_buf_1
*CAP
1 S4BEG[13] 0.000398208
2 *1273:X 0
3 *181:16 0.000940464
4 *181:6 0.000542256
5 S4BEG[13] S4BEG[14] 0
6 S4BEG[13] *1279:A 4.63974e-05
7 *181:16 *183:14 0.000178206
8 *181:16 *190:16 7.51285e-05
9 *181:16 *293:16 0
10 *181:16 *316:30 0.000225311
11 S4BEG[12] S4BEG[13] 0
12 *1166:A *181:16 0
13 *180:18 *181:16 0.000176173
*RES
1 *1273:X *181:6 40 
2 *181:6 *181:16 45.3148 
3 *181:16 S4BEG[13] 23.193 
*END

*D_NET *182 0.00321797
*CONN
*P S4BEG[14] O
*I *1274:X O *D sg13g2_buf_1
*CAP
1 S4BEG[14] 0.000474938
2 *1274:X 0.000290859
3 *182:10 0.000765797
4 S4BEG[14] S4BEG[15] 0
5 S4BEG[14] *190:16 7.9225e-05
6 S4BEG[14] *300:10 4.75151e-05
7 *182:10 SS4BEG[6] 7.92265e-05
8 *182:10 *1272:A 7.92265e-05
9 *182:10 *193:10 0.000649769
10 *182:10 *300:10 7.33225e-05
11 *182:10 *306:42 0.000126873
12 *182:10 *316:30 0.000551215
13 S4BEG[13] S4BEG[14] 0
*RES
1 *1274:X *182:10 44.3466 
2 *182:10 S4BEG[14] 23.8419 
*END

*D_NET *183 0.00265684
*CONN
*P S4BEG[15] O
*I *1275:X O *D sg13g2_buf_1
*CAP
1 S4BEG[15] 0.000326919
2 *1275:X 0
3 *183:14 0.00101482
4 *183:6 0.000687903
5 S4BEG[15] SS4BEG[0] 0
6 *183:14 *293:10 0
7 *183:14 *293:16 0
8 S4BEG[14] S4BEG[15] 0
9 *1164:A S4BEG[15] 0.000369477
10 *1166:A *183:14 0
11 *134:31 *183:14 0
12 *137:23 *183:14 7.95113e-05
13 *181:16 *183:14 0.000178206
*RES
1 *1275:X *183:6 40 
2 *183:6 *183:14 45.4281 
3 *183:14 S4BEG[15] 22.9767 
*END

*D_NET *184 0.00294869
*CONN
*P S4BEG[1] O
*I *1277:X O *D sg13g2_buf_1
*CAP
1 S4BEG[1] 0.000543431
2 *1277:X 0.000148227
3 *184:8 0.000691658
4 S4BEG[1] S4BEG[2] 0
5 S4BEG[1] *1262:A 8.00842e-05
6 S4BEG[1] *1266:A 0
7 *184:8 *187:8 0.000181608
8 *184:8 *213:8 0.000336987
9 *184:8 *316:18 0.000600399
10 S4BEG[0] S4BEG[1] 1.51749e-05
11 *1155:A S4BEG[1] 0.000240111
12 *130:25 *184:8 0
13 *174:10 S4BEG[1] 0.00011101
*RES
1 *1277:X *184:8 42.8222 
2 *184:8 S4BEG[1] 24.9749 
*END

*D_NET *185 0.00207333
*CONN
*P S4BEG[2] O
*I *1278:X O *D sg13g2_buf_1
*CAP
1 S4BEG[2] 0.000724489
2 *1278:X 0.000724489
3 S4BEG[2] S4BEG[3] 0
4 S4BEG[2] S4BEG[4] 0
5 S4BEG[2] *1266:A 0
6 S4BEG[2] *1267:A 0
7 S4BEG[2] *284:10 7.91802e-05
8 S4BEG[2] *288:18 0
9 S4BEG[2] *306:26 0.000175693
10 S4BEG[1] S4BEG[2] 0
11 *1155:A S4BEG[2] 0.000369477
*RES
1 *1278:X S4BEG[2] 26.5714 
*END

*D_NET *186 0.00198793
*CONN
*P S4BEG[3] O
*I *1279:X O *D sg13g2_buf_1
*CAP
1 S4BEG[3] 0.000154316
2 *1279:X 0.000519816
3 *186:10 0.000674132
4 S4BEG[3] S4BEG[4] 0
5 *186:10 *190:24 0.000288087
6 *186:10 *237:14 0
7 S4BEG[10] *186:10 0.000175693
8 S4BEG[11] *186:10 0.000175886
9 S4BEG[2] S4BEG[3] 0
*RES
1 *1279:X *186:10 44.9955 
2 *186:10 S4BEG[3] 21.2463 
*END

*D_NET *187 0.00222482
*CONN
*P S4BEG[4] O
*I *1280:X O *D sg13g2_buf_1
*CAP
1 S4BEG[4] 0.000534903
2 *1280:X 0.000319681
3 *187:8 0.000854584
4 S4BEG[4] S4BEG[5] 0
5 S4BEG[4] *286:10 4.77425e-05
6 S4BEG[4] *289:10 0.000111114
7 *187:8 *239:16 0
8 *187:8 *316:18 7.34778e-05
9 S4BEG[2] S4BEG[4] 0
10 S4BEG[3] S4BEG[4] 0
11 *1156:A S4BEG[4] 8.00842e-05
12 *126:23 *187:8 2.16289e-05
13 *130:25 *187:8 0
14 *184:8 *187:8 0.000181608
*RES
1 *1280:X *187:8 42.8222 
2 *187:8 S4BEG[4] 24.4908 
*END

*D_NET *188 0.00183138
*CONN
*P S4BEG[5] O
*I *1281:X O *D sg13g2_buf_1
*CAP
1 S4BEG[5] 0.000867946
2 *1281:X 0.000867946
3 S4BEG[5] S4BEG[6] 0
4 S4BEG[5] *1277:A 4.77425e-05
5 S4BEG[5] *286:10 4.77425e-05
6 S4BEG[4] S4BEG[5] 0
7 *111:23 S4BEG[5] 0
*RES
1 *1281:X S4BEG[5] 27.4222 
*END

*D_NET *189 0.00191078
*CONN
*P S4BEG[6] O
*I *1282:X O *D sg13g2_buf_1
*CAP
1 S4BEG[6] 0.000955389
2 *1282:X 0.000955389
3 S4BEG[6] S4BEG[7] 0
4 S4BEG[6] S4BEG[9] 0
5 S4BEG[6] *1280:A 0
6 S4BEG[6] *1282:A 0
7 S4BEG[5] S4BEG[6] 0
8 *111:23 S4BEG[6] 0
*RES
1 *1282:X S4BEG[6] 28.3224 
*END

*D_NET *190 0.00284394
*CONN
*P S4BEG[7] O
*I *1283:X O *D sg13g2_buf_1
*CAP
1 S4BEG[7] 0.000120181
2 *1283:X 0.000345676
3 *190:24 0.000374092
4 *190:16 0.000599587
5 S4BEG[7] S4BEG[8] 0
6 *190:16 *192:20 0
7 *190:16 *300:10 0.000128576
8 *190:16 *316:30 0
9 *190:24 S4BEG[9] 0.000240377
10 S4BEG[10] *190:24 0.000240377
11 S4BEG[14] *190:16 7.9225e-05
12 S4BEG[6] S4BEG[7] 0
13 *1164:A *190:24 0
14 *1166:A *190:16 0.000304438
15 *140:17 *190:16 4.81958e-05
16 *181:16 *190:16 7.51285e-05
17 *186:10 *190:24 0.000288087
*RES
1 *1283:X *190:16 44.223 
2 *190:16 *190:24 42.9561 
3 *190:24 S4BEG[7] 21.03 
*END

*D_NET *191 0.00249415
*CONN
*P S4BEG[8] O
*I *1284:X O *D sg13g2_buf_1
*CAP
1 S4BEG[8] 4.69334e-05
2 *1284:X 0.000616508
3 *191:10 0.000663441
4 S4BEG[8] S4BEG[9] 0
5 *191:10 SS4BEG[2] 0.000304909
6 *191:10 SS4BEG[3] 4.77702e-05
7 *191:10 SS4BEG[4] 0
8 S4BEG[7] S4BEG[8] 0
9 *1164:A *191:10 0.000814589
*RES
1 *1284:X *191:10 47.3439 
2 *191:10 S4BEG[8] 20.3811 
*END

*D_NET *192 0.0030075
*CONN
*P S4BEG[9] O
*I *1285:X O *D sg13g2_buf_1
*CAP
1 S4BEG[9] 0.000378585
2 *1285:X 0.000199725
3 *192:20 0.000795824
4 *192:12 0.000616964
5 S4BEG[9] *1269:A 7.98942e-05
6 *192:12 *238:16 0.000394013
7 *192:12 *239:16 0
8 *192:12 *302:16 0
9 *192:20 *289:10 7.33225e-05
10 *192:20 *300:10 0.000181279
11 *192:20 *306:42 0
12 S4BEG[10] S4BEG[9] 0
13 S4BEG[6] S4BEG[9] 0
14 S4BEG[8] S4BEG[9] 0
15 *83:23 *192:12 4.75151e-05
16 *190:16 *192:20 0
17 *190:24 S4BEG[9] 0.000240377
*RES
1 *1285:X *192:12 42.2557 
2 *192:12 *192:20 43.8522 
3 *192:20 S4BEG[9] 23.4093 
*END

*D_NET *193 0.00332024
*CONN
*P SS4BEG[0] O
*I *1286:X O *D sg13g2_buf_1
*CAP
1 SS4BEG[0] 0.000488179
2 *1286:X 0.000402462
3 *193:10 0.000890641
4 SS4BEG[0] SS4BEG[1] 0
5 SS4BEG[0] *302:16 0.000132527
6 *193:10 *194:10 0
7 *193:10 *294:8 0
8 *193:10 *316:30 0
9 S4BEG[15] SS4BEG[0] 0
10 *1164:A SS4BEG[0] 0.000369477
11 *83:23 SS4BEG[0] 0
12 *83:23 *193:10 0
13 *180:8 *193:10 0.00038719
14 *182:10 *193:10 0.000649769
*RES
1 *1286:X *193:10 44.3775 
2 *193:10 SS4BEG[0] 24.4084 
*END

*D_NET *194 0.00249313
*CONN
*P SS4BEG[10] O
*I *1288:X O *D sg13g2_buf_1
*CAP
1 SS4BEG[10] 0.0005224
2 *1288:X 0.000198294
3 *194:10 0.000720694
4 SS4BEG[10] SS4BEG[11] 0
5 SS4BEG[10] SS4BEG[12] 0
6 SS4BEG[10] SS4BEG[9] 0
7 SS4BEG[10] *292:12 0.000112426
8 *194:10 *197:8 0.000336832
9 *194:10 *311:30 0.000602488
10 *194:10 *316:30 0
11 *1131:A SS4BEG[10] 0
12 *193:10 *194:10 0
*RES
1 *1288:X *194:10 43.1415 
2 *194:10 SS4BEG[10] 24.2745 
*END

*D_NET *195 0.00284776
*CONN
*P SS4BEG[11] O
*I *1289:X O *D sg13g2_buf_1
*CAP
1 SS4BEG[11] 0.000103796
2 *1289:X 0.000489728
3 *195:10 0.000593524
4 *195:10 *197:16 7.51285e-05
5 *195:10 *198:10 0.000711511
6 *195:10 *202:10 0.00039332
7 SS4BEG[10] SS4BEG[11] 0
8 *78:7 *195:10 0.000240377
9 *79:15 *195:10 0.000240377
*RES
1 *1289:X *195:10 46.4169 
2 *195:10 SS4BEG[11] 20.8137 
*END

*D_NET *196 0.00192219
*CONN
*P SS4BEG[12] O
*I *1290:X O *D sg13g2_buf_1
*CAP
1 SS4BEG[12] 0.00032136
2 *1290:X 6.09406e-05
3 *196:14 0.000716562
4 *196:8 0.000456143
5 SS4BEG[12] SS4BEG[13] 0
6 SS4BEG[12] *202:10 0
7 SS4BEG[12] *206:14 0
8 *196:8 *234:24 0.000124773
9 *196:14 *197:16 0.000242407
10 SS4BEG[10] SS4BEG[12] 0
11 *66:17 *196:14 0
12 *67:21 *196:14 0
13 *77:21 *196:14 0
*RES
1 *1290:X *196:8 40.5974 
2 *196:8 *196:14 43.5638 
3 *196:14 SS4BEG[12] 21.7396 
*END

*D_NET *197 0.00254285
*CONN
*P SS4BEG[13] O
*I *1291:X O *D sg13g2_buf_1
*CAP
1 SS4BEG[13] 0.000131505
2 *1291:X 0.000263795
3 *197:16 0.000461532
4 *197:8 0.000593822
5 *197:8 *311:30 0
6 *197:8 *316:30 0
7 SS4BEG[12] SS4BEG[13] 0
8 *66:11 *197:16 0
9 *66:17 *197:16 0.000437834
10 *82:11 *197:8 0
11 *194:10 *197:8 0.000336832
12 *195:10 *197:16 7.51285e-05
13 *196:14 *197:16 0.000242407
*RES
1 *1291:X *197:8 42.575 
2 *197:8 *197:16 43.6977 
3 *197:16 SS4BEG[13] 21.03 
*END

*D_NET *198 0.00303285
*CONN
*P SS4BEG[14] O
*I *1292:X O *D sg13g2_buf_1
*CAP
1 SS4BEG[14] 0.000119324
2 *1292:X 0.000331338
3 *198:10 0.000450663
4 SS4BEG[14] *202:10 8.00842e-05
5 *198:10 *222:24 0.000923638
6 *80:11 *198:10 0.000208035
7 *81:11 *198:10 0.000208255
8 *195:10 *198:10 0.000711511
*RES
1 *1292:X *198:10 45.7062 
2 *198:10 SS4BEG[14] 21.03 
*END

*D_NET *199 0.0020014
*CONN
*P SS4BEG[15] O
*I *1293:X O *D sg13g2_buf_1
*CAP
1 SS4BEG[15] 0.000752155
2 *1293:X 0.000752155
3 SS4BEG[15] *202:10 0.000272718
4 SS4BEG[15] *206:14 0
5 SS4BEG[15] *209:9 0
6 SS4BEG[15] *217:24 0.000112292
7 SS4BEG[15] *316:30 0.000112078
8 *1173:A SS4BEG[15] 0
*RES
1 *1293:X SS4BEG[15] 26.5714 
*END

*D_NET *200 0.00321014
*CONN
*P SS4BEG[1] O
*I *1294:X O *D sg13g2_buf_1
*CAP
1 SS4BEG[1] 0.000599628
2 *1294:X 0.000293308
3 *200:12 0.000892936
4 SS4BEG[1] SS4BEG[2] 0
5 SS4BEG[1] *1285:A 4.77425e-05
6 SS4BEG[1] *302:16 0.000143351
7 *200:12 *1272:A 2.21754e-05
8 *200:12 *239:16 0.000493782
9 *200:12 *295:18 0.000143351
10 *200:12 *306:42 0.000493782
11 SS4BEG[0] SS4BEG[1] 0
12 *1166:A SS4BEG[1] 8.00842e-05
*RES
1 *1294:X *200:12 44.0788 
2 *200:12 SS4BEG[1] 24.9234 
*END

*D_NET *201 0.00248609
*CONN
*P SS4BEG[2] O
*I *1295:X O *D sg13g2_buf_1
*CAP
1 SS4BEG[2] 0.000962421
2 *1295:X 0.000962421
3 SS4BEG[2] SS4BEG[3] 0
4 SS4BEG[2] *1275:A 0
5 SS4BEG[2] *1284:A 0
6 SS4BEG[1] SS4BEG[2] 0
7 *1166:A SS4BEG[2] 8.00842e-05
8 *1169:A SS4BEG[2] 0.00017625
9 *191:10 SS4BEG[2] 0.000304909
*RES
1 *1295:X SS4BEG[2] 28.6211 
*END

*D_NET *202 0.00307847
*CONN
*P SS4BEG[3] O
*I *1296:X O *D sg13g2_buf_1
*CAP
1 SS4BEG[3] 6.66669e-05
2 *1296:X 0.000562263
3 *202:10 0.00062893
4 SS4BEG[3] SS4BEG[4] 0
5 *202:10 *204:10 0.00102672
6 *202:10 *237:14 0
7 SS4BEG[12] *202:10 0
8 SS4BEG[14] *202:10 8.00842e-05
9 SS4BEG[15] *202:10 0.000272718
10 SS4BEG[2] SS4BEG[3] 0
11 *191:10 SS4BEG[3] 4.77702e-05
12 *195:10 *202:10 0.00039332
*RES
1 *1296:X *202:10 47.622 
2 *202:10 SS4BEG[3] 20.5974 
*END

*D_NET *203 0.00248719
*CONN
*P SS4BEG[4] O
*I *1297:X O *D sg13g2_buf_1
*CAP
1 SS4BEG[4] 0.000209427
2 *1297:X 0.000653767
3 *203:10 0.000863194
4 SS4BEG[4] SS4BEG[5] 0
5 SS4BEG[4] SS4BEG[6] 0
6 *203:10 SS4BEG[6] 0
7 *203:10 SS4BEG[7] 0.000111876
8 *203:10 *1271:A 8.00842e-05
9 *203:10 *1274:A 4.77425e-05
10 *203:10 *237:14 0.000339284
11 SS4BEG[3] SS4BEG[4] 0
12 *138:25 *203:10 0.000181819
13 *179:8 *203:10 0
14 *191:10 SS4BEG[4] 0
*RES
1 *1297:X *203:10 46.0152 
2 *203:10 SS4BEG[4] 21.8952 
*END

*D_NET *204 0.00388165
*CONN
*P SS4BEG[5] O
*I *1195:X O *D sg13g2_buf_1
*CAP
1 SS4BEG[5] 4.65183e-05
2 *1195:X 0.000482391
3 *204:10 0.000528909
4 SS4BEG[5] SS4BEG[6] 0
5 *204:10 *209:9 0.00030506
6 SS4BEG[4] SS4BEG[5] 0
7 *65:9 *204:10 0.00030506
8 *83:11 *204:10 0.00118699
9 *202:10 *204:10 0.00102672
*RES
1 *1195:X *204:10 47.8383 
2 *204:10 SS4BEG[5] 20.3811 
*END

*D_NET *205 0.00294883
*CONN
*P SS4BEG[6] O
*I *1196:X O *D sg13g2_buf_1
*CAP
1 SS4BEG[6] 0.00073286
2 *1196:X 0.000222887
3 *205:12 0.000955747
4 SS4BEG[6] SS4BEG[7] 0
5 SS4BEG[6] *1274:A 4.77699e-05
6 SS4BEG[6] *295:18 0.000143351
7 *205:12 *219:22 0
8 *205:12 *234:24 0.000333938
9 SS4BEG[4] SS4BEG[6] 0
10 SS4BEG[5] SS4BEG[6] 0
11 *1131:A *205:12 0.000112426
12 *77:21 *205:12 0.000176083
13 *138:25 SS4BEG[6] 0.000144542
14 *182:10 SS4BEG[6] 7.92265e-05
15 *203:10 SS4BEG[6] 0
*RES
1 *1196:X *205:12 42.6574 
2 *205:12 SS4BEG[6] 26.2212 
*END

*D_NET *206 0.00299414
*CONN
*P SS4BEG[7] O
*I *1197:X O *D sg13g2_buf_1
*CAP
1 SS4BEG[7] 0.000311776
2 *1197:X 0.00043691
3 *206:14 0.000748686
4 SS4BEG[7] SS4BEG[8] 0.000144097
5 SS4BEG[7] *1271:A 0
6 *206:14 *207:8 0.000653942
7 *206:14 *217:24 0
8 *206:14 *316:30 0
9 SS4BEG[12] *206:14 0
10 SS4BEG[15] *206:14 0
11 SS4BEG[6] SS4BEG[7] 0
12 *1173:A *206:14 0.000143519
13 *134:31 *206:14 0.00044333
14 *203:10 SS4BEG[7] 0.000111876
*RES
1 *1197:X *206:14 45.6032 
2 *206:14 SS4BEG[7] 22.9973 
*END

*D_NET *207 0.00308909
*CONN
*P SS4BEG[8] O
*I *1198:X O *D sg13g2_buf_1
*CAP
1 SS4BEG[8] 0.000277161
2 *1198:X 0.00030142
3 *207:8 0.000578581
4 SS4BEG[8] SS4BEG[9] 0
5 *207:8 *215:32 0
6 SS4BEG[7] SS4BEG[8] 0.000144097
7 *77:11 *207:8 0.00113389
8 *206:14 *207:8 0.000653942
*RES
1 *1198:X *207:8 45.2942 
2 *207:8 SS4BEG[8] 22.3278 
*END

*D_NET *208 0.00205851
*CONN
*P SS4BEG[9] O
*I *1199:X O *D sg13g2_buf_1
*CAP
1 SS4BEG[9] 0.000524614
2 *1199:X 0.000384475
3 *208:10 0.000909088
4 *208:10 *316:30 0
5 SS4BEG[10] SS4BEG[9] 0
6 SS4BEG[8] SS4BEG[9] 0
7 *1131:A SS4BEG[9] 0
8 *1174:A *208:10 0.000240331
9 *1175:A *208:10 0
*RES
1 *1199:X *208:10 43.3578 
2 *208:10 SS4BEG[9] 24.0582 
*END

*D_NET *209 0.00696731
*CONN
*P UserCLK I
*I *1192:A I *D sg13g2_buf_1
*CAP
1 UserCLK 0.00318696
2 *1192:A 0
3 *209:9 0.00318696
4 *209:9 *1288:A 0.00017625
5 *209:9 *247:10 0
6 *209:9 *248:10 0
7 *209:9 *263:10 0
8 *209:9 *310:28 0
9 *209:9 *316:30 0.000112078
10 SS4BEG[15] *209:9 0
11 *1173:A *209:9 0
12 *65:9 *209:9 0
13 *76:7 *209:9 0
14 *132:13 *209:9 0
15 *204:10 *209:9 0.00030506
*RES
1 UserCLK *209:9 48.1705 
2 *209:9 *1192:A 40 
*END

*D_NET *210 0.000620445
*CONN
*P UserCLKo O
*I *1200:X O *D sg13g2_buf_1
*CAP
1 UserCLKo 0.000310223
2 *1200:X 0.000310223
*RES
1 *1200:X UserCLKo 23.1106 
*END

*D_NET *213 0.0124653
*CONN
*I *1193:A I *D sg13g2_buf_1
*I *1088:X O *D sg13g2_buf_1
*CAP
1 *1193:A 0
2 *1088:X 0.000671392
3 *213:24 0
4 *213:20 0.00388386
5 *213:18 0.00412111
6 *213:8 0.000908638
7 *213:8 *306:26 0.00161569
8 *213:8 *316:18 0
9 *213:20 *217:18 0
10 *213:20 *222:20 0
11 *110:21 *213:18 7.90769e-05
12 *126:15 *213:20 0.000666931
13 *130:25 *213:8 0
14 *173:8 *213:8 0.000181608
15 *184:8 *213:8 0.000336987
*RES
1 *1088:X *213:8 48.2606 
2 *213:8 *213:18 42.0703 
3 *213:18 *213:20 50.779 
4 *213:20 *213:24 40 
5 *213:24 *1193:A 40 
*END

*D_NET *214 0.0144866
*CONN
*I *1194:A I *D sg13g2_buf_1
*I *1106:X O *D sg13g2_buf_1
*CAP
1 *1194:A 4.25928e-05
2 *1106:X 0.000158805
3 *214:18 0.00522649
4 *214:16 0.00534271
5 *214:16 *309:24 4.23121e-05
6 *214:18 *215:18 0
7 *214:18 *221:8 0
8 *214:18 *223:10 0
9 *214:18 *296:8 0
10 *214:18 *309:24 0
11 *214:18 *309:32 0
12 *214:18 *312:10 0
13 FrameData_O[17] *214:18 0
14 FrameData_O[18] *1194:A 0
15 FrameData_O[20] *214:18 0
16 *74:13 *214:18 0
17 *80:27 *214:16 0.000182524
18 *84:11 *214:18 0
19 *135:13 *214:16 0
20 *135:13 *214:18 0.00349112
*RES
1 *1106:X *214:16 42.2454 
2 *214:16 *214:18 59.3383 
3 *214:18 *1194:A 40.5356 
*END

*D_NET *215 0.0223961
*CONN
*I *1195:A I *D sg13g2_buf_1
*I *1181:X O *D sg13g2_buf_1
*CAP
1 *1195:A 0
2 *1181:X 6.89673e-05
3 *215:32 6.31125e-05
4 *215:26 0.00136382
5 *215:18 0.00317833
6 *215:16 0.00187763
7 *215:14 0.00131005
8 *215:8 0.00137902
9 *215:14 *262:8 0
10 *215:14 *317:10 0.000337174
11 *215:26 *1198:A 0.00133945
12 *215:26 *249:14 0.000499837
13 *76:7 *215:26 0.000435337
14 *76:11 *215:18 0
15 *82:11 *215:32 0.000181192
16 *106:13 *215:14 0
17 *111:9 *215:18 0.00401868
18 *135:13 *215:18 0.00566292
19 *146:17 *215:14 0
20 *153:21 *215:8 0.00034066
21 *153:21 *215:14 0
22 *155:13 *215:8 0.000339956
23 *207:8 *215:32 0
24 *214:18 *215:18 0
*RES
1 *1181:X *215:8 41.5862 
2 *215:8 *215:14 31.7008 
3 *215:14 *215:16 20 
4 *215:16 *215:18 31.9918 
5 *215:18 *215:26 33.1016 
6 *215:26 *215:32 40.8446 
7 *215:32 *1195:A 20 
*END

*D_NET *216 0.0122072
*CONN
*I *1196:A I *D sg13g2_buf_1
*I *1182:X O *D sg13g2_buf_1
*CAP
1 *1196:A 0
2 *1182:X 0.000553676
3 *216:30 0
4 *216:26 0.00214963
5 *216:20 0.00214963
6 *216:16 0.000553676
7 *216:16 *267:10 0
8 *216:16 *309:8 0
9 *216:26 *219:14 0.00169587
10 *216:26 *310:20 0
11 *216:26 *313:24 0.00489845
12 *216:26 *313:28 0
13 *130:15 *216:16 1.54008e-05
14 *137:17 *216:26 0
15 *151:17 *216:16 0.000111076
16 *153:21 *216:16 7.97574e-05
*RES
1 *1182:X *216:16 45.6444 
2 *216:16 *216:20 40 
3 *216:20 *216:26 32.6613 
4 *216:26 *216:30 40 
5 *216:30 *1196:A 40 
*END

*D_NET *217 0.00726309
*CONN
*I *1197:A I *D sg13g2_buf_1
*I *1183:X O *D sg13g2_buf_1
*CAP
1 *1197:A 0
2 *1183:X 0
3 *217:24 7.57895e-05
4 *217:18 0.00300311
5 *217:14 0.00316311
6 *217:6 0.000235784
7 *217:18 *311:24 0
8 *217:18 *313:28 0
9 SS4BEG[15] *217:24 0.000112292
10 *110:21 *217:14 0
11 *110:21 *217:18 0
12 *126:15 *217:18 0
13 *131:19 *217:14 0.000673002
14 *131:19 *217:18 0
15 *206:14 *217:24 0
16 *213:20 *217:18 0
*RES
1 *1183:X *217:6 40 
2 *217:6 *217:14 43.3887 
3 *217:14 *217:18 49.767 
4 *217:18 *217:24 40.7519 
5 *217:24 *1197:A 20 
*END

*D_NET *218 0.025314
*CONN
*I *1198:A I *D sg13g2_buf_1
*I *1184:X O *D sg13g2_buf_1
*CAP
1 *1198:A 0.00126655
2 *1184:X 0.0017452
3 *218:22 0.00306923
4 *218:18 0.00250047
5 *218:8 0.00244299
6 *1198:A *1289:A 0
7 *1198:A *248:10 0.000144998
8 *1198:A *249:14 0.000726801
9 *218:8 *308:8 0
10 *218:8 *309:8 0
11 *218:18 *309:12 0.00109314
12 *218:22 *223:10 0
13 *2:11 *218:8 0
14 *9:25 *218:18 0.00190544
15 *9:25 *218:22 0.000128247
16 *78:7 *1198:A 0.000952866
17 *79:15 *1198:A 0
18 *80:27 *218:22 0.00455542
19 *109:19 *218:8 0
20 *129:13 *218:8 0
21 *139:11 *218:8 0
22 *139:11 *218:18 0.00116332
23 *139:15 *218:18 0.00210409
24 *139:15 *218:22 0
25 *151:17 *218:8 0.000175824
26 *215:26 *1198:A 0.00133945
*RES
1 *1184:X *218:8 34.2964 
2 *218:8 *218:18 35.9238 
3 *218:18 *218:22 42.8454 
4 *218:22 *1198:A 34.1625 
*END

*D_NET *219 0.0114754
*CONN
*I *1199:A I *D sg13g2_buf_1
*I *1185:X O *D sg13g2_buf_1
*CAP
1 *1199:A 0
2 *1185:X 0
3 *219:22 0.000331458
4 *219:14 0.00232295
5 *219:12 0.00212975
6 *219:6 0.000138261
7 *219:12 *313:18 0
8 *219:14 *311:24 0
9 *219:14 *313:24 0.00473114
10 *219:14 *313:28 0
11 *219:22 *234:24 0
12 *219:22 *242:10 0
13 *77:21 *219:22 0.00012596
14 *205:12 *219:22 0
15 *216:26 *219:14 0.00169587
*RES
1 *1185:X *219:6 40 
2 *219:6 *219:12 41.4008 
3 *219:12 *219:14 30.0142 
4 *219:14 *219:22 42.8943 
5 *219:22 *1199:A 40 
*END

*D_NET *220 0.0210914
*CONN
*I *1200:A I *D sg13g2_buf_1
*I *1192:X O *D sg13g2_buf_1
*CAP
1 *1200:A 0
2 *1192:X 0.00020211
3 *220:24 0.000658802
4 *220:16 0.00398208
5 *220:14 0.00391646
6 *220:8 0.000795287
7 *220:8 *263:10 0
8 *220:14 *245:12 0
9 *220:16 *245:14 0.011139
10 *10:15 *220:16 0
11 *21:7 *220:24 0.00039766
12 *29:13 *220:16 0
13 *132:13 *220:8 0
*RES
1 *1192:X *220:8 41.5862 
2 *220:8 *220:14 45.7268 
3 *220:14 *220:16 55.2286 
4 *220:16 *220:24 48.2091 
5 *220:24 *1200:A 40 
*END

*D_NET *221 0.0246174
*CONN
*I *1201:A I *D sg13g2_buf_1
*I *1107:X O *D sg13g2_buf_1
*CAP
1 *1201:A 7.68764e-05
2 *1107:X 0
3 *221:8 0.00325167
4 *221:6 0.00317479
5 *1201:A *1203:A 0
6 *221:8 *223:10 0.0128356
7 *221:8 *256:22 0.00493639
8 *221:8 *259:12 0.000342034
9 *221:8 *307:10 0
10 FrameData_O[20] *221:8 0
11 FrameData_O[21] *1201:A 0
12 *214:18 *221:8 0
*RES
1 *1107:X *221:6 40 
2 *221:6 *221:8 59.9254 
3 *221:8 *1201:A 40.7519 
*END

*D_NET *222 0.0127021
*CONN
*I *1202:A I *D sg13g2_buf_1
*I *1089:X O *D sg13g2_buf_1
*CAP
1 *1202:A 0.000196047
2 *1089:X 0.000117283
3 *222:24 0.00323073
4 *222:22 0.00303468
5 *222:20 0.00159748
6 *222:12 0.00159748
7 *222:8 0.000117283
8 *222:24 *237:14 0
9 *222:24 *237:20 0
10 FrameData_O[1] *1202:A 0
11 FrameData_O[2] *1202:A 0
12 S2BEG[5] *222:8 0.000176439
13 S2BEG[7] *222:8 0
14 *66:11 *222:24 0.00140117
15 *69:11 *222:24 0.000234158
16 *75:15 *222:24 0
17 *83:11 *222:24 0
18 *112:21 *222:20 0
19 *127:15 *222:20 7.57097e-05
20 *128:13 *222:20 0
21 *198:10 *222:24 0.000923638
22 *213:20 *222:20 0
*RES
1 *1089:X *222:8 41.1845 
2 *222:8 *222:12 40 
3 *222:12 *222:20 40.3322 
4 *222:20 *222:22 20 
5 *222:22 *222:24 36.6886 
6 *222:24 *1202:A 41.8334 
*END

*D_NET *223 0.0227146
*CONN
*I *1203:A I *D sg13g2_buf_1
*I *1108:X O *D sg13g2_buf_1
*CAP
1 *1203:A 8.92849e-05
2 *1108:X 2.63207e-05
3 *223:10 0.00354217
4 *223:8 0.0034792
5 *1203:A *1287:A 0.000144799
6 *223:10 *309:32 0
7 *1201:A *1203:A 0
8 *84:11 *223:10 0
9 *139:15 *223:10 0.00259722
10 *214:18 *223:10 0
11 *218:22 *223:10 0
12 *221:8 *223:10 0.0128356
*RES
1 *1108:X *223:8 40.3193 
2 *223:8 *223:10 59.9254 
3 *223:10 *1203:A 40.9682 
*END

*D_NET *224 0.0115394
*CONN
*I *1204:A I *D sg13g2_buf_1
*I *1109:X O *D sg13g2_buf_1
*CAP
1 *1204:A 0
2 *1109:X 0
3 *224:22 0.000944625
4 *224:14 0.00494961
5 *224:12 0.00408175
6 *224:6 7.67662e-05
7 *224:14 *245:14 0.00146513
8 *224:22 *226:14 0
9 *224:22 *227:8 0
10 *224:22 *228:8 2.14736e-05
11 FrameData_O[22] *224:22 0
12 FrameData_O[24] *224:22 0
*RES
1 *1109:X *224:6 40 
2 *224:6 *224:12 40.5356 
3 *224:12 *224:14 54.9814 
4 *224:14 *224:22 49.0743 
5 *224:22 *1204:A 40 
*END

*D_NET *225 0.0233739
*CONN
*I *1205:A I *D sg13g2_buf_1
*I *1110:X O *D sg13g2_buf_1
*CAP
1 *1205:A 7.66088e-05
2 *1110:X 7.82218e-05
3 *225:12 0.00362873
4 *225:10 0.00363035
5 *1205:A *1207:A 8.00842e-05
6 *225:10 *1246:A 0
7 *225:12 *227:8 0.0125718
8 *225:12 *255:14 0.00330812
9 *225:12 *260:14 0
10 *225:12 *307:10 0
11 FrameData_O[22] *1205:A 0
*RES
1 *1110:X *225:10 40.6695 
2 *225:10 *225:12 57.9478 
3 *225:12 *1205:A 40.7519 
*END

*D_NET *226 0.018132
*CONN
*I *1206:A I *D sg13g2_buf_1
*I *1111:X O *D sg13g2_buf_1
*CAP
1 *1206:A 0.000163788
2 *1111:X 0.000287133
3 *226:14 0.00397056
4 *226:12 0.00541497
5 *226:8 0.00189533
6 *1206:A *1209:A 0
7 *226:8 *1245:A 0
8 *226:12 *228:8 0
9 *226:12 *231:10 0
10 *226:12 *231:12 0.00497005
11 *226:12 *233:12 0
12 *226:12 *257:10 0.00130151
13 *226:12 *258:12 0
14 *226:14 *228:8 0
15 *226:14 *229:8 0
16 *226:14 *231:12 0
17 FrameData_O[23] *1206:A 0
18 FrameData_O[24] *1206:A 0
19 FrameData_O[24] *226:14 0.000128663
20 FrameData_O[25] *1206:A 0
21 *1111:A *226:8 0
22 *1113:A *226:8 0
23 *18:5 *226:12 0
24 *224:22 *226:14 0
*RES
1 *1111:X *226:8 42.4823 
2 *226:8 *226:12 26.6873 
3 *226:12 *226:14 36.6268 
4 *226:14 *1206:A 41.4008 
*END

*D_NET *227 0.029976
*CONN
*I *1207:A I *D sg13g2_buf_1
*I *1112:X O *D sg13g2_buf_1
*CAP
1 *1207:A 0.000314154
2 *1112:X 0
3 *227:8 0.00283323
4 *227:6 0.00251908
5 *1207:A *1209:A 0
6 *227:8 *228:8 0.0115062
7 *227:8 *260:14 0
8 FrameData_O[23] *1207:A 0
9 FrameData_O[24] *1207:A 0
10 FrameData_O[29] *1207:A 2.21754e-05
11 *1205:A *1207:A 8.00842e-05
12 *15:13 *227:8 0.000129281
13 *224:22 *227:8 0
14 *225:12 *227:8 0.0125718
*RES
1 *1112:X *227:6 40 
2 *227:6 *227:8 58.9366 
3 *227:8 *1207:A 43.0488 
*END

*D_NET *228 0.0216978
*CONN
*I *1208:A I *D sg13g2_buf_1
*I *1113:X O *D sg13g2_buf_1
*CAP
1 *1208:A 0.000161265
2 *1113:X 0
3 *228:16 0.00108161
4 *228:8 0.00431672
5 *228:6 0.00339638
6 *1208:A *1209:A 0
7 *228:8 *258:12 0
8 *228:16 *229:8 0
9 *228:16 *231:20 0.00020934
10 *228:16 *232:10 0.00087609
11 *228:16 *233:16 0
12 FrameData_O[25] *1208:A 0
13 FrameData_O[26] *1208:A 0
14 FrameData_O[26] *228:16 0.000128663
15 FrameData_O[27] *228:16 0
16 FrameData_O[28] *228:16 0
17 *19:13 *228:8 0
18 *224:22 *228:8 2.14736e-05
19 *226:12 *228:8 0
20 *226:14 *228:8 0
21 *227:8 *228:8 0.0115062
*RES
1 *1113:X *228:6 40 
2 *228:6 *228:8 54.2398 
3 *228:8 *228:16 49.9395 
4 *228:16 *1208:A 41.4008 
*END

*D_NET *229 0.0291132
*CONN
*I *1209:A I *D sg13g2_buf_1
*I *1114:X O *D sg13g2_buf_1
*CAP
1 *1209:A 0.00029364
2 *1114:X 0
3 *229:8 0.00277104
4 *229:6 0.0024774
5 *229:8 *231:12 0.0112831
6 *229:8 *233:16 0
7 *229:8 *235:10 0.0120962
8 FrameData_O[24] *1209:A 1.54008e-05
9 FrameData_O[25] *1209:A 0
10 FrameData_O[26] *1209:A 0.000176424
11 FrameData_O[29] *1209:A 0
12 *1206:A *1209:A 0
13 *1207:A *1209:A 0
14 *1208:A *1209:A 0
15 *226:14 *229:8 0
16 *228:16 *229:8 0
*RES
1 *1114:X *229:6 40 
2 *229:6 *229:8 58.195 
3 *229:8 *1209:A 42.8325 
*END

*D_NET *230 0.0188895
*CONN
*I *1210:A I *D sg13g2_buf_1
*I *1098:X O *D sg13g2_buf_1
*CAP
1 *1210:A 0
2 *1098:X 0.00028853
3 *230:28 0.00157347
4 *230:18 0.00548471
5 *230:10 0.00419977
6 *230:10 *258:8 0
7 *230:10 *259:10 0
8 *230:18 *241:10 0
9 *230:18 *263:10 0.00464325
10 *230:28 *1221:A 0
11 *230:28 *1223:A 4.77699e-05
12 *230:28 *241:10 0
13 *230:28 *263:10 0
14 *230:28 *274:22 0
15 FrameData_O[10] *230:28 0
16 FrameData_O[11] *230:28 1.54556e-05
17 FrameData_O[12] *230:28 0
18 FrameData_O[13] *230:28 7.52149e-05
19 *2:17 *230:10 0
20 *73:9 *230:18 0
21 *78:13 *230:10 0.000240767
22 *79:15 *230:18 6.04415e-05
23 *79:21 *230:10 0
24 *79:21 *230:18 0.00226014
25 *125:9 *230:18 0
*RES
1 *1098:X *230:10 42.8325 
2 *230:10 *230:18 44.8771 
3 *230:18 *230:28 36.8199 
4 *230:28 *1210:A 20 
*END

*D_NET *231 0.0250106
*CONN
*I *1211:A I *D sg13g2_buf_1
*I *1115:X O *D sg13g2_buf_1
*CAP
1 *1211:A 0
2 *1115:X 7.82792e-05
3 *231:20 0.000734419
4 *231:12 0.00405737
5 *231:10 0.00340123
6 *231:10 *235:10 0.000148549
7 *231:12 *235:10 0
8 *231:20 *1216:A 0
9 *231:20 *232:10 0
10 *231:20 *236:12 0
11 *231:20 *255:14 0
12 FrameData_O[28] *231:20 0.000128248
13 *226:12 *231:10 0
14 *226:12 *231:12 0.00497005
15 *226:14 *231:12 0
16 *228:16 *231:20 0.00020934
17 *229:8 *231:12 0.0112831
*RES
1 *1115:X *231:10 41.0094 
2 *231:10 *231:12 52.1695 
3 *231:12 *231:20 47.9928 
4 *231:20 *1211:A 40 
*END

*D_NET *232 0.0129743
*CONN
*I *1212:A I *D sg13g2_buf_1
*I *1116:X O *D sg13g2_buf_1
*CAP
1 *1212:A 0.000132463
2 *1116:X 8.01674e-05
3 *232:10 0.00596894
4 *232:8 0.00591665
5 *1212:A *256:22 0
6 *232:8 *1246:A 0
7 *232:8 *235:8 0
8 *232:10 *233:12 0
9 *232:10 *233:16 0
10 *232:10 *236:10 0
11 *232:10 *236:12 0
12 *232:10 *254:16 0
13 FrameData_O[28] *1212:A 0
14 FrameData_O[30] *1212:A 0
15 *228:16 *232:10 0.00087609
16 *231:20 *232:10 0
*RES
1 *1116:X *232:8 40.7519 
2 *232:8 *232:10 56.7118 
3 *232:10 *1212:A 41.1845 
*END

*D_NET *233 0.0197217
*CONN
*I *1213:A I *D sg13g2_buf_1
*I *1117:X O *D sg13g2_buf_1
*CAP
1 *1213:A 0
2 *1117:X 0.000150439
3 *233:16 0.00141958
4 *233:12 0.00464694
5 *233:8 0.0033778
6 *233:8 *1245:A 0
7 *233:8 *235:8 0
8 *233:12 *235:10 0.0101269
9 *233:12 *254:16 0
10 *233:16 *235:10 0
11 *21:9 *233:12 0
12 *226:12 *233:12 0
13 *228:16 *233:16 0
14 *229:8 *233:16 0
15 *232:10 *233:12 0
16 *232:10 *233:16 0
*RES
1 *1117:X *233:8 41.6171 
2 *233:8 *233:12 48.1628 
3 *233:12 *233:16 31.9377 
4 *233:16 *1213:A 20 
*END

*D_NET *234 0.0169226
*CONN
*I *1214:A I *D sg13g2_buf_1
*I *1090:X O *D sg13g2_buf_1
*CAP
1 *1214:A 0.000158433
2 *1090:X 0.000862156
3 *234:24 0.00485113
4 *234:22 0.00542496
5 *234:12 0.00159442
6 *1214:A *1218:A 0
7 *234:12 *238:12 7.31655e-05
8 *234:12 *238:16 0
9 *234:12 *239:16 0.000874431
10 *234:12 *281:10 0.000143307
11 *234:22 *238:16 0
12 *234:24 *238:16 2.21468e-05
13 *234:24 *238:18 0
14 *234:24 *240:18 0
15 *234:24 *242:10 0
16 *234:24 *242:12 0
17 *234:24 *295:18 0.000181338
18 *234:24 *308:22 0.000969628
19 S2BEG[5] *234:12 0
20 *1153:A *234:12 0.000112541
21 *77:21 *234:22 0
22 *77:21 *234:24 0
23 *83:31 *234:22 0.00119623
24 *130:25 *234:12 0
25 *196:8 *234:24 0.000124773
26 *205:12 *234:24 0.000333938
27 *219:22 *234:24 0
*RES
1 *1090:X *234:12 48.652 
2 *234:12 *234:22 47.5396 
3 *234:22 *234:24 44.3827 
4 *234:24 *1214:A 41.4008 
*END

*D_NET *235 0.0282824
*CONN
*I *1215:A I *D sg13g2_buf_1
*I *1118:X O *D sg13g2_buf_1
*CAP
1 *1215:A 5.74818e-05
2 *1118:X 0.000177498
3 *235:10 0.0027779
4 *235:8 0.00289791
5 *1114:A *235:8 0
6 *229:8 *235:10 0.0120962
7 *231:10 *235:10 0.000148549
8 *231:12 *235:10 0
9 *232:8 *235:8 0
10 *233:8 *235:8 0
11 *233:12 *235:10 0.0101269
12 *233:16 *235:10 0
*RES
1 *1118:X *235:8 41.5606 
2 *235:8 *235:10 57.7006 
3 *235:10 *1215:A 40.5356 
*END

*D_NET *236 0.010505
*CONN
*I *1216:A I *D sg13g2_buf_1
*I *1119:X O *D sg13g2_buf_1
*CAP
1 *1216:A 7.73826e-05
2 *1119:X 0
3 *236:12 0.00339979
4 *236:10 0.0051751
5 *236:6 0.00185269
6 *1216:A *256:22 0
7 *236:12 *1233:A 0
8 *236:12 *251:16 0
9 *231:20 *1216:A 0
10 *231:20 *236:12 0
11 *232:10 *236:10 0
12 *232:10 *236:12 0
*RES
1 *1119:X *236:6 40 
2 *236:6 *236:10 21.0017 
3 *236:10 *236:12 30.9412 
4 *236:12 *1216:A 40.7519 
*END

*D_NET *237 0.0164505
*CONN
*I *1217:A I *D sg13g2_buf_1
*I *1091:X O *D sg13g2_buf_1
*CAP
1 *1217:A 0
2 *1091:X 0.000115632
3 *237:20 0.00200677
4 *237:14 0.00479607
5 *237:10 0.00290493
6 *237:20 *1218:A 0
7 FrameData_O[1] *237:20 0
8 FrameData_O[2] *237:20 0.000220237
9 FrameData_O[3] *237:20 0
10 S2BEGb[0] *237:10 4.78044e-05
11 *1164:A *237:14 0
12 *66:11 *237:14 0.00150728
13 *67:13 *237:14 0.00203716
14 *69:11 *237:14 0.000233463
15 *70:15 *237:14 0
16 *71:15 *237:14 0
17 *138:25 *237:14 0.0022419
18 *170:10 *237:10 0
19 *186:10 *237:14 0
20 *202:10 *237:14 0
21 *203:10 *237:14 0.000339284
22 *222:24 *237:14 0
23 *222:24 *237:20 0
*RES
1 *1091:X *237:10 41.1021 
2 *237:10 *237:14 34.4432 
3 *237:14 *237:20 43.6282 
4 *237:20 *1217:A 20 
*END

*D_NET *238 0.018285
*CONN
*I *1218:A I *D sg13g2_buf_1
*I *1092:X O *D sg13g2_buf_1
*CAP
1 *1218:A 0.000283834
2 *1092:X 0.000158231
3 *238:18 0.0055851
4 *238:16 0.00626268
5 *238:12 0.00111964
6 *1218:A *1220:A 0.000144886
7 *238:16 *239:16 0
8 *238:18 *239:16 0
9 *238:18 *239:20 0
10 *238:18 *240:18 0
11 *238:18 *295:8 0.000653705
12 *238:18 *308:22 0.000967534
13 FrameData_O[2] *1218:A 0
14 FrameData_O[4] *1218:A 0
15 FrameData_O[5] *238:18 0
16 FrameData_O[7] *238:18 0
17 *1153:A *238:12 0
18 *1214:A *1218:A 0
19 *83:31 *238:12 0.000193717
20 *83:31 *238:16 0.00242632
21 *130:25 *238:12 0
22 *192:12 *238:16 0.000394013
23 *234:12 *238:12 7.31655e-05
24 *234:12 *238:16 0
25 *234:22 *238:16 0
26 *234:24 *238:16 2.21468e-05
27 *234:24 *238:18 0
28 *237:20 *1218:A 0
*RES
1 *1092:X *238:12 41.7304 
2 *238:12 *238:16 12.257 
3 *238:16 *238:18 46.1131 
4 *238:18 *1218:A 43.0488 
*END

*D_NET *239 0.0153904
*CONN
*I *1219:A I *D sg13g2_buf_1
*I *1093:X O *D sg13g2_buf_1
*CAP
1 *1219:A 0
2 *1093:X 0.00036012
3 *239:20 0.00106805
4 *239:16 0.00514703
5 *239:8 0.0044391
6 *239:8 *1267:A 0
7 *239:16 *294:8 0
8 *239:16 *295:8 0.000653705
9 *239:16 *301:8 0.000393736
10 *239:16 *302:16 0.000606693
11 *239:16 *306:42 0
12 *239:16 *311:30 0
13 S2BEGb[6] *239:8 0
14 *1122:A *239:8 0
15 *68:11 *239:16 0
16 *70:15 *239:16 0
17 *71:15 *239:16 0
18 *82:11 *239:16 0
19 *130:25 *239:16 0.00135379
20 *187:8 *239:16 0
21 *192:12 *239:16 0
22 *200:12 *239:16 0.000493782
23 *234:12 *239:16 0.000874431
24 *238:16 *239:16 0
25 *238:18 *239:16 0
26 *238:18 *239:20 0
*RES
1 *1093:X *239:8 42.304 
2 *239:8 *239:16 43.3939 
3 *239:16 *239:20 32.9265 
4 *239:20 *1219:A 20 
*END

*D_NET *240 0.0160632
*CONN
*I *1220:A I *D sg13g2_buf_1
*I *1094:X O *D sg13g2_buf_1
*CAP
1 *1220:A 0.000181636
2 *1094:X 0.000126652
3 *240:18 0.000758953
4 *240:10 0.00554326
5 *240:8 0.0050926
6 *240:10 *242:10 0
7 *240:10 *242:12 0
8 *240:10 *243:10 0
9 *240:10 *310:28 0.00145911
10 *240:10 *314:14 0
11 *240:10 *315:22 0
12 *240:18 *242:12 0
13 FrameData_O[7] *240:18 0.000128662
14 FrameData_O[9] *240:18 0
15 *1094:A *240:8 0
16 *1218:A *1220:A 0.000144886
17 *66:17 *240:10 0.00262742
18 *234:24 *240:18 0
19 *238:18 *240:18 0
*RES
1 *1094:X *240:8 40.9682 
2 *240:8 *240:10 53.4982 
3 *240:10 *240:18 45.8916 
4 *240:18 *1220:A 41.8334 
*END

*D_NET *241 0.017564
*CONN
*I *1221:A I *D sg13g2_buf_1
*I *1099:X O *D sg13g2_buf_1
*CAP
1 *1221:A 5.33918e-05
2 *1099:X 0.00013899
3 *241:10 0.00430295
4 *241:8 0.00438855
5 *241:10 *244:10 0
6 *241:10 *308:14 0.00353251
7 *1099:A *241:8 0
8 *2:17 *241:8 0
9 *30:23 *241:8 7.91399e-05
10 *73:9 *241:10 0
11 *78:13 *241:10 0
12 *81:17 *241:10 0.00506848
13 *230:18 *241:10 0
14 *230:28 *1221:A 0
15 *230:28 *241:10 0
*RES
1 *1099:X *241:8 41.1845 
2 *241:8 *241:10 58.195 
3 *241:10 *1221:A 40.5356 
*END

*D_NET *242 0.0143628
*CONN
*I *1222:A I *D sg13g2_buf_1
*I *1095:X O *D sg13g2_buf_1
*CAP
1 *1222:A 5.24532e-05
2 *1095:X 0
3 *242:12 0.00317435
4 *242:10 0.00508422
5 *242:6 0.00196232
6 *1222:A *1223:A 0
7 *242:10 *310:28 0
8 *242:10 *317:16 0
9 *242:12 *243:10 0
10 *1162:A *242:10 0.00151211
11 *77:21 *242:10 0
12 *136:33 *242:10 0.00257734
13 *219:22 *242:10 0
14 *234:24 *242:10 0
15 *234:24 *242:12 0
16 *240:10 *242:10 0
17 *240:10 *242:12 0
18 *240:18 *242:12 0
*RES
1 *1095:X *242:6 40 
2 *242:6 *242:10 22.2377 
3 *242:10 *242:12 35.638 
4 *242:12 *1222:A 40.5356 
*END

*D_NET *243 0.0244197
*CONN
*I *1223:A I *D sg13g2_buf_1
*I *1096:X O *D sg13g2_buf_1
*CAP
1 *1223:A 0.000232333
2 *1096:X 0.000185433
3 *243:10 0.00403328
4 *243:8 0.00398638
5 *1223:A *1224:A 0
6 *243:10 *244:10 0.0126018
7 *243:10 *315:22 0.00314175
8 FrameData_O[10] *1223:A 0
9 FrameData_O[11] *243:10 0
10 FrameData_O[9] *243:10 0
11 *1092:A *243:8 0.000143351
12 *1099:A *243:8 4.75525e-05
13 *1222:A *1223:A 0
14 *30:23 *243:8 0
15 *66:17 *243:10 0
16 *230:28 *1223:A 4.77699e-05
17 *240:10 *243:10 0
18 *242:12 *243:10 0
*RES
1 *1096:X *243:8 41.6171 
2 *243:8 *243:10 59.1838 
3 *243:10 *1223:A 42.3999 
*END

*D_NET *244 0.024398
*CONN
*I *1224:A I *D sg13g2_buf_1
*I *1097:X O *D sg13g2_buf_1
*CAP
1 *1224:A 5.65483e-05
2 *1097:X 0.000222982
3 *244:10 0.00332999
4 *244:8 0.00349643
5 *244:10 *308:14 0
6 *1223:A *1224:A 0
7 *27:21 *244:8 0.00014491
8 *78:13 *244:10 0.00454528
9 *241:10 *244:10 0
10 *243:10 *244:10 0.0126018
*RES
1 *1097:X *244:8 41.8334 
2 *244:8 *244:10 59.9254 
3 *244:10 *1224:A 40.5356 
*END

*D_NET *245 0.0208541
*CONN
*I *1225:A I *D sg13g2_buf_1
*I *1120:X O *D sg13g2_buf_1
*CAP
1 *1225:A 0
2 *1120:X 0
3 *245:20 0.000530101
4 *245:14 0.00340909
5 *245:12 0.00359488
6 *245:6 0.000715892
7 *220:14 *245:12 0
8 *220:16 *245:14 0.011139
9 *224:14 *245:14 0.00146513
*RES
1 *1120:X *245:6 40 
2 *245:6 *245:12 47.0246 
3 *245:12 *245:14 52.5094 
4 *245:14 *245:20 46.1594 
5 *245:20 *1225:A 40 
*END

*D_NET *246 0.00302302
*CONN
*I *1226:A I *D sg13g2_buf_1
*I *1130:X O *D sg13g2_buf_1
*CAP
1 *1226:A 0
2 *1130:X 0.00151151
3 *246:10 0.00151151
4 *246:10 *258:8 0
5 *109:27 *246:10 0
6 *111:23 *246:10 0
*RES
1 *1130:X *246:10 33.7814 
2 *246:10 *1226:A 20 
*END

*D_NET *247 0.00427213
*CONN
*I *1227:A I *D sg13g2_buf_1
*I *1131:X O *D sg13g2_buf_1
*CAP
1 *1227:A 0
2 *1131:X 0.000894809
3 *247:14 0.00124125
4 *247:10 0.00213606
5 *1167:A *247:14 0
6 *1174:A *247:10 0
7 *132:13 *247:10 0
8 *209:9 *247:10 0
*RES
1 *1131:X *247:10 47.1276 
2 *247:10 *247:14 31.3506 
3 *247:14 *1227:A 20 
*END

*D_NET *248 0.00420791
*CONN
*I *1228:A I *D sg13g2_buf_1
*I *1132:X O *D sg13g2_buf_1
*CAP
1 *1228:A 0
2 *1132:X 0.000693298
3 *248:14 0.00122063
4 *248:10 0.00191393
5 *248:10 *1289:A 0
6 *248:10 *249:8 0
7 *248:10 *263:10 0
8 *248:10 *285:10 0
9 *1132:A *248:10 0
10 *1198:A *248:10 0.000144998
11 *132:13 *248:10 0.000235055
12 *133:19 *248:10 0
13 *209:9 *248:10 0
*RES
1 *1132:X *248:10 46.7568 
2 *248:10 *248:14 31.1343 
3 *248:14 *1228:A 20 
*END

*D_NET *249 0.00458499
*CONN
*I *1229:A I *D sg13g2_buf_1
*I *1133:X O *D sg13g2_buf_1
*CAP
1 *1229:A 0
2 *1133:X 0.000473446
3 *249:14 0.00120573
4 *249:8 0.00167918
5 *249:8 *263:10 0
6 *249:8 *285:10 0
7 *1198:A *249:14 0.000726801
8 *215:26 *249:14 0.000499837
9 *248:10 *249:8 0
*RES
1 *1133:X *249:8 44.0582 
2 *249:8 *249:14 32.3497 
3 *249:14 *1229:A 20 
*END

*D_NET *250 0.00327905
*CONN
*I *1230:A I *D sg13g2_buf_1
*I *1134:X O *D sg13g2_buf_1
*CAP
1 *1230:A 0
2 *1134:X 0.000314146
3 *250:16 0.0012613
4 *250:10 0.00157545
5 *250:10 *263:10 0
6 *250:10 *285:10 0
7 *72:9 *250:10 0.00012816
8 *72:9 *250:16 0
9 *74:13 *250:10 0
10 *74:13 *250:16 0
*RES
1 *1134:X *250:10 42.9252 
2 *250:10 *250:16 32.1952 
3 *250:16 *1230:A 20 
*END

*D_NET *251 0.00367052
*CONN
*I *1231:A I *D sg13g2_buf_1
*I *1135:X O *D sg13g2_buf_1
*CAP
1 *1231:A 0
2 *1135:X 0.0012488
3 *251:16 0.00012349
4 *251:10 0.00137229
5 *251:10 *255:8 0
6 *251:10 *256:16 0.00092593
7 *1135:A *251:10 0
8 *74:13 *251:10 0
9 *236:12 *251:16 0
*RES
1 *1135:X *251:10 32.669 
2 *251:10 *251:16 41.339 
3 *251:16 *1231:A 20 
*END

*D_NET *252 0.0101434
*CONN
*I *1232:A I *D sg13g2_buf_1
*I *1100:X O *D sg13g2_buf_1
*CAP
1 *1232:A 0
2 *1100:X 0
3 *252:18 0
4 *252:14 0.00467741
5 *252:12 0.00490044
6 *252:6 0.000223026
7 *23:19 *252:14 0.00034256
8 *28:17 *252:14 0
9 *29:25 *252:12 0
10 *134:19 *252:14 0
*RES
1 *1100:X *252:6 40 
2 *252:6 *252:12 41.6171 
3 *252:12 *252:14 60.1726 
4 *252:14 *252:18 40 
5 *252:18 *1232:A 40 
*END

*D_NET *253 0.00255606
*CONN
*I *1233:A I *D sg13g2_buf_1
*I *1136:X O *D sg13g2_buf_1
*CAP
1 *1233:A 0.00030013
2 *1136:X 0.000977898
3 *253:8 0.00127803
4 *253:8 *255:8 0
5 *236:12 *1233:A 0
*RES
1 *1136:X *253:8 49.1876 
2 *253:8 *1233:A 43.3166 
*END

*D_NET *254 0.00439132
*CONN
*I *1234:A I *D sg13g2_buf_1
*I *1137:X O *D sg13g2_buf_1
*CAP
1 *1234:A 0
2 *1137:X 0.0012425
3 *254:16 0.000953163
4 *254:8 0.00219566
5 *232:10 *254:16 0
6 *233:12 *254:16 0
*RES
1 *1137:X *254:8 31.9171 
2 *254:8 *254:16 47.6529 
3 *254:16 *1234:A 20 
*END

*D_NET *255 0.00780072
*CONN
*I *1235:A I *D sg13g2_buf_1
*I *1138:X O *D sg13g2_buf_1
*CAP
1 *1235:A 0
2 *1138:X 0.000448004
3 *255:14 0.0017983
4 *255:8 0.0022463
5 *255:8 *256:16 0
6 *255:14 *307:10 0
7 *225:12 *255:14 0.00330812
8 *231:20 *255:14 0
9 *251:10 *255:8 0
10 *253:8 *255:8 0
*RES
1 *1138:X *255:8 44.429 
2 *255:8 *255:14 40.0438 
3 *255:14 *1235:A 20 
*END

*D_NET *256 0.0115764
*CONN
*I *1236:A I *D sg13g2_buf_1
*I *1139:X O *D sg13g2_buf_1
*CAP
1 *1236:A 0
2 *1139:X 0.000733537
3 *256:22 0.00212352
4 *256:16 0.00285706
5 *256:22 *307:10 0
6 *1135:A *256:16 0
7 *1212:A *256:22 0
8 *1216:A *256:22 0
9 *221:8 *256:22 0.00493639
10 *251:10 *256:16 0.00092593
11 *255:8 *256:16 0
*RES
1 *1139:X *256:16 47.931 
2 *256:16 *256:22 49.0048 
3 *256:22 *1236:A 20 
*END

*D_NET *257 0.0185222
*CONN
*I *1237:A I *D sg13g2_buf_1
*I *1121:X O *D sg13g2_buf_1
*CAP
1 *1237:A 0.000310153
2 *1121:X 0.000686515
3 *257:10 0.00342506
4 *257:8 0.00380142
5 *257:8 *1246:A 0
6 *257:8 *258:8 0
7 *257:8 *260:10 0
8 *257:10 *258:12 0
9 *17:5 *257:10 0.00899754
10 *18:5 *257:10 0
11 *226:12 *257:10 0.00130151
*RES
1 *1121:X *257:8 42.9298 
2 *257:8 *257:10 45.3406 
3 *257:10 *1237:A 43.1312 
*END

*D_NET *258 0.0230959
*CONN
*I *1238:A I *D sg13g2_buf_1
*I *1122:X O *D sg13g2_buf_1
*CAP
1 *1238:A 0.000357032
2 *1122:X 0.00131492
3 *258:12 0.00227756
4 *258:10 0.00192053
5 *258:8 0.00131492
6 *17:5 *258:12 0.00782204
7 *19:13 *258:12 0.00808895
8 *28:23 *258:8 0
9 *78:13 *258:8 0
10 *79:21 *258:8 0
11 *109:27 *258:8 0
12 *226:12 *258:12 0
13 *228:8 *258:12 0
14 *230:10 *258:8 0
15 *246:10 *258:8 0
16 *257:8 *258:8 0
17 *257:10 *258:12 0
*RES
1 *1122:X *258:8 31.9171 
2 *258:8 *258:10 20 
3 *258:10 *258:12 41.3854 
4 *258:12 *1238:A 43.5638 
*END

*D_NET *259 0.0158778
*CONN
*I *1239:A I *D sg13g2_buf_1
*I *1123:X O *D sg13g2_buf_1
*CAP
1 *1239:A 0.000630185
2 *1123:X 0.000734876
3 *259:12 0.00348596
4 *259:10 0.00359065
5 *259:10 *260:10 0.00046538
6 *259:10 *307:8 0.000175693
7 *259:12 *260:14 0
8 *1101:A *259:10 0
9 *2:17 *259:10 0.000176178
10 *11:13 *259:12 0
11 *13:9 *259:12 0
12 *14:5 *259:12 0.00627689
13 *79:21 *259:10 0
14 *221:8 *259:12 0.000342034
15 *230:10 *259:10 0
*RES
1 *1123:X *259:10 47.3748 
2 *259:10 *259:12 32.9806 
3 *259:12 *1239:A 46.1594 
*END

*D_NET *260 0.00933933
*CONN
*I *1240:A I *D sg13g2_buf_1
*I *1124:X O *D sg13g2_buf_1
*CAP
1 *1240:A 0.000572511
2 *1124:X 0.000391854
3 *260:14 0.00370058
4 *260:10 0.00351992
5 *260:10 *1246:A 0.000272337
6 *260:10 *307:8 0
7 *260:14 *307:10 0.00012816
8 *11:13 *260:14 0.000288588
9 *14:5 *260:14 0
10 *15:7 *260:14 0
11 *15:13 *260:14 0
12 *225:12 *260:14 0
13 *227:8 *260:14 0
14 *257:8 *260:10 0
15 *259:10 *260:10 0.00046538
16 *259:12 *260:14 0
*RES
1 *1124:X *260:10 44.1303 
2 *260:10 *260:14 47.7894 
3 *260:14 *1240:A 25.5105 
*END

*D_NET *261 0.00809793
*CONN
*I *1241:A I *D sg13g2_buf_1
*I *1125:X O *D sg13g2_buf_1
*CAP
1 *1241:A 0
2 *1125:X 2.64812e-05
3 *261:16 0.00226557
4 *261:8 0.00229205
5 *11:5 *261:16 0
6 *111:9 *261:16 0
7 *135:13 *261:16 0.00351383
*RES
1 *1125:X *261:8 40.3193 
2 *261:8 *261:16 47.0684 
3 *261:16 *1241:A 20 
*END

*D_NET *262 0.00687711
*CONN
*I *1242:A I *D sg13g2_buf_1
*I *1126:X O *D sg13g2_buf_1
*CAP
1 *1242:A 0
2 *1126:X 0.00105243
3 *262:14 0.000703975
4 *262:8 0.0017564
5 *262:8 *264:12 0
6 *1128:A *262:8 0
7 *9:15 *262:8 0
8 *16:5 *262:14 0.00168276
9 *19:13 *262:14 0.00168155
10 *215:14 *262:8 0
*RES
1 *1126:X *262:8 49.1876 
2 *262:8 *262:14 31.7626 
3 *262:14 *1242:A 20 
*END

*D_NET *263 0.0164114
*CONN
*I *1243:A I *D sg13g2_buf_1
*I *1101:X O *D sg13g2_buf_1
*CAP
1 *1243:A 8.06105e-05
2 *1101:X 2.44042e-05
3 *263:10 0.00585966
4 *263:8 0.00580345
5 *263:10 *274:22 0
6 FrameData_O[13] *1243:A 0
7 *2:17 *263:10 0
8 *72:9 *263:10 0
9 *125:9 *263:10 0
10 *132:13 *263:10 0
11 *209:9 *263:10 0
12 *220:8 *263:10 0
13 *230:18 *263:10 0.00464325
14 *230:28 *263:10 0
15 *248:10 *263:10 0
16 *249:8 *263:10 0
17 *250:10 *263:10 0
*RES
1 *1101:X *263:8 40.3193 
2 *263:8 *263:10 59.1838 
3 *263:10 *1243:A 40.7519 
*END

*D_NET *264 0.0023208
*CONN
*I *1244:A I *D sg13g2_buf_1
*I *1127:X O *D sg13g2_buf_1
*CAP
1 *1244:A 0
2 *1127:X 0.0011604
3 *264:12 0.0011604
4 *9:15 *264:12 0
5 *262:8 *264:12 0
*RES
1 *1127:X *264:12 31.227 
2 *264:12 *1244:A 20 
*END

*D_NET *265 0.00293929
*CONN
*I *1245:A I *D sg13g2_buf_1
*I *1128:X O *D sg13g2_buf_1
*CAP
1 *1245:A 0.00100423
2 *1128:X 6.92695e-05
3 *265:8 0.0010735
4 *1111:A *1245:A 0
5 *1113:A *1245:A 0
6 *7:21 *265:8 0.000396398
7 *111:9 *265:8 0.000395896
8 *226:8 *1245:A 0
9 *233:8 *1245:A 0
*RES
1 *1128:X *265:8 41.8334 
2 *265:8 *1245:A 49.1876 
*END

*D_NET *266 0.00194176
*CONN
*I *1246:A I *D sg13g2_buf_1
*I *1129:X O *D sg13g2_buf_1
*CAP
1 *1246:A 0.000826982
2 *1129:X 0.000826982
3 *1114:A *1246:A 0
4 *1119:A *1246:A 1.54556e-05
5 *225:10 *1246:A 0
6 *232:8 *1246:A 0
7 *257:8 *1246:A 0
8 *260:10 *1246:A 0.000272337
*RES
1 *1129:X *1246:A 48.0855 
*END

*D_NET *267 0.00509757
*CONN
*I *1247:A I *D sg13g2_buf_1
*I *1140:X O *D sg13g2_buf_1
*CAP
1 *1247:A 0
2 *1140:X 0.000391138
3 *267:18 0.00106905
4 *267:10 0.00146018
5 *1128:A *267:18 0
6 *115:9 *267:18 0.00200151
7 *120:15 *267:18 0
8 *129:23 *267:18 0.000175693
9 *130:15 *267:10 0
10 *153:21 *267:10 0
11 *216:16 *267:10 0
*RES
1 *1140:X *267:10 42.927 
2 *267:10 *267:18 31.8347 
3 *267:18 *1247:A 20 
*END

*D_NET *268 0.00115422
*CONN
*I *1248:A I *D sg13g2_buf_1
*I *1141:X O *D sg13g2_buf_1
*CAP
1 *1248:A 3.94739e-05
2 *1141:X 0.000178241
3 *268:8 0.000217715
4 *116:21 *268:8 0.000542263
5 *144:13 *1248:A 5.58e-06
6 *144:25 *268:8 0.000170948
*RES
1 *1141:X *268:8 42.5286 
2 *268:8 *1248:A 40.3116 
*END

*D_NET *269 0.00149566
*CONN
*I *1249:A I *D sg13g2_buf_1
*I *1142:X O *D sg13g2_buf_1
*CAP
1 *1249:A 3.34444e-05
2 *1142:X 0.000135935
3 *269:8 0.00016938
4 S1BEG[0] *1249:A 4.77425e-05
5 *119:11 *269:8 0.00060761
6 *124:9 *269:8 0.000501546
*RES
1 *1142:X *269:8 42.8222 
2 *269:8 *1249:A 40.3193 
*END

*D_NET *270 0.000526561
*CONN
*I *1250:A I *D sg13g2_buf_1
*I *1143:X O *D sg13g2_buf_1
*CAP
1 *1250:A 0.000223667
2 *1143:X 0.000223667
3 *1128:A *1250:A 7.92265e-05
*RES
1 *1143:X *1250:A 41.9673 
*END

*D_NET *271 0.00194116
*CONN
*I *1251:A I *D sg13g2_buf_1
*I *1144:X O *D sg13g2_buf_1
*CAP
1 *1251:A 3.64539e-05
2 *1144:X 0.000442469
3 *271:10 0.000478923
4 *116:21 *271:10 0.000388074
5 *142:15 *1251:A 4.77425e-05
6 *143:13 *1251:A 4.77425e-05
7 *146:17 *271:10 0.000388074
8 *160:10 *271:10 0.000111685
*RES
1 *1144:X *271:10 44.9363 
2 *271:10 *1251:A 40.4506 
*END

*D_NET *272 0.00134341
*CONN
*I *1252:A I *D sg13g2_buf_1
*I *1145:X O *D sg13g2_buf_1
*CAP
1 *1252:A 3.04198e-05
2 *1145:X 0.000131794
3 *272:8 0.000162213
4 *272:8 *275:8 0.00034162
5 *272:8 *306:10 7.51285e-05
6 S1BEG[0] *1252:A 4.77425e-05
7 *117:13 *272:8 0.000554492
*RES
1 *1145:X *272:8 42.575 
2 *272:8 *1252:A 40.3193 
*END

*D_NET *273 0.00187481
*CONN
*I *1253:A I *D sg13g2_buf_1
*I *1146:X O *D sg13g2_buf_1
*CAP
1 *1253:A 7.1373e-05
2 *1146:X 0.000230297
3 *273:8 0.00030167
4 *144:13 *1253:A 0.000112426
5 *145:13 *273:8 0.000765434
6 *156:13 *273:8 0.000393607
*RES
1 *1146:X *273:8 43.5638 
2 *273:8 *1253:A 40.7519 
*END

*D_NET *274 0.0112808
*CONN
*I *1254:A I *D sg13g2_buf_1
*I *1102:X O *D sg13g2_buf_1
*CAP
1 *1254:A 0
2 *1102:X 0
3 *274:22 0.00230933
4 *274:18 0.0024647
5 *274:12 0.00333107
6 *274:10 0.0031757
7 *274:6 0
8 *274:22 *285:10 0
9 *274:22 *296:8 0
10 FrameData_O[13] *274:22 0
11 FrameData_O[15] *274:22 0
12 *72:9 *274:22 0
13 *82:17 *274:12 0
14 *230:28 *274:22 0
15 *263:10 *274:22 0
*RES
1 *1102:X *274:6 40 
2 *274:6 *274:10 40 
3 *274:10 *274:12 36.4414 
4 *274:12 *274:18 41.6171 
5 *274:18 *274:22 45.3174 
6 *274:22 *1254:A 20 
*END

*D_NET *275 0.00170289
*CONN
*I *1255:A I *D sg13g2_buf_1
*I *1147:X O *D sg13g2_buf_1
*CAP
1 *1255:A 6.00664e-05
2 *1147:X 0.000236247
3 *275:8 0.000296314
4 *275:8 *316:18 0.000768644
5 *272:8 *275:8 0.00034162
*RES
1 *1147:X *275:8 43.5638 
2 *275:8 *1255:A 40.5356 
*END

*D_NET *276 0.00147429
*CONN
*I *1256:A I *D sg13g2_buf_1
*I *1148:X O *D sg13g2_buf_1
*CAP
1 *1256:A 4.37077e-05
2 *1148:X 0.000413472
3 *276:12 0.00045718
4 *276:12 *278:8 0.000128248
5 *276:12 *279:10 0.000143351
6 S1BEG[0] *1256:A 8.00842e-05
7 S1BEG[2] *1256:A 8.00842e-05
8 *1088:A *276:12 0
9 *160:10 *276:12 0.00012816
*RES
1 *1148:X *276:12 43.8625 
2 *276:12 *1256:A 40.5356 
*END

*D_NET *277 0.000777257
*CONN
*I *1257:A I *D sg13g2_buf_1
*I *1149:X O *D sg13g2_buf_1
*CAP
1 *1257:A 0.000268522
2 *1149:X 0.000268522
3 S2BEG[3] *1257:A 0
4 *1088:A *1257:A 0
5 *12:33 *1257:A 0.000240214
*RES
1 *1149:X *1257:A 42.9561 
*END

*D_NET *278 0.00115702
*CONN
*I *1258:A I *D sg13g2_buf_1
*I *1150:X O *D sg13g2_buf_1
*CAP
1 *1258:A 3.10709e-05
2 *1150:X 0.000171751
3 *278:8 0.000202822
4 *278:8 *279:10 0.000234311
5 S1BEG[3] *1258:A 0
6 S2BEG[1] *1258:A 4.76977e-05
7 *116:21 *278:8 0.000341119
8 *160:10 *278:8 0
9 *165:10 *278:8 0
10 *276:12 *278:8 0.000128248
*RES
1 *1150:X *278:8 42.575 
2 *278:8 *1258:A 40.3193 
*END

*D_NET *279 0.00143069
*CONN
*I *1259:A I *D sg13g2_buf_1
*I *1151:X O *D sg13g2_buf_1
*CAP
1 *1259:A 4.93451e-05
2 *1151:X 0.000232085
3 *279:10 0.00028143
4 *279:10 *280:12 0.000287672
5 S1BEG[3] *279:10 4.75151e-05
6 S2BEG[3] *1259:A 7.98484e-05
7 *12:33 *1259:A 0
8 *160:10 *279:10 7.51285e-05
9 *276:12 *279:10 0.000143351
10 *278:8 *279:10 0.000234311
*RES
1 *1151:X *279:10 43.0488 
2 *279:10 *1259:A 40.5356 
*END

*D_NET *280 0.00230306
*CONN
*I *1260:A I *D sg13g2_buf_1
*I *1152:X O *D sg13g2_buf_1
*CAP
1 *1260:A 0.000128429
2 *1152:X 0.000602917
3 *280:12 0.000731345
4 *280:12 *281:10 0.000233252
5 *280:12 *316:18 0
6 S1BEG[3] *280:12 7.98567e-05
7 S2BEGb[3] *1260:A 0.00011101
8 *23:27 *280:12 0
9 *162:10 *280:12 0.000128576
10 *168:8 *280:12 0
11 *279:10 *280:12 0.000287672
*RES
1 *1152:X *280:12 46.18 
2 *280:12 *1260:A 41.1845 
*END

*D_NET *281 0.00120136
*CONN
*I *1261:A I *D sg13g2_buf_1
*I *1153:X O *D sg13g2_buf_1
*CAP
1 *1261:A 4.3288e-05
2 *1153:X 0.000217542
3 *281:10 0.00026083
4 S2BEGb[0] *281:10 0.000143351
5 S2BEGb[3] *1261:A 7.98942e-05
6 S2BEGb[4] *1261:A 7.98942e-05
7 *140:17 *281:10 0
8 *234:12 *281:10 0.000143307
9 *280:12 *281:10 0.000233252
*RES
1 *1153:X *281:10 42.5544 
2 *281:10 *1261:A 40.5356 
*END

*D_NET *282 0.000685518
*CONN
*I *1262:A I *D sg13g2_buf_1
*I *1154:X O *D sg13g2_buf_1
*CAP
1 *1262:A 5.10268e-05
2 *1154:X 9.68058e-05
3 *282:10 0.000147833
4 S4BEG[1] *1262:A 8.00842e-05
5 *140:17 *282:10 0.00023464
6 *176:8 *282:10 7.51285e-05
*RES
1 *1154:X *282:10 41.4111 
2 *282:10 *1262:A 40.5356 
*END

*D_NET *283 0.00106041
*CONN
*I *1263:A I *D sg13g2_buf_1
*I *1155:X O *D sg13g2_buf_1
*CAP
1 *1263:A 0.000139693
2 *1155:X 0.000294845
3 *283:10 0.000434538
4 S2BEGb[4] *1263:A 0.000143791
5 S2BEGb[5] *1263:A 4.75444e-05
6 S2BEGb[6] *1263:A 0
7 *140:17 *283:10 0
8 *174:10 *283:10 0
*RES
1 *1155:X *283:10 42.3999 
2 *283:10 *1263:A 41.4008 
*END

*D_NET *284 0.00154087
*CONN
*I *1264:A I *D sg13g2_buf_1
*I *1156:X O *D sg13g2_buf_1
*CAP
1 *1264:A 0.000102621
2 *1156:X 0.00016694
3 *284:10 0.000269561
4 *284:10 *288:18 7.91802e-05
5 *284:10 *306:42 0.000126354
6 *284:10 *316:18 0.000444546
7 S2BEGb[6] *1264:A 0.00014391
8 S4BEG[2] *284:10 7.91802e-05
9 *140:17 *284:10 0
10 *174:10 *284:10 0.000128576
*RES
1 *1156:X *284:10 42.6162 
2 *284:10 *1264:A 40.9682 
*END

*D_NET *285 0.0236742
*CONN
*I *1265:A I *D sg13g2_buf_1
*I *1103:X O *D sg13g2_buf_1
*CAP
1 *1265:A 9.70891e-05
2 *1103:X 2.63207e-05
3 *285:10 0.00358248
4 *285:8 0.00351171
5 *1265:A *1276:A 0
6 *285:10 *296:8 0.0127631
7 *72:9 *285:10 0
8 *109:27 *285:10 0.00135916
9 *133:19 *285:10 0.00233428
10 *248:10 *285:10 0
11 *249:8 *285:10 0
12 *250:10 *285:10 0
13 *274:22 *285:10 0
*RES
1 *1103:X *285:8 40.3193 
2 *285:8 *285:10 59.6782 
3 *285:10 *1265:A 40.9682 
*END

*D_NET *286 0.00160724
*CONN
*I *1266:A I *D sg13g2_buf_1
*I *1157:X O *D sg13g2_buf_1
*CAP
1 *1266:A 0.000235906
2 *1157:X 0.00013835
3 *286:10 0.000374256
4 *1266:A *1267:A 0
5 *1266:A *306:26 0.000175725
6 *286:10 *288:18 0.000178292
7 *286:10 *306:42 0
8 S4BEG[1] *1266:A 0
9 S4BEG[2] *1266:A 0
10 S4BEG[4] *286:10 4.77425e-05
11 S4BEG[5] *286:10 4.77425e-05
12 *1155:A *1266:A 1.54008e-05
13 *140:17 *286:10 0.000393822
*RES
1 *1157:X *286:10 42.1527 
2 *286:10 *1266:A 42.1836 
*END

*D_NET *287 0.000649381
*CONN
*I *1267:A I *D sg13g2_buf_1
*I *1158:X O *D sg13g2_buf_1
*CAP
1 *1267:A 0.000293119
2 *1158:X 0.000293119
3 S2BEGb[6] *1267:A 0
4 S4BEG[2] *1267:A 0
5 *1122:A *1267:A 4.77425e-05
6 *1266:A *1267:A 0
7 *109:27 *1267:A 1.54008e-05
8 *239:8 *1267:A 0
*RES
1 *1158:X *1267:A 42.9149 
*END

*D_NET *288 0.00200357
*CONN
*I *1268:A I *D sg13g2_buf_1
*I *1159:X O *D sg13g2_buf_1
*CAP
1 *1268:A 0
2 *1159:X 7.50219e-05
3 *288:18 0.000707429
4 *288:8 0.000782451
5 *288:18 *289:10 0
6 *288:18 *306:42 0
7 S4BEG[2] *288:18 0
8 *83:31 *288:8 0.000181192
9 *140:17 *288:18 0
10 *284:10 *288:18 7.91802e-05
11 *286:10 *288:18 0.000178292
*RES
1 *1159:X *288:8 40.8446 
2 *288:8 *288:18 45.7783 
3 *288:18 *1268:A 40 
*END

*D_NET *289 0.0015846
*CONN
*I *1269:A I *D sg13g2_buf_1
*I *1160:X O *D sg13g2_buf_1
*CAP
1 *1269:A 7.35399e-05
2 *1160:X 0.000287306
3 *289:10 0.000360846
4 *289:10 *306:42 0.000551025
5 S4BEG[10] *1269:A 4.75525e-05
6 S4BEG[4] *289:10 0.000111114
7 S4BEG[9] *1269:A 7.98942e-05
8 *192:20 *289:10 7.33225e-05
9 *288:18 *289:10 0
*RES
1 *1160:X *289:10 43.3269 
2 *289:10 *1269:A 40.7519 
*END

*D_NET *290 0.000165684
*CONN
*I *1270:A I *D sg13g2_buf_1
*I *1170:X O *D sg13g2_buf_1
*CAP
1 *1270:A 8.28421e-05
2 *1170:X 8.28421e-05
3 *1270:A *1283:A 0
*RES
1 *1170:X *1270:A 40.9167 
*END

*D_NET *291 0.000285392
*CONN
*I *1271:A I *D sg13g2_buf_1
*I *1171:X O *D sg13g2_buf_1
*CAP
1 *1271:A 0.000102654
2 *1171:X 0.000102654
3 SS4BEG[7] *1271:A 0
4 *203:10 *1271:A 8.00842e-05
*RES
1 *1171:X *1271:A 41.133 
*END

*D_NET *292 0.00218763
*CONN
*I *1272:A I *D sg13g2_buf_1
*I *1172:X O *D sg13g2_buf_1
*CAP
1 *1272:A 0.000218378
2 *1172:X 0.000302938
3 *292:12 0.000521316
4 *1272:A *1284:A 0
5 *292:12 *293:10 0.000596121
6 SS4BEG[10] *292:12 0.000112426
7 *134:31 *292:12 0
8 *135:23 *292:12 0.000335047
9 *182:10 *1272:A 7.92265e-05
10 *200:12 *1272:A 2.21754e-05
*RES
1 *1172:X *292:12 43.8934 
2 *292:12 *1272:A 41.9673 
*END

*D_NET *293 0.00345028
*CONN
*I *1273:A I *D sg13g2_buf_1
*I *1173:X O *D sg13g2_buf_1
*CAP
1 *1273:A 0
2 *1173:X 0.000341977
3 *293:16 0.000451502
4 *293:10 0.000793479
5 *293:10 *316:30 0.00101822
6 *134:31 *293:10 7.48466e-05
7 *137:23 *293:16 0.00017413
8 *181:16 *293:16 0
9 *183:14 *293:10 0
10 *183:14 *293:16 0
11 *292:12 *293:10 0.000596121
*RES
1 *1173:X *293:10 45.3972 
2 *293:10 *293:16 43.5638 
3 *293:16 *1273:A 40 
*END

*D_NET *294 0.000728462
*CONN
*I *1274:A I *D sg13g2_buf_1
*I *1174:X O *D sg13g2_buf_1
*CAP
1 *1274:A 2.59337e-05
2 *1174:X 0.000164646
3 *294:8 0.000190579
4 *294:8 *306:42 0.000229522
5 *294:8 *311:30 2.22695e-05
6 SS4BEG[6] *1274:A 4.77699e-05
7 *193:10 *294:8 0
8 *203:10 *1274:A 4.77425e-05
9 *239:16 *294:8 0
*RES
1 *1174:X *294:8 41.5862 
2 *294:8 *1274:A 40.3193 
*END

*D_NET *295 0.00263491
*CONN
*I *1275:A I *D sg13g2_buf_1
*I *1175:X O *D sg13g2_buf_1
*CAP
1 *1275:A 7.54885e-05
2 *1175:X 0.000142931
3 *295:18 0.000286801
4 *295:8 0.000354243
5 SS4BEG[2] *1275:A 0
6 SS4BEG[6] *295:18 0.000143351
7 *77:21 *295:18 0
8 *200:12 *295:18 0.000143351
9 *234:24 *295:18 0.000181338
10 *238:18 *295:8 0.000653705
11 *239:16 *295:8 0.000653705
*RES
1 *1175:X *295:8 43.0694 
2 *295:8 *295:18 42.3484 
3 *295:18 *1275:A 40.7519 
*END

*D_NET *296 0.0243618
*CONN
*I *1276:A I *D sg13g2_buf_1
*I *1104:X O *D sg13g2_buf_1
*CAP
1 *1276:A 7.04452e-05
2 *1104:X 0
3 *296:8 0.00317918
4 *296:6 0.00310873
5 *296:8 *312:10 0.00524033
6 FrameData_O[15] *296:8 0
7 *1265:A *1276:A 0
8 *74:13 *296:8 0
9 *214:18 *296:8 0
10 *274:22 *296:8 0
11 *285:10 *296:8 0.0127631
*RES
1 *1104:X *296:6 40 
2 *296:6 *296:8 59.6782 
3 *296:8 *1276:A 40.7519 
*END

*D_NET *297 0.000229316
*CONN
*I *1277:A I *D sg13g2_buf_1
*I *1161:X O *D sg13g2_buf_1
*CAP
1 *1277:A 9.07868e-05
2 *1161:X 9.07868e-05
3 S4BEG[5] *1277:A 4.77425e-05
4 *111:23 *1277:A 0
*RES
1 *1161:X *1277:A 40.9167 
*END

*D_NET *298 0.000202941
*CONN
*I *1278:A I *D sg13g2_buf_1
*I *1162:X O *D sg13g2_buf_1
*CAP
1 *1278:A 0.00010147
2 *1162:X 0.00010147
*RES
1 *1162:X *1278:A 41.1639 
*END

*D_NET *299 0.000194661
*CONN
*I *1279:A I *D sg13g2_buf_1
*I *1163:X O *D sg13g2_buf_1
*CAP
1 *1279:A 7.41318e-05
2 *1163:X 7.41318e-05
3 S4BEG[10] *1279:A 0
4 S4BEG[13] *1279:A 4.63974e-05
*RES
1 *1163:X *1279:A 40.8626 
*END

*D_NET *300 0.00132404
*CONN
*I *1280:A I *D sg13g2_buf_1
*I *1164:X O *D sg13g2_buf_1
*CAP
1 *1280:A 0.000124529
2 *1164:X 0.00022356
3 *300:10 0.000348089
4 *300:10 *306:42 0
5 *300:10 *316:30 2.14736e-05
6 S4BEG[10] *1280:A 0.000175693
7 S4BEG[14] *300:10 4.75151e-05
8 S4BEG[6] *1280:A 0
9 *182:10 *300:10 7.33225e-05
10 *190:16 *300:10 0.000128576
11 *192:20 *300:10 0.000181279
*RES
1 *1164:X *300:10 42.3999 
2 *300:10 *1280:A 41.1845 
*END

*D_NET *301 0.00130002
*CONN
*I *1281:A I *D sg13g2_buf_1
*I *1165:X O *D sg13g2_buf_1
*CAP
1 *1281:A 0.0001706
2 *1165:X 0.000162259
3 *301:8 0.00033286
4 *111:23 *1281:A 0.000240569
5 *239:16 *301:8 0.000393736
*RES
1 *1165:X *301:8 41.8334 
2 *301:8 *1281:A 41.6171 
*END

*D_NET *302 0.00258639
*CONN
*I *1282:A I *D sg13g2_buf_1
*I *1166:X O *D sg13g2_buf_1
*CAP
1 *1282:A 0.000263806
2 *1166:X 0.000383021
3 *302:16 0.000646826
4 *302:16 *1285:A 4.77425e-05
5 *302:16 *306:42 7.51285e-05
6 *302:16 *316:18 0
7 S4BEG[6] *1282:A 0
8 SS4BEG[0] *302:16 0.000132527
9 SS4BEG[1] *302:16 0.000143351
10 *83:23 *302:16 0
11 *126:23 *302:16 0.000287296
12 *192:12 *302:16 0
13 *239:16 *302:16 0.000606693
*RES
1 *1166:X *302:16 45.2427 
2 *302:16 *1282:A 42.0497 
*END

*D_NET *303 0.000766954
*CONN
*I *1283:A I *D sg13g2_buf_1
*I *1167:X O *D sg13g2_buf_1
*CAP
1 *1283:A 0.000279446
2 *1167:X 0.000279446
3 S4BEG[10] *1283:A 0
4 *1270:A *1283:A 0
5 *83:23 *1283:A 0.000208062
*RES
1 *1167:X *1283:A 42.9561 
*END

*D_NET *304 0.000246078
*CONN
*I *1284:A I *D sg13g2_buf_1
*I *1168:X O *D sg13g2_buf_1
*CAP
1 *1284:A 0.000123039
2 *1168:X 0.000123039
3 SS4BEG[2] *1284:A 0
4 *1272:A *1284:A 0
5 *138:25 *1284:A 0
*RES
1 *1168:X *1284:A 41.3493 
*END

*D_NET *305 0.000344545
*CONN
*I *1285:A I *D sg13g2_buf_1
*I *1169:X O *D sg13g2_buf_1
*CAP
1 *1285:A 0.00012453
2 *1169:X 0.00012453
3 SS4BEG[1] *1285:A 4.77425e-05
4 *302:16 *1285:A 4.77425e-05
*RES
1 *1169:X *1285:A 41.3493 
*END

*D_NET *306 0.0125119
*CONN
*I *1286:A I *D sg13g2_buf_1
*I *1176:X O *D sg13g2_buf_1
*CAP
1 *1286:A 0
2 *1176:X 0.000182148
3 *306:42 0.00097505
4 *306:26 0.00168041
5 *306:20 0.00113259
6 *306:10 0.000609382
7 *306:10 *316:18 0.000182315
8 *306:26 *316:18 0
9 *306:42 *316:18 0.00122551
10 S4BEG[2] *306:26 0.000175693
11 *1147:A *306:20 4.77425e-05
12 *1266:A *306:26 0.000175725
13 *83:23 *306:42 0.000649654
14 *117:13 *306:20 0.000712343
15 *130:25 *306:20 0
16 *130:25 *306:26 0.00129419
17 *142:15 *306:10 0.000175693
18 *182:10 *306:42 0.000126873
19 *192:20 *306:42 0
20 *200:12 *306:42 0.000493782
21 *213:8 *306:26 0.00161569
22 *239:16 *306:42 0
23 *272:8 *306:10 7.51285e-05
24 *284:10 *306:42 0.000126354
25 *286:10 *306:42 0
26 *288:18 *306:42 0
27 *289:10 *306:42 0.000551025
28 *294:8 *306:42 0.000229522
29 *300:10 *306:42 0
30 *302:16 *306:42 7.51285e-05
*RES
1 *1176:X *306:10 42.0291 
2 *306:10 *306:20 44.635 
3 *306:20 *306:26 30.9283 
4 *306:26 *306:42 33.1737 
5 *306:42 *1286:A 40 
*END

*D_NET *307 0.0126297
*CONN
*I *1287:A I *D sg13g2_buf_1
*I *1105:X O *D sg13g2_buf_1
*CAP
1 *1287:A 0.000277061
2 *1105:X 0.00022178
3 *307:10 0.00586873
4 *307:8 0.00581345
5 FrameData_O[19] *1287:A 0
6 FrameData_O[20] *1287:A 0
7 FrameData_O[21] *1287:A 0
8 *1203:A *1287:A 0.000144799
9 *221:8 *307:10 0
10 *225:12 *307:10 0
11 *255:14 *307:10 0
12 *256:22 *307:10 0
13 *259:10 *307:8 0.000175693
14 *260:10 *307:8 0
15 *260:14 *307:10 0.00012816
*RES
1 *1105:X *307:8 42.0497 
2 *307:8 *307:10 57.4534 
3 *307:10 *1287:A 43.0488 
*END

*D_NET *308 0.0193813
*CONN
*I *1288:A I *D sg13g2_buf_1
*I *1186:X O *D sg13g2_buf_1
*CAP
1 *1288:A 0.000100503
2 *1186:X 0.000753641
3 *308:22 0.000826418
4 *308:14 0.00303139
5 *308:8 0.00305912
6 *2:11 *308:8 0.000272673
7 *12:33 *308:14 0
8 *27:13 *308:14 0.00311665
9 *31:17 *308:14 7.33256e-05
10 *65:9 *1288:A 0.00017625
11 *77:21 *308:22 0.000111102
12 *78:13 *308:14 0
13 *81:17 *308:14 0.00145908
14 *125:9 *308:14 0
15 *129:13 *308:8 0.000755197
16 *135:17 *308:22 0
17 *139:11 *308:8 0
18 *209:9 *1288:A 0.00017625
19 *218:8 *308:8 0
20 *234:24 *308:22 0.000969628
21 *238:18 *308:22 0.000967534
22 *241:10 *308:14 0.00353251
23 *244:10 *308:14 0
*RES
1 *1186:X *308:8 47.4572 
2 *308:8 *308:14 33.372 
3 *308:14 *308:22 48.9816 
4 *308:22 *1288:A 41.1845 
*END

*D_NET *309 0.0272182
*CONN
*I *1289:A I *D sg13g2_buf_1
*I *1187:X O *D sg13g2_buf_1
*CAP
1 *1289:A 0.00130345
2 *1187:X 0.00148028
3 *309:32 0.00224975
4 *309:24 0.00125138
5 *309:12 0.000882467
6 *309:8 0.00205767
7 *1289:A *312:16 0
8 *1132:A *1289:A 0.00133892
9 *1198:A *1289:A 0
10 *9:25 *309:12 0.00183648
11 *9:25 *309:24 8.00842e-05
12 *11:5 *309:12 0.00274701
13 *79:15 *1289:A 4.76977e-05
14 *80:27 *309:12 0.000289418
15 *80:27 *309:24 0.000356312
16 *80:27 *309:32 0.00450206
17 *81:11 *1289:A 0.00114629
18 *84:7 *1289:A 0
19 *84:11 *309:32 0.0045135
20 *214:16 *309:24 4.23121e-05
21 *214:18 *309:24 0
22 *214:18 *309:32 0
23 *216:16 *309:8 0
24 *218:8 *309:8 0
25 *218:18 *309:12 0.00109314
26 *223:10 *309:32 0
27 *248:10 *1289:A 0
*RES
1 *1187:X *309:8 31.9171 
2 *309:8 *309:12 34.1934 
3 *309:12 *309:24 43.5329 
4 *309:24 *309:32 42.2789 
5 *309:32 *1289:A 33.9462 
*END

*D_NET *310 0.0163004
*CONN
*I *1290:A I *D sg13g2_buf_1
*I *1188:X O *D sg13g2_buf_1
*CAP
1 *1290:A 0
2 *1188:X 0.000372077
3 *310:28 0.000556621
4 *310:20 0.00208423
5 *310:16 0.00212907
6 *310:8 0.000973545
7 *310:28 *314:14 0.000608154
8 *310:28 *317:16 0
9 *1173:A *310:28 0.000176511
10 *32:5 *310:16 0
11 *124:9 *310:16 0.00129746
12 *136:13 *310:8 0.000659625
13 *137:17 *310:20 0.00532455
14 *139:11 *310:8 0.000659405
15 *209:9 *310:28 0
16 *216:26 *310:20 0
17 *240:10 *310:28 0.00145911
18 *242:10 *310:28 0
*RES
1 *1188:X *310:8 44.429 
2 *310:8 *310:16 46.5714 
3 *310:16 *310:20 44.3286 
4 *310:20 *310:28 47.9619 
5 *310:28 *1290:A 20 
*END

*D_NET *311 0.0124264
*CONN
*I *1291:A I *D sg13g2_buf_1
*I *1189:X O *D sg13g2_buf_1
*CAP
1 *1291:A 0
2 *1189:X 0.000492673
3 *311:30 0.000496551
4 *311:24 0.00308807
5 *311:18 0.00270812
6 *311:12 0.000609269
7 *311:24 *313:28 0
8 *12:15 *311:12 7.02123e-05
9 *110:9 *311:12 0.000710633
10 *110:21 *311:24 0
11 *122:13 *311:12 7.51285e-05
12 *131:19 *311:24 0.00355101
13 *141:13 *311:12 0
14 *194:10 *311:30 0.000602488
15 *197:8 *311:30 0
16 *217:18 *311:24 0
17 *219:14 *311:24 0
18 *239:16 *311:30 0
19 *294:8 *311:30 2.22695e-05
*RES
1 *1189:X *311:12 45.7783 
2 *311:12 *311:18 41.1845 
3 *311:18 *311:24 33.6501 
4 *311:24 *311:30 44.5526 
5 *311:30 *1291:A 40 
*END

*D_NET *312 0.0224188
*CONN
*I *1292:A I *D sg13g2_buf_1
*I *1190:X O *D sg13g2_buf_1
*CAP
1 *1292:A 0
2 *1190:X 0.00132509
3 *312:16 0.00118365
4 *312:10 0.00436592
5 *312:8 0.00318227
6 *312:6 0.00132509
7 *312:6 *313:12 0.000143379
8 *1191:A *312:6 0.000175693
9 *1289:A *312:16 0
10 *7:21 *312:10 0
11 *8:5 *312:10 0.00108525
12 *8:21 *312:10 0.0011968
13 *9:15 *312:10 0.00146489
14 *76:11 *312:10 0
15 *81:11 *312:16 0.00122149
16 *82:11 *312:16 0
17 *84:7 *312:16 0
18 *109:9 *312:10 0.000445763
19 *109:19 *312:10 0
20 *109:27 *312:10 0
21 *111:9 *312:10 0
22 *135:11 *312:6 0
23 *136:13 *312:6 1.54008e-05
24 *137:13 *312:6 4.77425e-05
25 *139:11 *312:6 0
26 *214:18 *312:10 0
27 *296:8 *312:10 0.00524033
*RES
1 *1190:X *312:6 31.1343 
2 *312:6 *312:8 20 
3 *312:8 *312:10 42.127 
4 *312:10 *312:16 31.948 
5 *312:16 *1292:A 20 
*END

*D_NET *313 0.0161658
*CONN
*I *1293:A I *D sg13g2_buf_1
*I *1191:X O *D sg13g2_buf_1
*CAP
1 *1293:A 0
2 *1191:X 0.000280486
3 *313:34 6.39536e-05
4 *313:28 0.00134802
5 *313:24 0.00246253
6 *313:18 0.00124455
7 *313:12 0.000346578
8 *80:17 *313:34 0
9 *82:15 *313:34 0.000111863
10 *115:9 *313:12 0.000391531
11 *120:15 *313:12 0
12 *137:13 *313:12 0.000143351
13 *137:17 *313:24 0
14 *216:26 *313:24 0.00489845
15 *216:26 *313:28 0
16 *217:18 *313:28 0
17 *219:12 *313:18 0
18 *219:14 *313:24 0.00473114
19 *219:14 *313:28 0
20 *311:24 *313:28 0
21 *312:6 *313:12 0.000143379
*RES
1 *1191:X *313:12 43.1209 
2 *313:12 *313:18 40.5356 
3 *313:18 *313:24 45.0805 
4 *313:24 *313:28 32.9574 
5 *313:28 *313:34 40.7519 
6 *313:34 *1293:A 40 
*END

*D_NET *314 0.0115587
*CONN
*I *1294:A I *D sg13g2_buf_1
*I *1177:X O *D sg13g2_buf_1
*CAP
1 *1294:A 0
2 *1177:X 0.000304716
3 *314:14 0.00179496
4 *314:8 0.00209968
5 *314:14 *315:22 0
6 *314:14 *317:16 0.00528424
7 *29:25 *314:14 0
8 *32:5 *314:14 0.00146696
9 *240:10 *314:14 0
10 *310:28 *314:14 0.000608154
*RES
1 *1177:X *314:8 42.4823 
2 *314:8 *314:14 45.456 
3 *314:14 *1294:A 20 
*END

*D_NET *315 0.0128719
*CONN
*I *1295:A I *D sg13g2_buf_1
*I *1178:X O *D sg13g2_buf_1
*CAP
1 *1295:A 0
2 *1178:X 0.000670738
3 *315:22 0.00168083
4 *315:14 0.00235157
5 *4:19 *315:22 0.00108822
6 *27:21 *315:22 0.000340288
7 *29:25 *315:22 0.00023024
8 *31:17 *315:22 0
9 *32:5 *315:22 0
10 *66:17 *315:22 0.00162338
11 *105:13 *315:22 0
12 *106:13 *315:22 0
13 *129:13 *315:22 0.00156896
14 *143:13 *315:14 0.000175973
15 *144:25 *315:14 0
16 *151:17 *315:14 0
17 *240:10 *315:22 0
18 *243:10 *315:22 0.00314175
19 *314:14 *315:22 0
*RES
1 *1178:X *315:14 46.0976 
2 *315:14 *315:22 46.7285 
3 *315:22 *1295:A 20 
*END

*D_NET *316 0.0124838
*CONN
*I *1296:A I *D sg13g2_buf_1
*I *1179:X O *D sg13g2_buf_1
*CAP
1 *1296:A 0
2 *1179:X 3.12249e-05
3 *316:30 0.000810386
4 *316:18 0.00288611
5 *316:8 0.00210695
6 SS4BEG[15] *316:30 0.000112078
7 *67:21 *316:30 7.44237e-05
8 *117:13 *316:18 0
9 *126:23 *316:18 0
10 *143:13 *316:18 0
11 *144:13 *316:18 0.000555201
12 *146:17 *316:18 0
13 *153:21 *316:8 0
14 *155:13 *316:18 0
15 *160:10 *316:18 0
16 *162:10 *316:18 0.000502169
17 *173:8 *316:18 0.000182121
18 *180:18 *316:18 0
19 *181:16 *316:30 0.000225311
20 *182:10 *316:30 0.000551215
21 *184:8 *316:18 0.000600399
22 *187:8 *316:18 7.34778e-05
23 *190:16 *316:30 0
24 *193:10 *316:30 0
25 *194:10 *316:30 0
26 *197:8 *316:30 0
27 *206:14 *316:30 0
28 *208:10 *316:30 0
29 *209:9 *316:30 0.000112078
30 *213:8 *316:18 0
31 *275:8 *316:18 0.000768644
32 *280:12 *316:18 0
33 *284:10 *316:18 0.000444546
34 *293:10 *316:30 0.00101822
35 *300:10 *316:30 2.14736e-05
36 *302:16 *316:18 0
37 *306:10 *316:18 0.000182315
38 *306:26 *316:18 0
39 *306:42 *316:18 0.00122551
*RES
1 *1179:X *316:8 40.3193 
2 *316:8 *316:18 43.2471 
3 *316:18 *316:30 49.682 
4 *316:30 *1296:A 20 
*END

*D_NET *317 0.0135482
*CONN
*I *1297:A I *D sg13g2_buf_1
*I *1180:X O *D sg13g2_buf_1
*CAP
1 *1297:A 0
2 *1180:X 0.000282624
3 *317:16 0.00174101
4 *317:10 0.00202363
5 *1131:A *317:16 0.000112198
6 *1162:A *317:16 0
7 *32:5 *317:16 0
8 *124:9 *317:16 0.00103323
9 *129:23 *317:16 0
10 *136:33 *317:16 0.00273408
11 *215:14 *317:10 0.000337174
12 *242:10 *317:16 0
13 *310:28 *317:16 0
14 *314:14 *317:16 0.00528424
*RES
1 *1180:X *317:10 42.8634 
2 *317:10 *317:16 47.7997 
3 *317:16 *1297:A 20 
*END
