*SPEF "ieee 1481-1999"
*DESIGN "S_term_DSP"
*DATE "20:50:08 Monday August 25, 2025"
*VENDOR "The OpenROAD Project"
*PROGRAM "OpenROAD"
*VERSION "341650e72dad0dc8571822ff8c5d9c5e365327f7"
*DESIGN_FLOW "NAME_SCOPE LOCAL" "PIN_CAP NONE"
*DIVIDER /
*DELIMITER :
*BUS_DELIMITER []
*T_UNIT 1 NS
*C_UNIT 1 PF
*R_UNIT 1 OHM
*L_UNIT 1 HENRY

*NAME_MAP
*1 FrameData[0]
*2 FrameData[10]
*3 FrameData[11]
*4 FrameData[12]
*5 FrameData[13]
*6 FrameData[14]
*7 FrameData[15]
*8 FrameData[16]
*9 FrameData[17]
*10 FrameData[18]
*11 FrameData[19]
*12 FrameData[1]
*13 FrameData[20]
*14 FrameData[21]
*15 FrameData[22]
*16 FrameData[23]
*17 FrameData[24]
*18 FrameData[25]
*19 FrameData[26]
*20 FrameData[27]
*21 FrameData[28]
*22 FrameData[29]
*23 FrameData[2]
*24 FrameData[30]
*25 FrameData[31]
*26 FrameData[3]
*27 FrameData[4]
*28 FrameData[5]
*29 FrameData[6]
*30 FrameData[7]
*31 FrameData[8]
*32 FrameData[9]
*33 FrameData_O[0]
*34 FrameData_O[10]
*35 FrameData_O[11]
*36 FrameData_O[12]
*37 FrameData_O[13]
*38 FrameData_O[14]
*39 FrameData_O[15]
*40 FrameData_O[16]
*41 FrameData_O[17]
*42 FrameData_O[18]
*43 FrameData_O[19]
*44 FrameData_O[1]
*45 FrameData_O[20]
*46 FrameData_O[21]
*47 FrameData_O[22]
*48 FrameData_O[23]
*49 FrameData_O[24]
*50 FrameData_O[25]
*51 FrameData_O[26]
*52 FrameData_O[27]
*53 FrameData_O[28]
*54 FrameData_O[29]
*55 FrameData_O[2]
*56 FrameData_O[30]
*57 FrameData_O[31]
*58 FrameData_O[3]
*59 FrameData_O[4]
*60 FrameData_O[5]
*61 FrameData_O[6]
*62 FrameData_O[7]
*63 FrameData_O[8]
*64 FrameData_O[9]
*65 FrameStrobe[0]
*66 FrameStrobe[10]
*67 FrameStrobe[11]
*68 FrameStrobe[12]
*69 FrameStrobe[13]
*70 FrameStrobe[14]
*71 FrameStrobe[15]
*72 FrameStrobe[16]
*73 FrameStrobe[17]
*74 FrameStrobe[18]
*75 FrameStrobe[19]
*76 FrameStrobe[1]
*77 FrameStrobe[2]
*78 FrameStrobe[3]
*79 FrameStrobe[4]
*80 FrameStrobe[5]
*81 FrameStrobe[6]
*82 FrameStrobe[7]
*83 FrameStrobe[8]
*84 FrameStrobe[9]
*85 FrameStrobe_O[0]
*86 FrameStrobe_O[10]
*87 FrameStrobe_O[11]
*88 FrameStrobe_O[12]
*89 FrameStrobe_O[13]
*90 FrameStrobe_O[14]
*91 FrameStrobe_O[15]
*92 FrameStrobe_O[16]
*93 FrameStrobe_O[17]
*94 FrameStrobe_O[18]
*95 FrameStrobe_O[19]
*96 FrameStrobe_O[1]
*97 FrameStrobe_O[2]
*98 FrameStrobe_O[3]
*99 FrameStrobe_O[4]
*100 FrameStrobe_O[5]
*101 FrameStrobe_O[6]
*102 FrameStrobe_O[7]
*103 FrameStrobe_O[8]
*104 FrameStrobe_O[9]
*105 N1BEG[0]
*106 N1BEG[1]
*107 N1BEG[2]
*108 N1BEG[3]
*109 N2BEG[0]
*110 N2BEG[1]
*111 N2BEG[2]
*112 N2BEG[3]
*113 N2BEG[4]
*114 N2BEG[5]
*115 N2BEG[6]
*116 N2BEG[7]
*117 N2BEGb[0]
*118 N2BEGb[1]
*119 N2BEGb[2]
*120 N2BEGb[3]
*121 N2BEGb[4]
*122 N2BEGb[5]
*123 N2BEGb[6]
*124 N2BEGb[7]
*125 N4BEG[0]
*126 N4BEG[10]
*127 N4BEG[11]
*128 N4BEG[12]
*129 N4BEG[13]
*130 N4BEG[14]
*131 N4BEG[15]
*132 N4BEG[1]
*133 N4BEG[2]
*134 N4BEG[3]
*135 N4BEG[4]
*136 N4BEG[5]
*137 N4BEG[6]
*138 N4BEG[7]
*139 N4BEG[8]
*140 N4BEG[9]
*141 NN4BEG[0]
*142 NN4BEG[10]
*143 NN4BEG[11]
*144 NN4BEG[12]
*145 NN4BEG[13]
*146 NN4BEG[14]
*147 NN4BEG[15]
*148 NN4BEG[1]
*149 NN4BEG[2]
*150 NN4BEG[3]
*151 NN4BEG[4]
*152 NN4BEG[5]
*153 NN4BEG[6]
*154 NN4BEG[7]
*155 NN4BEG[8]
*156 NN4BEG[9]
*157 S1END[0]
*158 S1END[1]
*159 S1END[2]
*160 S1END[3]
*161 S2END[0]
*162 S2END[1]
*163 S2END[2]
*164 S2END[3]
*165 S2END[4]
*166 S2END[5]
*167 S2END[6]
*168 S2END[7]
*169 S2MID[0]
*170 S2MID[1]
*171 S2MID[2]
*172 S2MID[3]
*173 S2MID[4]
*174 S2MID[5]
*175 S2MID[6]
*176 S2MID[7]
*177 S4END[0]
*178 S4END[10]
*179 S4END[11]
*180 S4END[12]
*181 S4END[13]
*182 S4END[14]
*183 S4END[15]
*184 S4END[1]
*185 S4END[2]
*186 S4END[3]
*187 S4END[4]
*188 S4END[5]
*189 S4END[6]
*190 S4END[7]
*191 S4END[8]
*192 S4END[9]
*193 SS4END[0]
*194 SS4END[10]
*195 SS4END[11]
*196 SS4END[12]
*197 SS4END[13]
*198 SS4END[14]
*199 SS4END[15]
*200 SS4END[1]
*201 SS4END[2]
*202 SS4END[3]
*203 SS4END[4]
*204 SS4END[5]
*205 SS4END[6]
*206 SS4END[7]
*207 SS4END[8]
*208 SS4END[9]
*209 UserCLK
*210 UserCLKo
*213 net1
*214 net10
*215 net100
*216 net101
*217 net102
*218 net103
*219 net104
*220 net105
*221 net11
*222 net12
*223 net13
*224 net14
*225 net15
*226 net16
*227 net17
*228 net18
*229 net19
*230 net2
*231 net20
*232 net21
*233 net22
*234 net23
*235 net24
*236 net25
*237 net26
*238 net27
*239 net28
*240 net29
*241 net3
*242 net30
*243 net31
*244 net32
*245 net33
*246 net34
*247 net35
*248 net36
*249 net37
*250 net38
*251 net39
*252 net4
*253 net40
*254 net41
*255 net42
*256 net43
*257 net44
*258 net45
*259 net46
*260 net47
*261 net48
*262 net49
*263 net5
*264 net50
*265 net51
*266 net52
*267 net53
*268 net54
*269 net55
*270 net56
*271 net57
*272 net58
*273 net59
*274 net6
*275 net60
*276 net61
*277 net62
*278 net63
*279 net64
*280 net65
*281 net66
*282 net67
*283 net68
*284 net69
*285 net7
*286 net70
*287 net71
*288 net72
*289 net73
*290 net74
*291 net75
*292 net76
*293 net77
*294 net78
*295 net79
*296 net8
*297 net80
*298 net81
*299 net82
*300 net83
*301 net84
*302 net85
*303 net86
*304 net87
*305 net88
*306 net89
*307 net9
*308 net90
*309 net91
*310 net92
*311 net93
*312 net94
*313 net95
*314 net96
*315 net97
*316 net98
*317 net99
*318 FILLER_0_0
*319 FILLER_0_105
*320 FILLER_0_112
*321 FILLER_0_119
*322 FILLER_0_126
*323 FILLER_0_133
*324 FILLER_0_14
*325 FILLER_0_141
*326 FILLER_0_148
*327 FILLER_0_155
*328 FILLER_0_160
*329 FILLER_0_167
*330 FILLER_0_171
*331 FILLER_0_192
*332 FILLER_0_199
*333 FILLER_0_206
*334 FILLER_0_208
*335 FILLER_0_21
*336 FILLER_0_213
*337 FILLER_0_220
*338 FILLER_0_225
*339 FILLER_0_231
*340 FILLER_0_238
*341 FILLER_0_245
*342 FILLER_0_250
*343 FILLER_0_257
*344 FILLER_0_278
*345 FILLER_0_28
*346 FILLER_0_289
*347 FILLER_0_296
*348 FILLER_0_301
*349 FILLER_0_308
*350 FILLER_0_315
*351 FILLER_0_321
*352 FILLER_0_328
*353 FILLER_0_335
*354 FILLER_0_343
*355 FILLER_0_35
*356 FILLER_0_350
*357 FILLER_0_352
*358 FILLER_0_42
*359 FILLER_0_49
*360 FILLER_0_56
*361 FILLER_0_63
*362 FILLER_0_7
*363 FILLER_0_70
*364 FILLER_0_77
*365 FILLER_0_84
*366 FILLER_0_91
*367 FILLER_0_98
*368 FILLER_10_0
*369 FILLER_10_14
*370 FILLER_10_21
*371 FILLER_10_229
*372 FILLER_10_245
*373 FILLER_10_250
*374 FILLER_10_257
*375 FILLER_10_264
*376 FILLER_10_271
*377 FILLER_10_28
*378 FILLER_10_313
*379 FILLER_10_320
*380 FILLER_10_327
*381 FILLER_10_334
*382 FILLER_10_341
*383 FILLER_10_348
*384 FILLER_10_35
*385 FILLER_10_355
*386 FILLER_10_42
*387 FILLER_10_49
*388 FILLER_10_56
*389 FILLER_10_7
*390 FILLER_11_0
*391 FILLER_11_14
*392 FILLER_11_167
*393 FILLER_11_174
*394 FILLER_11_179
*395 FILLER_11_186
*396 FILLER_11_193
*397 FILLER_11_200
*398 FILLER_11_205
*399 FILLER_11_21
*400 FILLER_11_212
*401 FILLER_11_219
*402 FILLER_11_249
*403 FILLER_11_258
*404 FILLER_11_267
*405 FILLER_11_28
*406 FILLER_11_321
*407 FILLER_11_328
*408 FILLER_11_335
*409 FILLER_11_342
*410 FILLER_11_349
*411 FILLER_11_35
*412 FILLER_11_42
*413 FILLER_11_46
*414 FILLER_11_7
*415 FILLER_1_0
*416 FILLER_1_105
*417 FILLER_1_112
*418 FILLER_1_119
*419 FILLER_1_126
*420 FILLER_1_133
*421 FILLER_1_14
*422 FILLER_1_140
*423 FILLER_1_147
*424 FILLER_1_154
*425 FILLER_1_161
*426 FILLER_1_168
*427 FILLER_1_175
*428 FILLER_1_179
*429 FILLER_1_192
*430 FILLER_1_199
*431 FILLER_1_206
*432 FILLER_1_21
*433 FILLER_1_213
*434 FILLER_1_220
*435 FILLER_1_227
*436 FILLER_1_234
*437 FILLER_1_241
*438 FILLER_1_248
*439 FILLER_1_255
*440 FILLER_1_262
*441 FILLER_1_269
*442 FILLER_1_276
*443 FILLER_1_28
*444 FILLER_1_283
*445 FILLER_1_290
*446 FILLER_1_297
*447 FILLER_1_304
*448 FILLER_1_311
*449 FILLER_1_318
*450 FILLER_1_325
*451 FILLER_1_332
*452 FILLER_1_339
*453 FILLER_1_346
*454 FILLER_1_35
*455 FILLER_1_353
*456 FILLER_1_360
*457 FILLER_1_42
*458 FILLER_1_49
*459 FILLER_1_56
*460 FILLER_1_63
*461 FILLER_1_7
*462 FILLER_1_70
*463 FILLER_1_77
*464 FILLER_1_84
*465 FILLER_1_91
*466 FILLER_1_98
*467 FILLER_2_0
*468 FILLER_2_105
*469 FILLER_2_112
*470 FILLER_2_119
*471 FILLER_2_126
*472 FILLER_2_133
*473 FILLER_2_14
*474 FILLER_2_140
*475 FILLER_2_147
*476 FILLER_2_154
*477 FILLER_2_161
*478 FILLER_2_168
*479 FILLER_2_175
*480 FILLER_2_190
*481 FILLER_2_197
*482 FILLER_2_204
*483 FILLER_2_21
*484 FILLER_2_211
*485 FILLER_2_218
*486 FILLER_2_225
*487 FILLER_2_232
*488 FILLER_2_239
*489 FILLER_2_246
*490 FILLER_2_253
*491 FILLER_2_260
*492 FILLER_2_267
*493 FILLER_2_274
*494 FILLER_2_28
*495 FILLER_2_281
*496 FILLER_2_288
*497 FILLER_2_295
*498 FILLER_2_302
*499 FILLER_2_309
*500 FILLER_2_316
*501 FILLER_2_323
*502 FILLER_2_330
*503 FILLER_2_337
*504 FILLER_2_344
*505 FILLER_2_35
*506 FILLER_2_351
*507 FILLER_2_358
*508 FILLER_2_42
*509 FILLER_2_49
*510 FILLER_2_56
*511 FILLER_2_63
*512 FILLER_2_7
*513 FILLER_2_70
*514 FILLER_2_77
*515 FILLER_2_84
*516 FILLER_2_91
*517 FILLER_2_98
*518 FILLER_3_0
*519 FILLER_3_105
*520 FILLER_3_112
*521 FILLER_3_119
*522 FILLER_3_126
*523 FILLER_3_133
*524 FILLER_3_14
*525 FILLER_3_140
*526 FILLER_3_147
*527 FILLER_3_154
*528 FILLER_3_161
*529 FILLER_3_168
*530 FILLER_3_175
*531 FILLER_3_182
*532 FILLER_3_186
*533 FILLER_3_195
*534 FILLER_3_202
*535 FILLER_3_209
*536 FILLER_3_21
*537 FILLER_3_216
*538 FILLER_3_223
*539 FILLER_3_230
*540 FILLER_3_237
*541 FILLER_3_244
*542 FILLER_3_251
*543 FILLER_3_258
*544 FILLER_3_265
*545 FILLER_3_272
*546 FILLER_3_279
*547 FILLER_3_28
*548 FILLER_3_286
*549 FILLER_3_293
*550 FILLER_3_300
*551 FILLER_3_307
*552 FILLER_3_314
*553 FILLER_3_321
*554 FILLER_3_328
*555 FILLER_3_335
*556 FILLER_3_342
*557 FILLER_3_349
*558 FILLER_3_35
*559 FILLER_3_356
*560 FILLER_3_363
*561 FILLER_3_42
*562 FILLER_3_49
*563 FILLER_3_56
*564 FILLER_3_63
*565 FILLER_3_7
*566 FILLER_3_70
*567 FILLER_3_77
*568 FILLER_3_84
*569 FILLER_3_91
*570 FILLER_3_98
*571 FILLER_4_0
*572 FILLER_4_105
*573 FILLER_4_112
*574 FILLER_4_119
*575 FILLER_4_126
*576 FILLER_4_133
*577 FILLER_4_14
*578 FILLER_4_140
*579 FILLER_4_147
*580 FILLER_4_154
*581 FILLER_4_161
*582 FILLER_4_168
*583 FILLER_4_175
*584 FILLER_4_182
*585 FILLER_4_186
*586 FILLER_4_191
*587 FILLER_4_198
*588 FILLER_4_205
*589 FILLER_4_21
*590 FILLER_4_212
*591 FILLER_4_219
*592 FILLER_4_226
*593 FILLER_4_233
*594 FILLER_4_240
*595 FILLER_4_247
*596 FILLER_4_254
*597 FILLER_4_261
*598 FILLER_4_268
*599 FILLER_4_275
*600 FILLER_4_28
*601 FILLER_4_282
*602 FILLER_4_289
*603 FILLER_4_296
*604 FILLER_4_303
*605 FILLER_4_310
*606 FILLER_4_317
*607 FILLER_4_324
*608 FILLER_4_331
*609 FILLER_4_338
*610 FILLER_4_345
*611 FILLER_4_35
*612 FILLER_4_352
*613 FILLER_4_359
*614 FILLER_4_363
*615 FILLER_4_42
*616 FILLER_4_49
*617 FILLER_4_56
*618 FILLER_4_63
*619 FILLER_4_7
*620 FILLER_4_70
*621 FILLER_4_77
*622 FILLER_4_84
*623 FILLER_4_91
*624 FILLER_4_98
*625 FILLER_5_0
*626 FILLER_5_105
*627 FILLER_5_112
*628 FILLER_5_119
*629 FILLER_5_126
*630 FILLER_5_133
*631 FILLER_5_14
*632 FILLER_5_140
*633 FILLER_5_147
*634 FILLER_5_154
*635 FILLER_5_161
*636 FILLER_5_168
*637 FILLER_5_175
*638 FILLER_5_177
*639 FILLER_5_194
*640 FILLER_5_201
*641 FILLER_5_208
*642 FILLER_5_21
*643 FILLER_5_215
*644 FILLER_5_222
*645 FILLER_5_229
*646 FILLER_5_236
*647 FILLER_5_243
*648 FILLER_5_250
*649 FILLER_5_257
*650 FILLER_5_264
*651 FILLER_5_271
*652 FILLER_5_278
*653 FILLER_5_28
*654 FILLER_5_285
*655 FILLER_5_292
*656 FILLER_5_299
*657 FILLER_5_306
*658 FILLER_5_313
*659 FILLER_5_320
*660 FILLER_5_327
*661 FILLER_5_334
*662 FILLER_5_341
*663 FILLER_5_348
*664 FILLER_5_35
*665 FILLER_5_355
*666 FILLER_5_362
*667 FILLER_5_364
*668 FILLER_5_42
*669 FILLER_5_49
*670 FILLER_5_56
*671 FILLER_5_63
*672 FILLER_5_7
*673 FILLER_5_70
*674 FILLER_5_77
*675 FILLER_5_84
*676 FILLER_5_91
*677 FILLER_5_98
*678 FILLER_6_0
*679 FILLER_6_105
*680 FILLER_6_112
*681 FILLER_6_119
*682 FILLER_6_126
*683 FILLER_6_133
*684 FILLER_6_14
*685 FILLER_6_140
*686 FILLER_6_147
*687 FILLER_6_154
*688 FILLER_6_161
*689 FILLER_6_168
*690 FILLER_6_175
*691 FILLER_6_182
*692 FILLER_6_193
*693 FILLER_6_200
*694 FILLER_6_207
*695 FILLER_6_21
*696 FILLER_6_214
*697 FILLER_6_221
*698 FILLER_6_228
*699 FILLER_6_235
*700 FILLER_6_242
*701 FILLER_6_249
*702 FILLER_6_256
*703 FILLER_6_263
*704 FILLER_6_270
*705 FILLER_6_277
*706 FILLER_6_28
*707 FILLER_6_284
*708 FILLER_6_291
*709 FILLER_6_298
*710 FILLER_6_305
*711 FILLER_6_312
*712 FILLER_6_319
*713 FILLER_6_326
*714 FILLER_6_333
*715 FILLER_6_340
*716 FILLER_6_347
*717 FILLER_6_35
*718 FILLER_6_354
*719 FILLER_6_361
*720 FILLER_6_42
*721 FILLER_6_49
*722 FILLER_6_56
*723 FILLER_6_63
*724 FILLER_6_7
*725 FILLER_6_70
*726 FILLER_6_77
*727 FILLER_6_84
*728 FILLER_6_91
*729 FILLER_6_98
*730 FILLER_7_0
*731 FILLER_7_105
*732 FILLER_7_112
*733 FILLER_7_119
*734 FILLER_7_126
*735 FILLER_7_133
*736 FILLER_7_14
*737 FILLER_7_140
*738 FILLER_7_147
*739 FILLER_7_154
*740 FILLER_7_161
*741 FILLER_7_168
*742 FILLER_7_175
*743 FILLER_7_179
*744 FILLER_7_192
*745 FILLER_7_199
*746 FILLER_7_206
*747 FILLER_7_21
*748 FILLER_7_213
*749 FILLER_7_220
*750 FILLER_7_227
*751 FILLER_7_234
*752 FILLER_7_241
*753 FILLER_7_248
*754 FILLER_7_255
*755 FILLER_7_262
*756 FILLER_7_269
*757 FILLER_7_276
*758 FILLER_7_28
*759 FILLER_7_283
*760 FILLER_7_290
*761 FILLER_7_297
*762 FILLER_7_304
*763 FILLER_7_311
*764 FILLER_7_318
*765 FILLER_7_325
*766 FILLER_7_332
*767 FILLER_7_339
*768 FILLER_7_346
*769 FILLER_7_35
*770 FILLER_7_353
*771 FILLER_7_360
*772 FILLER_7_364
*773 FILLER_7_42
*774 FILLER_7_49
*775 FILLER_7_56
*776 FILLER_7_63
*777 FILLER_7_7
*778 FILLER_7_70
*779 FILLER_7_77
*780 FILLER_7_84
*781 FILLER_7_91
*782 FILLER_7_98
*783 FILLER_8_0
*784 FILLER_8_105
*785 FILLER_8_112
*786 FILLER_8_116
*787 FILLER_8_122
*788 FILLER_8_129
*789 FILLER_8_136
*790 FILLER_8_14
*791 FILLER_8_143
*792 FILLER_8_150
*793 FILLER_8_157
*794 FILLER_8_164
*795 FILLER_8_171
*796 FILLER_8_178
*797 FILLER_8_190
*798 FILLER_8_197
*799 FILLER_8_204
*800 FILLER_8_21
*801 FILLER_8_211
*802 FILLER_8_218
*803 FILLER_8_225
*804 FILLER_8_232
*805 FILLER_8_239
*806 FILLER_8_246
*807 FILLER_8_253
*808 FILLER_8_260
*809 FILLER_8_267
*810 FILLER_8_274
*811 FILLER_8_28
*812 FILLER_8_281
*813 FILLER_8_288
*814 FILLER_8_295
*815 FILLER_8_302
*816 FILLER_8_309
*817 FILLER_8_316
*818 FILLER_8_323
*819 FILLER_8_330
*820 FILLER_8_337
*821 FILLER_8_344
*822 FILLER_8_35
*823 FILLER_8_351
*824 FILLER_8_358
*825 FILLER_8_42
*826 FILLER_8_49
*827 FILLER_8_56
*828 FILLER_8_63
*829 FILLER_8_7
*830 FILLER_8_70
*831 FILLER_8_77
*832 FILLER_8_84
*833 FILLER_8_91
*834 FILLER_8_98
*835 FILLER_9_0
*836 FILLER_9_14
*837 FILLER_9_153
*838 FILLER_9_162
*839 FILLER_9_164
*840 FILLER_9_169
*841 FILLER_9_176
*842 FILLER_9_182
*843 FILLER_9_197
*844 FILLER_9_199
*845 FILLER_9_204
*846 FILLER_9_21
*847 FILLER_9_212
*848 FILLER_9_220
*849 FILLER_9_222
*850 FILLER_9_227
*851 FILLER_9_234
*852 FILLER_9_241
*853 FILLER_9_248
*854 FILLER_9_255
*855 FILLER_9_262
*856 FILLER_9_269
*857 FILLER_9_276
*858 FILLER_9_28
*859 FILLER_9_283
*860 FILLER_9_290
*861 FILLER_9_297
*862 FILLER_9_304
*863 FILLER_9_311
*864 FILLER_9_318
*865 FILLER_9_325
*866 FILLER_9_332
*867 FILLER_9_339
*868 FILLER_9_346
*869 FILLER_9_35
*870 FILLER_9_353
*871 FILLER_9_360
*872 FILLER_9_364
*873 FILLER_9_42
*874 FILLER_9_49
*875 FILLER_9_56
*876 FILLER_9_63
*877 FILLER_9_7
*878 FILLER_9_70
*879 FILLER_9_77
*880 FILLER_9_84
*881 FILLER_9_91
*882 _000_
*883 _001_
*884 _002_
*885 _003_
*886 _004_
*887 _005_
*888 _006_
*889 _007_
*890 _008_
*891 _009_
*892 _010_
*893 _011_
*894 _012_
*895 _013_
*896 _014_
*897 _015_
*898 _016_
*899 _017_
*900 _018_
*901 _019_
*902 _020_
*903 _021_
*904 _022_
*905 _023_
*906 _024_
*907 _025_
*908 _026_
*909 _027_
*910 _028_
*911 _029_
*912 _030_
*913 _031_
*914 _032_
*915 _033_
*916 _034_
*917 _035_
*918 _036_
*919 _037_
*920 _038_
*921 _039_
*922 _040_
*923 _041_
*924 _042_
*925 _043_
*926 _044_
*927 _045_
*928 _046_
*929 _047_
*930 _048_
*931 _049_
*932 _050_
*933 _051_
*934 _052_
*935 _053_
*936 _054_
*937 _055_
*938 _056_
*939 _057_
*940 _058_
*941 _059_
*942 _060_
*943 _061_
*944 _062_
*945 _063_
*946 _064_
*947 _065_
*948 _066_
*949 _067_
*950 _068_
*951 _069_
*952 _070_
*953 _071_
*954 _072_
*955 _073_
*956 _074_
*957 _075_
*958 _076_
*959 _077_
*960 _078_
*961 _079_
*962 _080_
*963 _081_
*964 _082_
*965 _083_
*966 _084_
*967 _085_
*968 _086_
*969 _087_
*970 _088_
*971 _089_
*972 _090_
*973 _091_
*974 _092_
*975 _093_
*976 _094_
*977 _095_
*978 _096_
*979 _097_
*980 _098_
*981 _099_
*982 _100_
*983 _101_
*984 _102_
*985 _103_
*986 _104_
*987 output1
*988 output10
*989 output100
*990 output101
*991 output102
*992 output103
*993 output104
*994 output105
*995 output11
*996 output12
*997 output13
*998 output14
*999 output15
*1000 output16
*1001 output17
*1002 output18
*1003 output19
*1004 output2
*1005 output20
*1006 output21
*1007 output22
*1008 output23
*1009 output24
*1010 output25
*1011 output26
*1012 output27
*1013 output28
*1014 output29
*1015 output3
*1016 output30
*1017 output31
*1018 output32
*1019 output33
*1020 output34
*1021 output35
*1022 output36
*1023 output37
*1024 output38
*1025 output39
*1026 output4
*1027 output40
*1028 output41
*1029 output42
*1030 output43
*1031 output44
*1032 output45
*1033 output46
*1034 output47
*1035 output48
*1036 output49
*1037 output5
*1038 output50
*1039 output51
*1040 output52
*1041 output53
*1042 output54
*1043 output55
*1044 output56
*1045 output57
*1046 output58
*1047 output59
*1048 output6
*1049 output60
*1050 output61
*1051 output62
*1052 output63
*1053 output64
*1054 output65
*1055 output66
*1056 output67
*1057 output68
*1058 output69
*1059 output7
*1060 output70
*1061 output71
*1062 output72
*1063 output73
*1064 output74
*1065 output75
*1066 output76
*1067 output77
*1068 output78
*1069 output79
*1070 output8
*1071 output80
*1072 output81
*1073 output82
*1074 output83
*1075 output84
*1076 output85
*1077 output86
*1078 output87
*1079 output88
*1080 output89
*1081 output9
*1082 output90
*1083 output91
*1084 output92
*1085 output93
*1086 output94
*1087 output95
*1088 output96
*1089 output97
*1090 output98
*1091 output99

*PORTS
FrameData[0] I
FrameData[10] I
FrameData[11] I
FrameData[12] I
FrameData[13] I
FrameData[14] I
FrameData[15] I
FrameData[16] I
FrameData[17] I
FrameData[18] I
FrameData[19] I
FrameData[1] I
FrameData[20] I
FrameData[21] I
FrameData[22] I
FrameData[23] I
FrameData[24] I
FrameData[25] I
FrameData[26] I
FrameData[27] I
FrameData[28] I
FrameData[29] I
FrameData[2] I
FrameData[30] I
FrameData[31] I
FrameData[3] I
FrameData[4] I
FrameData[5] I
FrameData[6] I
FrameData[7] I
FrameData[8] I
FrameData[9] I
FrameData_O[0] O
FrameData_O[10] O
FrameData_O[11] O
FrameData_O[12] O
FrameData_O[13] O
FrameData_O[14] O
FrameData_O[15] O
FrameData_O[16] O
FrameData_O[17] O
FrameData_O[18] O
FrameData_O[19] O
FrameData_O[1] O
FrameData_O[20] O
FrameData_O[21] O
FrameData_O[22] O
FrameData_O[23] O
FrameData_O[24] O
FrameData_O[25] O
FrameData_O[26] O
FrameData_O[27] O
FrameData_O[28] O
FrameData_O[29] O
FrameData_O[2] O
FrameData_O[30] O
FrameData_O[31] O
FrameData_O[3] O
FrameData_O[4] O
FrameData_O[5] O
FrameData_O[6] O
FrameData_O[7] O
FrameData_O[8] O
FrameData_O[9] O
FrameStrobe[0] I
FrameStrobe[10] I
FrameStrobe[11] I
FrameStrobe[12] I
FrameStrobe[13] I
FrameStrobe[14] I
FrameStrobe[15] I
FrameStrobe[16] I
FrameStrobe[17] I
FrameStrobe[18] I
FrameStrobe[19] I
FrameStrobe[1] I
FrameStrobe[2] I
FrameStrobe[3] I
FrameStrobe[4] I
FrameStrobe[5] I
FrameStrobe[6] I
FrameStrobe[7] I
FrameStrobe[8] I
FrameStrobe[9] I
FrameStrobe_O[0] O
FrameStrobe_O[10] O
FrameStrobe_O[11] O
FrameStrobe_O[12] O
FrameStrobe_O[13] O
FrameStrobe_O[14] O
FrameStrobe_O[15] O
FrameStrobe_O[16] O
FrameStrobe_O[17] O
FrameStrobe_O[18] O
FrameStrobe_O[19] O
FrameStrobe_O[1] O
FrameStrobe_O[2] O
FrameStrobe_O[3] O
FrameStrobe_O[4] O
FrameStrobe_O[5] O
FrameStrobe_O[6] O
FrameStrobe_O[7] O
FrameStrobe_O[8] O
FrameStrobe_O[9] O
N1BEG[0] O
N1BEG[1] O
N1BEG[2] O
N1BEG[3] O
N2BEG[0] O
N2BEG[1] O
N2BEG[2] O
N2BEG[3] O
N2BEG[4] O
N2BEG[5] O
N2BEG[6] O
N2BEG[7] O
N2BEGb[0] O
N2BEGb[1] O
N2BEGb[2] O
N2BEGb[3] O
N2BEGb[4] O
N2BEGb[5] O
N2BEGb[6] O
N2BEGb[7] O
N4BEG[0] O
N4BEG[10] O
N4BEG[11] O
N4BEG[12] O
N4BEG[13] O
N4BEG[14] O
N4BEG[15] O
N4BEG[1] O
N4BEG[2] O
N4BEG[3] O
N4BEG[4] O
N4BEG[5] O
N4BEG[6] O
N4BEG[7] O
N4BEG[8] O
N4BEG[9] O
NN4BEG[0] O
NN4BEG[10] O
NN4BEG[11] O
NN4BEG[12] O
NN4BEG[13] O
NN4BEG[14] O
NN4BEG[15] O
NN4BEG[1] O
NN4BEG[2] O
NN4BEG[3] O
NN4BEG[4] O
NN4BEG[5] O
NN4BEG[6] O
NN4BEG[7] O
NN4BEG[8] O
NN4BEG[9] O
S1END[0] I
S1END[1] I
S1END[2] I
S1END[3] I
S2END[0] I
S2END[1] I
S2END[2] I
S2END[3] I
S2END[4] I
S2END[5] I
S2END[6] I
S2END[7] I
S2MID[0] I
S2MID[1] I
S2MID[2] I
S2MID[3] I
S2MID[4] I
S2MID[5] I
S2MID[6] I
S2MID[7] I
S4END[0] I
S4END[10] I
S4END[11] I
S4END[12] I
S4END[13] I
S4END[14] I
S4END[15] I
S4END[1] I
S4END[2] I
S4END[3] I
S4END[4] I
S4END[5] I
S4END[6] I
S4END[7] I
S4END[8] I
S4END[9] I
SS4END[0] I
SS4END[10] I
SS4END[11] I
SS4END[12] I
SS4END[13] I
SS4END[14] I
SS4END[15] I
SS4END[1] I
SS4END[2] I
SS4END[3] I
SS4END[4] I
SS4END[5] I
SS4END[6] I
SS4END[7] I
SS4END[8] I
SS4END[9] I
UserCLK I
UserCLKo O

*D_NET *1 0.0123245
*CONN
*P FrameData[0] I
*I *882:A I *D sg13g2_buf_1
*CAP
1 FrameData[0] 0.00379972
2 *882:A 0.000269143
3 *1:9 0.00406887
4 *882:A *884:A 0
5 *882:A *922:A 0
6 *882:A *238:8 0
7 *1:9 *12:5 0
8 *1:9 *76:11 0
9 *1:9 *79:9 0.00418681
*RES
1 FrameData[0] *1:9 44.8359 
2 *1:9 *882:A 42.4823 
*END

*D_NET *2 0.0156532
*CONN
*P FrameData[10] I
*I *892:A I *D sg13g2_buf_1
*CAP
1 FrameData[10] 0.00427867
2 *892:A 0
3 *2:9 0.00427867
4 *2:9 *3:11 0
5 *2:9 *3:13 0
6 *2:9 *32:5 0
7 *2:9 *76:17 0.00709589
8 *2:9 *262:10 0
*RES
1 FrameData[10] *2:9 49.3164 
2 *2:9 *892:A 40 
*END

*D_NET *3 0.011074
*CONN
*P FrameData[11] I
*I *893:A I *D sg13g2_buf_1
*CAP
1 FrameData[11] 7.56738e-05
2 *893:A 8.14798e-05
3 *3:13 0.0041683
4 *3:11 0.0041625
5 *3:13 *4:9 0
6 *3:13 *262:10 0.00258607
7 *2:9 *3:11 0
8 *2:9 *3:13 0
*RES
1 FrameData[11] *3:11 40.7313 
2 *3:11 *3:13 47.8126 
3 *3:13 *893:A 40.7519 
*END

*D_NET *4 0.00749039
*CONN
*P FrameData[12] I
*I *894:A I *D sg13g2_buf_1
*CAP
1 FrameData[12] 0.00374519
2 *894:A 0
3 *4:9 0.00374519
4 *4:9 *5:11 0
5 *4:9 *6:9 0
6 *3:13 *4:9 0
*RES
1 FrameData[12] *4:9 48.3276 
2 *4:9 *894:A 40 
*END

*D_NET *5 0.00800696
*CONN
*P FrameData[13] I
*I *895:A I *D sg13g2_buf_1
*CAP
1 FrameData[13] 0.000324802
2 *895:A 0
3 *5:19 0.000122542
4 *5:13 0.00367868
5 *5:11 0.00388094
6 *5:11 *6:9 0
7 *5:13 *7:17 0
8 *5:13 *285:18 0
9 *5:19 *8:17 0
10 *4:9 *5:11 0
*RES
1 FrameData[13] *5:11 43.4814 
2 *5:11 *5:13 45.5878 
3 *5:13 *5:19 41.4008 
4 *5:19 *895:A 40 
*END

*D_NET *6 0.00719609
*CONN
*P FrameData[14] I
*I *896:A I *D sg13g2_buf_1
*CAP
1 FrameData[14] 0.00359805
2 *896:A 0
3 *6:9 0.00359805
4 *6:9 *7:11 0
5 *6:9 *8:5 0
6 *6:9 *198:9 0
7 *6:9 *289:14 0
8 *4:9 *6:9 0
9 *5:11 *6:9 0
*RES
1 FrameData[14] *6:9 46.1028 
2 *6:9 *896:A 40 
*END

*D_NET *7 0.00810799
*CONN
*P FrameData[15] I
*I *897:A I *D sg13g2_buf_1
*CAP
1 FrameData[15] 0.000204699
2 *897:A 0
3 *7:21 0
4 *7:17 0.0038493
5 *7:11 0.00405399
6 *7:11 *8:5 0
7 *7:17 *8:17 0
8 *7:17 *10:13 0
9 *7:17 *22:13 0
10 *5:13 *7:17 0
11 *6:9 *7:11 0
*RES
1 FrameData[15] *7:11 42.2145 
2 *7:11 *7:17 45.5157 
3 *7:17 *7:21 40 
4 *7:21 *897:A 40 
*END

*D_NET *8 0.00995392
*CONN
*P FrameData[16] I
*I *898:A I *D sg13g2_buf_1
*CAP
1 FrameData[16] 0.00277885
2 *898:A 0
3 *8:21 0
4 *8:17 0.00160374
5 *8:11 0.00170898
6 *8:5 0.00288409
7 *8:5 *9:9 0
8 *8:5 *198:9 0.000612093
9 *8:5 *261:14 0.000235272
10 *8:5 *289:18 0
11 *8:17 *10:13 0
12 *8:17 *285:18 0.00013089
13 *5:19 *8:17 0
14 *6:9 *8:5 0
15 *7:11 *8:5 0
16 *7:17 *8:17 0
*RES
1 FrameData[16] *8:5 32.3317 
2 *8:5 *8:11 41.1845 
3 *8:11 *8:17 35.965 
4 *8:17 *8:21 40 
5 *8:21 *898:A 20 
*END

*D_NET *9 0.0131643
*CONN
*P FrameData[17] I
*I *899:A I *D sg13g2_buf_1
*CAP
1 FrameData[17] 0.00410871
2 *899:A 0
3 *9:9 0.00410871
4 *9:9 *10:11 0
5 *9:9 *11:9 0
6 *9:9 *261:14 0
7 *9:9 *289:18 0.00241771
8 *9:9 *292:20 0.000289003
9 *9:9 *298:14 0
10 *9:9 *303:18 0.0022402
11 *8:5 *9:9 0
*RES
1 FrameData[17] *9:9 48.822 
2 *9:9 *899:A 40 
*END

*D_NET *10 0.0156072
*CONN
*P FrameData[18] I
*I *900:A I *D sg13g2_buf_1
*CAP
1 FrameData[18] 0.00043345
2 *900:A 6.07279e-05
3 *10:19 0.000270514
4 *10:13 0.00264753
5 *10:11 0.00287119
6 *900:A *84:17 4.77425e-05
7 *10:11 *11:9 0
8 *10:11 *24:9 0
9 *10:13 *22:13 0.00927605
10 *7:17 *10:13 0
11 *8:17 *10:13 0
12 *9:9 *10:11 0
*RES
1 FrameData[18] *10:11 44.3466 
2 *10:11 *10:13 42.8686 
3 *10:13 *10:19 41.6171 
4 *10:19 *900:A 40.6695 
*END

*D_NET *11 0.0124857
*CONN
*P FrameData[19] I
*I *901:A I *D sg13g2_buf_1
*CAP
1 FrameData[19] 0.00450072
2 *901:A 0
3 *11:9 0.00450072
4 *11:9 *13:9 0
5 *11:9 *195:21 0.00301314
6 *11:9 *214:10 0.000342558
7 *11:9 *223:12 0.00012859
8 *11:9 *298:14 0
9 *9:9 *11:9 0
10 *10:11 *11:9 0
*RES
1 FrameData[19] *11:9 48.5748 
2 *11:9 *901:A 40 
*END

*D_NET *12 0.0198114
*CONN
*P FrameData[1] I
*I *883:A I *D sg13g2_buf_1
*CAP
1 FrameData[1] 0.00366324
2 *883:A 0.00023863
3 *12:5 0.00390187
4 *883:A *234:8 0
5 *12:5 *23:9 0
6 *12:5 *77:9 0.00696498
7 *12:5 *79:9 0.00504271
8 *1:9 *12:5 0
*RES
1 FrameData[1] *12:5 48.1525 
2 *12:5 *883:A 42.0497 
*END

*D_NET *13 0.0143591
*CONN
*P FrameData[20] I
*I *902:A I *D sg13g2_buf_1
*CAP
1 FrameData[20] 0.00420518
2 *902:A 8.12805e-05
3 *13:9 0.00428646
4 *902:A *84:17 0
5 *902:A *223:12 0
6 *902:A *307:8 0
7 *13:9 *14:7 0
8 *13:9 *199:9 0
9 *13:9 *267:12 0
10 *13:9 *272:12 0.00578618
11 *13:9 *275:16 0
12 *11:9 *13:9 0
*RES
1 FrameData[20] *13:9 47.8023 
2 *13:9 *902:A 40.7519 
*END

*D_NET *14 0.0166858
*CONN
*P FrameData[21] I
*I *903:A I *D sg13g2_buf_1
*CAP
1 FrameData[21] 0.00314723
2 *903:A 0
3 *14:7 0.00314723
4 *14:7 *16:9 0
5 *14:7 *199:9 0.00471852
6 *14:7 *202:23 0
7 *14:7 *267:12 0
8 *14:7 *276:24 0.00567285
9 *13:9 *14:7 0
*RES
1 FrameData[21] *14:7 46.9886 
2 *14:7 *903:A 40 
*END

*D_NET *15 0.0131192
*CONN
*P FrameData[22] I
*I *904:A I *D sg13g2_buf_1
*CAP
1 FrameData[22] 0.000141536
2 *904:A 9.31169e-05
3 *15:19 0.000285257
4 *15:13 0.00413275
5 *15:11 0.00408215
6 *904:A *17:25 0
7 *904:A *283:10 0.000143764
8 *15:11 *22:9 0.000178145
9 *15:11 *24:9 0.000176722
10 *15:13 *16:13 0
11 *15:13 *17:13 0.00359631
12 *15:13 *18:13 0
13 *15:13 *19:17 0
14 *15:13 *20:13 0
15 *15:13 *25:13 0
16 *15:13 *226:12 0.000289468
17 *15:19 *18:21 0
*RES
1 FrameData[22] *15:11 41.6274 
2 *15:11 *15:13 49.0486 
3 *15:13 *15:19 41.4008 
4 *15:19 *904:A 40.9682 
*END

*D_NET *16 0.015637
*CONN
*P FrameData[23] I
*I *905:A I *D sg13g2_buf_1
*CAP
1 FrameData[23] 0.00246545
2 *905:A 0
3 *16:17 0
4 *16:13 0.00117262
5 *16:9 0.00363807
6 *16:9 *17:9 0
7 *16:9 *19:15 0
8 *16:9 *270:14 0
9 *16:9 *276:24 0
10 *16:9 *279:12 0.00150793
11 *16:9 *287:14 0
12 *16:9 *301:20 2.19989e-05
13 *16:13 *17:13 0.00247573
14 *16:13 *19:17 0.00435517
15 *14:7 *16:9 0
16 *15:13 *16:13 0
*RES
1 FrameData[23] *16:9 49.252 
2 *16:9 *16:13 40.1262 
3 *16:13 *16:17 40 
4 *16:17 *905:A 40 
*END

*D_NET *17 0.0178039
*CONN
*P FrameData[24] I
*I *906:A I *D sg13g2_buf_1
*CAP
1 FrameData[24] 0.00217742
2 *906:A 0
3 *17:25 0.000845922
4 *17:19 0.000985587
5 *17:13 0.000976105
6 *17:9 0.00301386
7 *17:9 *18:9 0
8 *17:9 *270:14 0.00124284
9 *17:13 *19:17 0
10 *17:13 *20:13 0
11 *17:25 *202:23 0
12 *17:25 *206:27 7.52149e-05
13 *17:25 *206:37 0.00167633
14 *17:25 *224:8 0.000290809
15 *17:25 *283:20 0.000447731
16 *17:25 *288:10 0
17 *904:A *17:25 0
18 *15:13 *17:13 0.00359631
19 *16:9 *17:9 0
20 *16:13 *17:13 0.00247573
*RES
1 FrameData[24] *17:9 45.1423 
2 *17:9 *17:13 36.6654 
3 *17:13 *17:19 40.9682 
4 *17:19 *17:25 30.6811 
5 *17:25 *906:A 20 
*END

*D_NET *18 0.0114808
*CONN
*P FrameData[25] I
*I *907:A I *D sg13g2_buf_1
*CAP
1 FrameData[25] 0.00238331
2 *907:A 9.70866e-05
3 *18:21 0.000463324
4 *18:13 0.00280749
5 *18:9 0.00482456
6 *907:A *224:14 0.00014391
7 *907:A *283:10 0
8 *18:9 *19:11 0
9 *18:9 *270:14 0
10 *18:9 *277:16 0.000181453
11 *18:9 *278:18 0
12 *18:13 *25:13 0
13 *18:13 *226:12 0
14 *18:21 *206:27 0.000289436
15 *18:21 *227:10 0.000290195
16 *15:13 *18:13 0
17 *15:19 *18:21 0
18 *17:9 *18:9 0
*RES
1 FrameData[25] *18:9 45.3277 
2 *18:9 *18:13 49.5198 
3 *18:13 *18:21 43.8213 
4 *18:21 *907:A 40.9682 
*END

*D_NET *19 0.0207067
*CONN
*P FrameData[26] I
*I *908:A I *D sg13g2_buf_1
*CAP
1 FrameData[26] 0.00228359
2 *908:A 0
3 *19:23 0.000168329
4 *19:17 0.00173194
5 *19:15 0.00198025
6 *19:11 0.00270023
7 *19:11 *20:11 0
8 *19:11 *21:5 0
9 *19:11 *118:8 0.000181279
10 *19:11 *123:8 0.000287032
11 *19:11 *271:26 0
12 *19:11 *273:26 0
13 *19:11 *277:16 0
14 *19:11 *286:22 0
15 *19:11 *297:26 0.000232418
16 *19:15 *273:20 1.55639e-05
17 *19:15 *301:20 0
18 *19:17 *20:13 0.00677091
19 *19:17 *226:12 0
20 *15:13 *19:17 0
21 *16:9 *19:15 0
22 *16:13 *19:17 0.00435517
23 *17:13 *19:17 0
24 *18:9 *19:11 0
*RES
1 FrameData[26] *19:11 46.0796 
2 *19:11 *19:15 24.2127 
3 *19:15 *19:17 31.2502 
4 *19:17 *19:23 41.6171 
5 *19:23 *908:A 40 
*END

*D_NET *20 0.0178352
*CONN
*P FrameData[27] I
*I *909:A I *D sg13g2_buf_1
*CAP
1 FrameData[27] 0.000619613
2 *909:A 0
3 *20:21 0.000571978
4 *20:13 0.0047596
5 *20:11 0.00480724
6 *20:11 *21:5 0
7 *20:11 *24:9 0
8 *20:11 *25:9 0
9 *20:13 *226:12 0
10 *20:13 *290:14 0
11 *20:13 *304:18 0
12 *20:21 *183:17 0.000305909
13 *20:21 *229:12 0
14 *20:21 *266:14 0
15 *15:13 *20:13 0
16 *17:13 *20:13 0
17 *19:11 *20:11 0
18 *19:17 *20:13 0.00677091
*RES
1 FrameData[27] *20:11 47.0658 
2 *20:11 *20:13 57.9478 
3 *20:13 *20:21 45.8916 
4 *20:21 *909:A 40 
*END

*D_NET *21 0.0255067
*CONN
*P FrameData[28] I
*I *910:A I *D sg13g2_buf_1
*CAP
1 FrameData[28] 0.00441147
2 *910:A 2.41961e-05
3 *21:5 0.00443566
4 *21:5 *111:8 0
5 *21:5 *157:11 0
6 *21:5 *171:13 0.000708214
7 *21:5 *180:11 0.000812105
8 *21:5 *189:11 0.000394652
9 *21:5 *207:11 0
10 *21:5 *235:16 0.000181366
11 *21:5 *248:22 0
12 *21:5 *265:14 0.00134809
13 *21:5 *265:22 0
14 *21:5 *268:52 0
15 *21:5 *269:34 0
16 *21:5 *271:26 0.00155996
17 *21:5 *273:26 0
18 *21:5 *280:34 0.00208764
19 *21:5 *281:32 0.00160967
20 *21:5 *293:32 0.000542686
21 *21:5 *295:18 0.002455
22 *21:5 *297:10 0
23 *21:5 *297:16 0.00417325
24 *21:5 *302:26 0.000762737
25 *19:11 *21:5 0
26 *20:11 *21:5 0
*RES
1 FrameData[28] *21:5 65.7037 
2 *21:5 *910:A 40.3193 
*END

*D_NET *22 0.0327289
*CONN
*P FrameData[29] I
*I *911:A I *D sg13g2_buf_1
*CAP
1 FrameData[29] 0.00107525
2 *911:A 0
3 *22:19 0.000889585
4 *22:13 0.0037517
5 *22:11 0.00286212
6 *22:9 0.00107525
7 *22:9 *24:9 0
8 *22:13 *24:13 0.0136208
9 *22:13 *285:18 0
10 *22:13 *296:18 0
11 *22:19 *24:19 0
12 *7:17 *22:13 0
13 *10:13 *22:13 0.00927605
14 *15:11 *22:9 0.000178145
*RES
1 FrameData[29] *22:9 30.6811 
2 *22:9 *22:11 20 
3 *22:11 *22:13 63.3862 
4 *22:13 *22:19 49.4039 
5 *22:19 *911:A 40 
*END

*D_NET *23 0.0164501
*CONN
*P FrameData[2] I
*I *884:A I *D sg13g2_buf_1
*CAP
1 FrameData[2] 0.00395316
2 *884:A 0.000163727
3 *23:9 0.00411689
4 *884:A *84:17 0.000240085
5 *884:A *238:8 0
6 *23:9 *26:9 0
7 *23:9 *65:13 0.00130995
8 *23:9 *77:9 0.00653766
9 *23:9 *78:11 0
10 *23:9 *238:10 0.000128589
11 *882:A *884:A 0
12 *12:5 *23:9 0
*RES
1 FrameData[2] *23:9 46.8135 
2 *23:9 *884:A 41.6171 
*END

*D_NET *24 0.0262354
*CONN
*P FrameData[30] I
*I *912:A I *D sg13g2_buf_1
*CAP
1 FrameData[30] 0.00117095
2 *912:A 0
3 *24:19 0.000870202
4 *24:13 0.00504802
5 *24:11 0.00417782
6 *24:9 0.00117095
7 *24:9 *25:9 0
8 *24:13 *25:13 0
9 *24:13 *296:18 0
10 *10:11 *24:9 0
11 *15:11 *24:9 0.000176722
12 *20:11 *24:9 0
13 *22:9 *24:9 0
14 *22:13 *24:13 0.0136208
15 *22:19 *24:19 0
*RES
1 FrameData[30] *24:9 31.8244 
2 *24:9 *24:11 20 
3 *24:11 *24:13 63.8806 
4 *24:13 *24:19 49.1876 
5 *24:19 *912:A 40 
*END

*D_NET *25 0.0152111
*CONN
*P FrameData[31] I
*I *913:A I *D sg13g2_buf_1
*CAP
1 FrameData[31] 0.00132136
2 *913:A 0
3 *25:19 0.000753439
4 *25:13 0.00628421
5 *25:11 0.00553077
6 *25:9 0.00132136
7 *25:13 *226:12 0
8 *15:13 *25:13 0
9 *18:13 *25:13 0
10 *20:11 *25:9 0
11 *24:9 *25:9 0
12 *24:13 *25:13 0
*RES
1 FrameData[31] *25:9 36.0268 
2 *25:9 *25:11 20 
3 *25:11 *25:13 64.375 
4 *25:13 *25:19 48.3224 
5 *25:19 *913:A 40 
*END

*D_NET *26 0.0116116
*CONN
*P FrameData[3] I
*I *885:A I *D sg13g2_buf_1
*CAP
1 FrameData[3] 0.00458791
2 *885:A 0
3 *26:9 0.00458791
4 *26:9 *27:5 0
5 *26:9 *65:13 0
6 *26:9 *78:11 0
7 *26:9 *81:11 0.000395897
8 *26:9 *82:11 0.000449344
9 *26:9 *209:9 0.00146184
10 *26:9 *213:10 0
11 *26:9 *234:14 0.000128742
12 *23:9 *26:9 0
*RES
1 FrameData[3] *26:9 47.586 
2 *26:9 *885:A 40 
*END

*D_NET *27 0.0137829
*CONN
*P FrameData[4] I
*I *886:A I *D sg13g2_buf_1
*CAP
1 FrameData[4] 0.00332625
2 *886:A 8.25751e-05
3 *27:5 0.00340882
4 *27:5 *28:9 0
5 *27:5 *65:17 0.00696522
6 *27:5 *209:9 0
7 *26:9 *27:5 0
*RES
1 FrameData[4] *27:5 45.1861 
2 *27:5 *886:A 40.7519 
*END

*D_NET *28 0.00998483
*CONN
*P FrameData[5] I
*I *887:A I *D sg13g2_buf_1
*CAP
1 FrameData[5] 0.00418119
2 *887:A 0
3 *28:9 0.00418119
4 *28:9 *29:5 0
5 *28:9 *65:17 0
6 *28:9 *240:8 0
7 *28:9 *264:12 0.00162245
8 *27:5 *28:9 0
*RES
1 FrameData[5] *28:9 48.5748 
2 *28:9 *887:A 40 
*END

*D_NET *29 0.0092077
*CONN
*P FrameData[6] I
*I *888:A I *D sg13g2_buf_1
*CAP
1 FrameData[6] 0.00445731
2 *888:A 8.26699e-05
3 *29:5 0.00453998
4 *29:5 *30:5 0
5 *29:5 *242:10 0.000127744
6 *29:5 *264:12 0
7 *28:9 *29:5 0
*RES
1 FrameData[6] *29:5 47.1637 
2 *29:5 *888:A 40.7519 
*END

*D_NET *30 0.00910462
*CONN
*P FrameData[7] I
*I *889:A I *D sg13g2_buf_1
*CAP
1 FrameData[7] 0.00427647
2 *889:A 0.000155333
3 *30:5 0.0044318
4 *889:A *84:17 0.000241023
5 *30:5 *31:9 0
6 *29:5 *30:5 0
*RES
1 FrameData[7] *30:5 46.1749 
2 *30:5 *889:A 41.6171 
*END

*D_NET *31 0.00870186
*CONN
*P FrameData[8] I
*I *890:A I *D sg13g2_buf_1
*CAP
1 FrameData[8] 0.00435093
2 *890:A 0
3 *31:9 0.00435093
4 *31:9 *32:5 0
5 *30:5 *31:9 0
*RES
1 FrameData[8] *31:9 48.0804 
2 *31:9 *890:A 40 
*END

*D_NET *32 0.0099762
*CONN
*P FrameData[9] I
*I *891:A I *D sg13g2_buf_1
*CAP
1 FrameData[9] 0.00478317
2 *891:A 0.000117108
3 *32:5 0.00490028
4 *891:A *84:17 0.000175649
5 *891:A *244:14 0
6 *32:5 *76:17 0
7 *2:9 *32:5 0
8 *31:9 *32:5 0
*RES
1 FrameData[9] *32:5 46.6693 
2 *32:5 *891:A 41.1845 
*END

*D_NET *33 0.00171294
*CONN
*P FrameData_O[0] O
*I *987:X O *D sg13g2_buf_1
*CAP
1 FrameData_O[0] 0.000158439
2 *987:X 0.000455
3 *33:10 0.000613439
4 *33:10 FrameData_O[1] 0.000144027
5 *33:10 FrameData_O[2] 0
6 *33:10 *75:13 0
7 *33:10 *238:10 0.000342035
*RES
1 *987:X *33:10 44.532 
2 *33:10 FrameData_O[0] 41.5965 
*END

*D_NET *34 0.000410207
*CONN
*P FrameData_O[10] O
*I *1004:X O *D sg13g2_buf_1
*CAP
1 FrameData_O[10] 0.000205103
2 *1004:X 0.000205103
3 FrameData_O[10] FrameData_O[11] 0
4 FrameData_O[10] FrameData_O[9] 0
5 FrameData_O[10] *1018:A 0
*RES
1 *1004:X FrameData_O[10] 42.2145 
*END

*D_NET *35 0.000636401
*CONN
*P FrameData_O[11] O
*I *1015:X O *D sg13g2_buf_1
*CAP
1 FrameData_O[11] 0.0003182
2 *1015:X 0.0003182
3 FrameData_O[11] FrameData_O[12] 0
4 FrameData_O[11] *230:16 0
5 FrameData_O[11] *252:8 0
6 FrameData_O[10] FrameData_O[11] 0
*RES
1 *1015:X FrameData_O[11] 43.2033 
*END

*D_NET *36 0.000419476
*CONN
*P FrameData_O[12] O
*I *1026:X O *D sg13g2_buf_1
*CAP
1 FrameData_O[12] 0.000209738
2 *1026:X 0.000209738
3 FrameData_O[12] FrameData_O[13] 0
4 FrameData_O[12] *1026:A 0
5 FrameData_O[11] FrameData_O[12] 0
*RES
1 *1026:X FrameData_O[12] 42.2145 
*END

*D_NET *37 0.000657569
*CONN
*P FrameData_O[13] O
*I *1037:X O *D sg13g2_buf_1
*CAP
1 FrameData_O[13] 0.000328785
2 *1037:X 0.000328785
3 FrameData_O[13] FrameData_O[14] 0
4 FrameData_O[13] FrameData_O[15] 0
5 FrameData_O[13] *1037:A 0
6 FrameData_O[13] *274:12 0
7 FrameData_O[12] FrameData_O[13] 0
*RES
1 *1037:X FrameData_O[13] 43.4196 
*END

*D_NET *38 0.000297607
*CONN
*P FrameData_O[14] O
*I *1048:X O *D sg13g2_buf_1
*CAP
1 FrameData_O[14] 0.000148804
2 *1048:X 0.000148804
3 FrameData_O[14] FrameData_O[15] 0
4 FrameData_O[13] FrameData_O[14] 0
*RES
1 *1048:X FrameData_O[14] 41.6789 
*END

*D_NET *39 0.000665742
*CONN
*P FrameData_O[15] O
*I *1059:X O *D sg13g2_buf_1
*CAP
1 FrameData_O[15] 0.000332871
2 *1059:X 0.000332871
3 FrameData_O[15] FrameData_O[16] 0
4 FrameData_O[15] FrameData_O[17] 0
5 FrameData_O[15] *274:12 0
6 FrameData_O[15] *296:22 0
7 FrameData_O[13] FrameData_O[15] 0
8 FrameData_O[14] FrameData_O[15] 0
*RES
1 *1059:X FrameData_O[15] 43.6359 
*END

*D_NET *40 0.000297607
*CONN
*P FrameData_O[16] O
*I *1070:X O *D sg13g2_buf_1
*CAP
1 FrameData_O[16] 0.000148804
2 *1070:X 0.000148804
3 FrameData_O[16] FrameData_O[17] 0
4 FrameData_O[15] FrameData_O[16] 0
*RES
1 *1070:X FrameData_O[16] 41.6789 
*END

*D_NET *41 0.000811419
*CONN
*P FrameData_O[17] O
*I *1081:X O *D sg13g2_buf_1
*CAP
1 FrameData_O[17] 0.000341128
2 *1081:X 0.000341128
3 FrameData_O[17] FrameData_O[18] 0
4 FrameData_O[17] *214:14 0
5 FrameData_O[17] *296:22 0.000129163
6 FrameData_O[15] FrameData_O[17] 0
7 FrameData_O[16] FrameData_O[17] 0
*RES
1 *1081:X FrameData_O[17] 43.8522 
*END

*D_NET *42 0.000352109
*CONN
*P FrameData_O[18] O
*I *988:X O *D sg13g2_buf_1
*CAP
1 FrameData_O[18] 0.000176055
2 *988:X 0.000176055
3 FrameData_O[18] FrameData_O[19] 0
4 FrameData_O[18] *214:14 0
5 FrameData_O[17] FrameData_O[18] 0
*RES
1 *988:X FrameData_O[18] 41.9982 
*END

*D_NET *43 0.000614562
*CONN
*P FrameData_O[19] O
*I *995:X O *D sg13g2_buf_1
*CAP
1 FrameData_O[19] 0.000307281
2 *995:X 0.000307281
3 FrameData_O[19] FrameData_O[20] 0
4 FrameData_O[19] *995:A 0
5 FrameData_O[18] FrameData_O[19] 0
*RES
1 *995:X FrameData_O[19] 43.0797 
*END

*D_NET *44 0.00169613
*CONN
*P FrameData_O[1] O
*I *996:X O *D sg13g2_buf_1
*CAP
1 FrameData_O[1] 0.000712182
2 *996:X 0.000712182
3 FrameData_O[1] FrameData_O[4] 0
4 FrameData_O[1] *987:A 0
5 FrameData_O[1] *1011:A 8.02269e-05
6 FrameData_O[1] *1012:A 0
7 FrameData_O[1] *1013:A 4.75166e-05
8 FrameData_O[1] *75:13 0
9 *33:10 FrameData_O[1] 0.000144027
*RES
1 *996:X FrameData_O[1] 47.107 
*END

*D_NET *45 0.000667731
*CONN
*P FrameData_O[20] O
*I *997:X O *D sg13g2_buf_1
*CAP
1 FrameData_O[20] 0.000294332
2 *997:X 0.000294332
3 FrameData_O[20] FrameData_O[21] 0
4 FrameData_O[20] FrameData_O[22] 0
5 FrameData_O[20] *995:A 7.90673e-05
6 FrameData_O[20] *997:A 0
7 FrameData_O[20] *214:14 0
8 FrameData_O[20] *221:10 0
9 FrameData_O[19] FrameData_O[20] 0
*RES
1 *997:X FrameData_O[20] 43.2033 
*END

*D_NET *46 0.0006367
*CONN
*P FrameData_O[21] O
*I *998:X O *D sg13g2_buf_1
*CAP
1 FrameData_O[21] 0.00031835
2 *998:X 0.00031835
3 FrameData_O[21] FrameData_O[22] 0
4 FrameData_O[21] *995:A 0
5 FrameData_O[20] FrameData_O[21] 0
*RES
1 *998:X FrameData_O[21] 43.296 
*END

*D_NET *47 0.000680047
*CONN
*P FrameData_O[22] O
*I *999:X O *D sg13g2_buf_1
*CAP
1 FrameData_O[22] 0.000340024
2 *999:X 0.000340024
3 FrameData_O[22] FrameData_O[23] 0
4 FrameData_O[22] FrameData_O[24] 0
5 FrameData_O[22] *228:8 0
6 FrameData_O[20] FrameData_O[22] 0
7 FrameData_O[21] FrameData_O[22] 0
*RES
1 *999:X FrameData_O[22] 43.4196 
*END

*D_NET *48 0.000714791
*CONN
*P FrameData_O[23] O
*I *1000:X O *D sg13g2_buf_1
*CAP
1 FrameData_O[23] 0.000349668
2 *1000:X 0.000349668
3 FrameData_O[23] FrameData_O[24] 0
4 FrameData_O[23] FrameData_O[25] 1.54556e-05
5 FrameData_O[23] *998:A 0
6 FrameData_O[23] *1002:A 0
7 FrameData_O[22] FrameData_O[23] 0
*RES
1 *1000:X FrameData_O[23] 43.6153 
*END

*D_NET *49 0.000915797
*CONN
*P FrameData_O[24] O
*I *1001:X O *D sg13g2_buf_1
*CAP
1 FrameData_O[24] 0.000338764
2 *1001:X 0.000338764
3 FrameData_O[24] FrameData_O[25] 0
4 FrameData_O[24] FrameData_O[26] 0
5 FrameData_O[24] *1001:A 0
6 FrameData_O[24] *1002:A 0.000111828
7 FrameData_O[24] *224:16 0.000126441
8 FrameData_O[22] FrameData_O[24] 0
9 FrameData_O[23] FrameData_O[24] 0
*RES
1 *1001:X FrameData_O[24] 43.8419 
*END

*D_NET *50 0.000748419
*CONN
*P FrameData_O[25] O
*I *1002:X O *D sg13g2_buf_1
*CAP
1 FrameData_O[25] 0.000366482
2 *1002:X 0.000366482
3 FrameData_O[25] FrameData_O[26] 0
4 FrameData_O[25] *1002:A 0
5 FrameData_O[23] FrameData_O[25] 1.54556e-05
6 FrameData_O[24] FrameData_O[25] 0
*RES
1 *1002:X FrameData_O[25] 43.8316 
*END

*D_NET *51 0.000944306
*CONN
*P FrameData_O[26] O
*I *1003:X O *D sg13g2_buf_1
*CAP
1 FrameData_O[26] 0.000383897
2 *1003:X 0.000383897
3 FrameData_O[26] FrameData_O[27] 0
4 FrameData_O[26] FrameData_O[29] 0
5 FrameData_O[26] *1002:A 0.000176511
6 FrameData_O[26] *1003:A 0
7 FrameData_O[24] FrameData_O[26] 0
8 FrameData_O[25] FrameData_O[26] 0
*RES
1 *1003:X FrameData_O[26] 43.8522 
*END

*D_NET *52 0.000757125
*CONN
*P FrameData_O[27] O
*I *1005:X O *D sg13g2_buf_1
*CAP
1 FrameData_O[27] 0.000378562
2 *1005:X 0.000378562
3 FrameData_O[27] FrameData_O[28] 0
4 FrameData_O[26] FrameData_O[27] 0
*RES
1 *1005:X FrameData_O[27] 43.9758 
*END

*D_NET *53 0.00104541
*CONN
*P FrameData_O[28] O
*I *1006:X O *D sg13g2_buf_1
*CAP
1 FrameData_O[28] 0.00048259
2 *1006:X 0.00048259
3 FrameData_O[28] FrameData_O[29] 0
4 FrameData_O[28] FrameData_O[30] 0
5 FrameData_O[28] FrameData_O[31] 8.02267e-05
6 FrameData_O[28] *229:12 0
7 FrameData_O[27] FrameData_O[28] 0
*RES
1 *1006:X FrameData_O[28] 45.1809 
*END

*D_NET *54 0.00146574
*CONN
*P FrameData_O[29] O
*I *1007:X O *D sg13g2_buf_1
*CAP
1 FrameData_O[29] 0.000617313
2 *1007:X 0.000617313
3 FrameData_O[29] FrameData_O[30] 0
4 FrameData_O[29] FrameData_O[31] 0
5 FrameData_O[29] *1001:A 2.21754e-05
6 FrameData_O[29] *1003:A 0.000208941
7 FrameData_O[29] *1005:A 0
8 FrameData_O[26] FrameData_O[29] 0
9 FrameData_O[28] FrameData_O[29] 0
*RES
1 *1007:X FrameData_O[29] 46.4581 
*END

*D_NET *55 0.00193606
*CONN
*P FrameData_O[2] O
*I *1008:X O *D sg13g2_buf_1
*CAP
1 FrameData_O[2] 0.000519201
2 *1008:X 0.000519201
3 FrameData_O[2] FrameData_O[3] 0
4 FrameData_O[2] *213:18 0.000343005
5 FrameData_O[2] *237:10 0.000554653
6 FrameData_O[2] *238:10 0
7 FrameData_O[2] *240:8 0
8 *33:10 FrameData_O[2] 0
*RES
1 *1008:X FrameData_O[2] 46.2727 
*END

*D_NET *56 0.00134038
*CONN
*P FrameData_O[30] O
*I *1009:X O *D sg13g2_buf_1
*CAP
1 FrameData_O[30] 0.000670191
2 *1009:X 0.000670191
3 FrameData_O[30] FrameData_O[31] 0
4 FrameData_O[28] FrameData_O[30] 0
5 FrameData_O[29] FrameData_O[30] 0
*RES
1 *1009:X FrameData_O[30] 47.1379 
*END

*D_NET *57 0.00181486
*CONN
*P FrameData_O[31] O
*I *1010:X O *D sg13g2_buf_1
*CAP
1 FrameData_O[31] 0.000867316
2 *1010:X 0.000867316
3 FrameData_O[31] *1005:A 0
4 FrameData_O[31] *232:16 0
5 FrameData_O[28] FrameData_O[31] 8.02267e-05
6 FrameData_O[29] FrameData_O[31] 0
7 FrameData_O[30] FrameData_O[31] 0
*RES
1 *1010:X FrameData_O[31] 49.1773 
*END

*D_NET *58 0.000704087
*CONN
*P FrameData_O[3] O
*I *1011:X O *D sg13g2_buf_1
*CAP
1 FrameData_O[3] 0.000352044
2 *1011:X 0.000352044
3 FrameData_O[3] FrameData_O[4] 0
4 FrameData_O[3] FrameData_O[5] 0
5 FrameData_O[3] *1011:A 0
6 FrameData_O[2] FrameData_O[3] 0
*RES
1 *1011:X FrameData_O[3] 43.2033 
*END

*D_NET *59 0.000398447
*CONN
*P FrameData_O[4] O
*I *1012:X O *D sg13g2_buf_1
*CAP
1 FrameData_O[4] 0.000199224
2 *1012:X 0.000199224
3 FrameData_O[4] FrameData_O[5] 0
4 FrameData_O[1] FrameData_O[4] 0
5 FrameData_O[3] FrameData_O[4] 0
*RES
1 *1012:X FrameData_O[4] 42.2145 
*END

*D_NET *60 0.000571688
*CONN
*P FrameData_O[5] O
*I *1013:X O *D sg13g2_buf_1
*CAP
1 FrameData_O[5] 0.000221513
2 *1013:X 0.000221513
3 FrameData_O[5] FrameData_O[6] 0
4 FrameData_O[5] FrameData_O[7] 0
5 FrameData_O[5] *240:8 0.000128662
6 FrameData_O[3] FrameData_O[5] 0
7 FrameData_O[4] FrameData_O[5] 0
*RES
1 *1013:X FrameData_O[5] 42.6677 
*END

*D_NET *61 0.000297607
*CONN
*P FrameData_O[6] O
*I *1014:X O *D sg13g2_buf_1
*CAP
1 FrameData_O[6] 0.000148804
2 *1014:X 0.000148804
3 FrameData_O[6] FrameData_O[7] 0
4 FrameData_O[5] FrameData_O[6] 0
*RES
1 *1014:X FrameData_O[6] 41.6789 
*END

*D_NET *62 0.000487578
*CONN
*P FrameData_O[7] O
*I *1016:X O *D sg13g2_buf_1
*CAP
1 FrameData_O[7] 0.000243789
2 *1016:X 0.000243789
3 FrameData_O[7] FrameData_O[8] 0
4 FrameData_O[7] FrameData_O[9] 0
5 FrameData_O[7] *243:12 0
6 FrameData_O[5] FrameData_O[7] 0
7 FrameData_O[6] FrameData_O[7] 0
*RES
1 *1016:X FrameData_O[7] 42.6677 
*END

*D_NET *63 0.000297607
*CONN
*P FrameData_O[8] O
*I *1017:X O *D sg13g2_buf_1
*CAP
1 FrameData_O[8] 0.000148804
2 *1017:X 0.000148804
3 FrameData_O[8] FrameData_O[9] 0
4 FrameData_O[7] FrameData_O[8] 0
*RES
1 *1017:X FrameData_O[8] 41.6789 
*END

*D_NET *64 0.000516895
*CONN
*P FrameData_O[9] O
*I *1018:X O *D sg13g2_buf_1
*CAP
1 FrameData_O[9] 0.000258447
2 *1018:X 0.000258447
3 FrameData_O[9] *243:12 0
4 FrameData_O[10] FrameData_O[9] 0
5 FrameData_O[7] FrameData_O[9] 0
6 FrameData_O[8] FrameData_O[9] 0
*RES
1 *1018:X FrameData_O[9] 42.987 
*END

*D_NET *65 0.0269498
*CONN
*P FrameStrobe[0] I
*I *914:A I *D sg13g2_buf_1
*CAP
1 FrameStrobe[0] 0.000740083
2 *914:A 5.94754e-05
3 *65:17 0.00284371
4 *65:15 0.00278424
5 *65:13 0.000740083
6 *914:A *916:A 0
7 *914:A *986:A 0
8 *914:A *220:10 0
9 *914:A *245:8 0
10 *65:13 *76:15 0
11 *65:17 *209:9 0.011507
12 *65:17 *234:14 0
13 *65:17 *239:12 0
14 *65:17 *240:8 0
15 *23:9 *65:13 0.00130995
16 *26:9 *65:13 0
17 *27:5 *65:17 0.00696522
18 *28:9 *65:17 0
*RES
1 FrameStrobe[0] *65:13 49.5481 
2 *65:13 *65:15 20 
3 *65:15 *65:17 54.487 
4 *65:17 *914:A 40.5356 
*END

*D_NET *66 0.00102039
*CONN
*P FrameStrobe[10] I
*I *924:A I *D sg13g2_buf_1
*CAP
1 FrameStrobe[10] 0.000510193
2 *924:A 0
3 *66:13 0.000510193
4 *66:13 *79:9 0
*RES
1 FrameStrobe[10] *66:13 44.9131 
2 *66:13 *924:A 20 
*END

*D_NET *67 0.00184879
*CONN
*P FrameStrobe[11] I
*I *925:A I *D sg13g2_buf_1
*CAP
1 FrameStrobe[11] 0.000360212
2 *925:A 0
3 *67:11 0.000360212
4 *67:11 *918:A 0.000337402
5 *67:11 *209:9 0.000395482
6 *67:11 *234:14 0.000395482
*RES
1 FrameStrobe[11] *67:11 44.8101 
2 *67:11 *925:A 20 
*END

*D_NET *68 0.00168371
*CONN
*P FrameStrobe[12] I
*I *926:A I *D sg13g2_buf_1
*CAP
1 FrameStrobe[12] 0.00039251
2 *926:A 0
3 *68:11 0.00039251
4 *68:11 *209:9 0.000449344
5 *68:11 *234:14 0.000449344
*RES
1 FrameStrobe[12] *68:11 45.0573 
2 *68:11 *926:A 20 
*END

*D_NET *69 0.000721164
*CONN
*P FrameStrobe[13] I
*I *927:A I *D sg13g2_buf_1
*CAP
1 FrameStrobe[13] 0.000360582
2 *927:A 0.000360582
*RES
1 FrameStrobe[13] *927:A 23.5741 
*END

*D_NET *70 0.00112932
*CONN
*P FrameStrobe[14] I
*I *928:A I *D sg13g2_buf_1
*CAP
1 FrameStrobe[14] 0.000564662
2 *928:A 0
3 *70:13 0.000564662
4 *70:13 *238:10 0
*RES
1 FrameStrobe[14] *70:13 45.9019 
2 *70:13 *928:A 20 
*END

*D_NET *71 0.00092104
*CONN
*P FrameStrobe[15] I
*I *929:A I *D sg13g2_buf_1
*CAP
1 FrameStrobe[15] 0.00046052
2 *929:A 0.00046052
*RES
1 FrameStrobe[15] *929:A 25.2839 
*END

*D_NET *72 0.00525816
*CONN
*P FrameStrobe[16] I
*I *930:A I *D sg13g2_buf_1
*CAP
1 FrameStrobe[16] 0.00088865
2 *930:A 0.00150754
3 *72:11 0.00239619
4 *930:A *251:10 0
5 *930:A *255:14 0
6 *72:11 *230:16 0.000288502
7 *72:11 *242:18 0
8 *72:11 *254:10 0
9 *72:11 *255:14 0.000177272
*RES
1 FrameStrobe[16] *72:11 49.5069 
2 *72:11 *930:A 34.3788 
*END

*D_NET *73 0.00174149
*CONN
*P FrameStrobe[17] I
*I *931:A I *D sg13g2_buf_1
*CAP
1 FrameStrobe[17] 0.00039468
2 *931:A 0
3 *73:11 0.00039468
4 *73:11 *234:14 0.00050279
5 *73:11 *239:12 0
6 *73:11 *256:8 0.000449343
*RES
1 FrameStrobe[17] *73:11 45.3045 
2 *73:11 *931:A 20 
*END

*D_NET *74 0.000946816
*CONN
*P FrameStrobe[18] I
*I *932:A I *D sg13g2_buf_1
*CAP
1 FrameStrobe[18] 0.000473408
2 *932:A 0.000473408
*RES
1 FrameStrobe[18] *932:A 25.2839 
*END

*D_NET *75 0.000862888
*CONN
*P FrameStrobe[19] I
*I *933:A I *D sg13g2_buf_1
*CAP
1 FrameStrobe[19] 0.000431444
2 *933:A 0
3 *75:13 0.000431444
4 *75:13 *987:A 0
5 *75:13 *238:10 0
6 FrameData_O[1] *75:13 0
7 *33:10 *75:13 0
*RES
1 FrameStrobe[19] *75:13 44.4187 
2 *75:13 *933:A 20 
*END

*D_NET *76 0.0265177
*CONN
*P FrameStrobe[1] I
*I *915:A I *D sg13g2_buf_1
*CAP
1 FrameStrobe[1] 0.000287872
2 *915:A 0
3 *76:21 0.00154753
4 *76:17 0.00577648
5 *76:15 0.00510653
6 *76:11 0.00116545
7 *76:17 *230:16 0.00376319
8 *76:17 *242:18 0
9 *76:17 *244:14 0
10 *76:17 *262:10 0
11 *76:21 *195:11 0
12 *76:21 *198:7 0.00156516
13 *76:21 *220:10 0.00020964
14 *76:21 *220:14 0
15 *76:21 *245:8 0
16 *76:21 *249:6 0
17 *1:9 *76:11 0
18 *2:9 *76:17 0.00709589
19 *32:5 *76:17 0
20 *65:13 *76:15 0
*RES
1 FrameStrobe[1] *76:11 42.7398 
2 *76:11 *76:15 28.3224 
3 *76:15 *76:17 52.7566 
4 *76:17 *76:21 35.8929 
5 *76:21 *915:A 20 
*END

*D_NET *77 0.0214308
*CONN
*P FrameStrobe[2] I
*I *916:A I *D sg13g2_buf_1
*CAP
1 FrameStrobe[2] 0.000129343
2 *916:A 0.000215142
3 *77:9 0.00383473
4 *77:7 0.00374893
5 *916:A *78:17 0
6 *77:9 *79:9 0
7 *77:9 *238:10 0
8 *914:A *916:A 0
9 *12:5 *77:9 0.00696498
10 *23:9 *77:9 0.00653766
*RES
1 FrameStrobe[2] *77:7 21.2463 
2 *77:7 *77:9 52.5094 
3 *77:9 *916:A 41.7454 
*END

*D_NET *78 0.0185762
*CONN
*P FrameStrobe[3] I
*I *917:A I *D sg13g2_buf_1
*CAP
1 FrameStrobe[3] 0.00312399
2 *917:A 0
3 *78:17 0.000911331
4 *78:11 0.00403532
5 *78:11 *213:10 0.000665693
6 *78:11 *237:8 1.5617e-05
7 *78:11 *238:10 0.000502204
8 *78:17 *213:18 0.0046528
9 *78:17 *237:10 0.00466922
10 *78:17 *238:10 0
11 *916:A *78:17 0
12 *23:9 *78:11 0
13 *26:9 *78:11 0
*RES
1 FrameStrobe[3] *78:11 49.973 
2 *78:11 *78:17 42.3613 
3 *78:17 *917:A 20 
*END

*D_NET *79 0.0138639
*CONN
*P FrameStrobe[4] I
*I *918:A I *D sg13g2_buf_1
*CAP
1 FrameStrobe[4] 7.8555e-05
2 *918:A 0.000227967
3 *79:9 0.00206996
4 *79:7 0.00192055
5 *1:9 *79:9 0.00418681
6 *12:5 *79:9 0.00504271
7 *66:13 *79:9 0
8 *67:11 *918:A 0.000337402
9 *77:9 *79:9 0
*RES
1 FrameStrobe[4] *79:7 20.8137 
2 *79:7 *79:9 31.4974 
3 *79:9 *918:A 42.266 
*END

*D_NET *80 0.0043395
*CONN
*P FrameStrobe[5] I
*I *919:A I *D sg13g2_buf_1
*CAP
1 FrameStrobe[5] 0.00216975
2 *919:A 0.00216975
3 *919:A *1066:A 0
4 *919:A *261:8 0
*RES
1 FrameStrobe[5] *919:A 41.1047 
*END

*D_NET *81 0.00157104
*CONN
*P FrameStrobe[6] I
*I *920:A I *D sg13g2_buf_1
*CAP
1 FrameStrobe[6] 0.000389622
2 *920:A 0
3 *81:11 0.000389622
4 *81:11 *209:9 0.000395897
5 *26:9 *81:11 0.000395897
*RES
1 FrameStrobe[6] *81:11 44.8101 
2 *81:11 *920:A 20 
*END

*D_NET *82 0.00169642
*CONN
*P FrameStrobe[7] I
*I *921:A I *D sg13g2_buf_1
*CAP
1 FrameStrobe[7] 0.000398865
2 *921:A 0
3 *82:11 0.000398865
4 *82:11 *209:9 0.000449344
5 *26:9 *82:11 0.000449344
*RES
1 FrameStrobe[7] *82:11 45.0573 
2 *82:11 *921:A 20 
*END

*D_NET *83 0.0054704
*CONN
*P FrameStrobe[8] I
*I *922:A I *D sg13g2_buf_1
*CAP
1 FrameStrobe[8] 0.00243855
2 *922:A 0.00243855
3 *922:A *159:9 0.000208035
4 *922:A *160:11 4.77425e-05
5 *922:A *264:8 0
6 *922:A *272:8 0
7 *922:A *276:20 0.000337517
8 *922:A *283:16 0
9 *882:A *922:A 0
*RES
1 FrameStrobe[8] *922:A 43.3913 
*END

*D_NET *84 0.00739512
*CONN
*P FrameStrobe[9] I
*I *923:A I *D sg13g2_buf_1
*CAP
1 FrameStrobe[9] 0.00259893
2 *923:A 0.000513952
3 *84:17 0.00311289
4 *923:A *968:A 0.000337402
5 *923:A *282:10 0
6 *84:17 *199:9 0
7 *84:17 *223:12 0
8 *84:17 *234:8 7.97925e-05
9 *84:17 *242:10 4.7651e-05
10 *84:17 *244:14 0
11 *84:17 *285:8 0
12 *84:17 *307:8 0
13 *84:17 *307:10 0
14 *884:A *84:17 0.000240085
15 *889:A *84:17 0.000241023
16 *891:A *84:17 0.000175649
17 *900:A *84:17 4.77425e-05
18 *902:A *84:17 0
*RES
1 FrameStrobe[9] *84:17 44.9311 
2 *84:17 *923:A 44.8616 
*END

*D_NET *85 0.00150448
*CONN
*P FrameStrobe_O[0] O
*I *1019:X O *D sg13g2_buf_1
*CAP
1 FrameStrobe_O[0] 0.000344177
2 *1019:X 0.000119804
3 *85:8 0.000463981
4 FrameStrobe_O[0] FrameStrobe_O[1] 0
5 FrameStrobe_O[0] UserCLKo 0
6 *85:8 *97:10 0.000181781
7 *85:8 *235:16 0.000394739
8 *85:8 *248:22 0
*RES
1 *1019:X *85:8 41.8334 
2 *85:8 FrameStrobe_O[0] 22.7604 
*END

*D_NET *86 0.00172441
*CONN
*P FrameStrobe_O[10] O
*I *1020:X O *D sg13g2_buf_1
*CAP
1 FrameStrobe_O[10] 0.000321656
2 *1020:X 7.45913e-05
3 *86:8 0.000396247
4 FrameStrobe_O[10] FrameStrobe_O[11] 0
5 FrameStrobe_O[10] FrameStrobe_O[9] 0
6 FrameStrobe_O[10] *101:10 0.000143351
7 *86:8 *235:16 0.000394739
8 *86:8 *248:22 0.000393823
*RES
1 *1020:X *86:8 41.8334 
2 *86:8 FrameStrobe_O[10] 22.7604 
*END

*D_NET *87 0.00130062
*CONN
*P FrameStrobe_O[11] O
*I *1021:X O *D sg13g2_buf_1
*CAP
1 FrameStrobe_O[11] 0.000610696
2 *1021:X 0.000610696
3 FrameStrobe_O[11] FrameStrobe_O[12] 0
4 FrameStrobe_O[11] FrameStrobe_O[13] 0
5 FrameStrobe_O[11] FrameStrobe_O[9] 0
6 FrameStrobe_O[11] *103:10 7.9225e-05
7 FrameStrobe_O[11] *262:16 0
8 FrameStrobe_O[10] FrameStrobe_O[11] 0
*RES
1 *1021:X FrameStrobe_O[11] 24.8072 
*END

*D_NET *88 0.00119279
*CONN
*P FrameStrobe_O[12] O
*I *1022:X O *D sg13g2_buf_1
*CAP
1 FrameStrobe_O[12] 0.000224724
2 *1022:X 0.000299997
3 *88:10 0.000524721
4 FrameStrobe_O[12] FrameStrobe_O[13] 0
5 *88:10 FrameStrobe_O[15] 0.000143351
6 *88:10 *248:22 0
7 FrameStrobe_O[11] FrameStrobe_O[12] 0
*RES
1 *1022:X *88:10 42.8016 
2 *88:10 FrameStrobe_O[12] 21.8952 
*END

*D_NET *89 0.00123296
*CONN
*P FrameStrobe_O[13] O
*I *1023:X O *D sg13g2_buf_1
*CAP
1 FrameStrobe_O[13] 0.000616481
2 *1023:X 0.000616481
3 FrameStrobe_O[13] FrameStrobe_O[14] 0
4 FrameStrobe_O[13] FrameStrobe_O[15] 0
5 FrameStrobe_O[13] *1020:A 0
6 FrameStrobe_O[11] FrameStrobe_O[13] 0
7 FrameStrobe_O[12] FrameStrobe_O[13] 0
*RES
1 *1023:X FrameStrobe_O[13] 24.8072 
*END

*D_NET *90 0.00146851
*CONN
*P FrameStrobe_O[14] O
*I *1024:X O *D sg13g2_buf_1
*CAP
1 FrameStrobe_O[14] 0.000286428
2 *1024:X 0.000203122
3 *90:10 0.00048955
4 FrameStrobe_O[14] FrameStrobe_O[15] 0
5 *90:10 FrameStrobe_O[17] 4.68833e-05
6 *90:10 FrameStrobe_O[18] 7.9225e-05
7 *90:10 *92:10 0
8 *90:10 *93:10 7.51285e-05
9 *90:10 *248:22 0.000288173
10 FrameStrobe_O[13] FrameStrobe_O[14] 0
*RES
1 *1024:X *90:10 42.369 
2 *90:10 FrameStrobe_O[14] 22.3278 
*END

*D_NET *91 0.00135149
*CONN
*P FrameStrobe_O[15] O
*I *1025:X O *D sg13g2_buf_1
*CAP
1 FrameStrobe_O[15] 0.00060407
2 *1025:X 0.00060407
3 FrameStrobe_O[15] FrameStrobe_O[16] 0
4 FrameStrobe_O[15] FrameStrobe_O[18] 0
5 FrameStrobe_O[15] *1020:A 0
6 FrameStrobe_O[15] *1022:A 0
7 FrameStrobe_O[13] FrameStrobe_O[15] 0
8 FrameStrobe_O[14] FrameStrobe_O[15] 0
9 *88:10 FrameStrobe_O[15] 0.000143351
*RES
1 *1025:X FrameStrobe_O[15] 25.2736 
*END

*D_NET *92 0.0011714
*CONN
*P FrameStrobe_O[16] O
*I *1027:X O *D sg13g2_buf_1
*CAP
1 FrameStrobe_O[16] 0.000199484
2 *1027:X 0.000297974
3 *92:10 0.000497458
4 FrameStrobe_O[16] FrameStrobe_O[17] 0
5 *92:10 FrameStrobe_O[19] 0.000176484
6 FrameStrobe_O[15] FrameStrobe_O[16] 0
7 *90:10 *92:10 0
*RES
1 *1027:X *92:10 43.0179 
2 *92:10 FrameStrobe_O[16] 21.6789 
*END

*D_NET *93 0.00148083
*CONN
*P FrameStrobe_O[17] O
*I *1028:X O *D sg13g2_buf_1
*CAP
1 FrameStrobe_O[17] 0.000306869
2 *1028:X 0.000228496
3 *93:10 0.000535365
4 FrameStrobe_O[17] FrameStrobe_O[18] 0
5 *93:10 *95:8 0.000288087
6 *93:10 *235:16 0
7 FrameStrobe_O[16] FrameStrobe_O[17] 0
8 *90:10 FrameStrobe_O[17] 4.68833e-05
9 *90:10 *93:10 7.51285e-05
*RES
1 *1028:X *93:10 42.6471 
2 *93:10 FrameStrobe_O[17] 22.5441 
*END

*D_NET *94 0.00176962
*CONN
*P FrameStrobe_O[18] O
*I *1029:X O *D sg13g2_buf_1
*CAP
1 FrameStrobe_O[18] 0.000573525
2 *1029:X 3.36009e-05
3 *94:8 0.000607126
4 FrameStrobe_O[18] FrameStrobe_O[19] 0
5 FrameStrobe_O[18] *1022:A 0
6 FrameStrobe_O[18] *250:20 0.000112343
7 *94:8 *229:12 0.00018128
8 *94:8 *233:12 0.000182525
9 FrameStrobe_O[15] FrameStrobe_O[18] 0
10 FrameStrobe_O[17] FrameStrobe_O[18] 0
11 *90:10 FrameStrobe_O[18] 7.9225e-05
*RES
1 *1029:X *94:8 40.8446 
2 *94:8 FrameStrobe_O[18] 24.9234 
*END

*D_NET *95 0.00175959
*CONN
*P FrameStrobe_O[19] O
*I *1030:X O *D sg13g2_buf_1
*CAP
1 FrameStrobe_O[19] 0.000285995
2 *1030:X 0.000109868
3 *95:8 0.000395863
4 *95:8 *235:16 0.000503291
5 FrameStrobe_O[18] FrameStrobe_O[19] 0
6 *92:10 FrameStrobe_O[19] 0.000176484
7 *93:10 *95:8 0.000288087
*RES
1 *1030:X *95:8 42.3278 
2 *95:8 FrameStrobe_O[19] 22.7604 
*END

*D_NET *96 0.00142008
*CONN
*P FrameStrobe_O[1] O
*I *1031:X O *D sg13g2_buf_1
*CAP
1 FrameStrobe_O[1] 0.000589836
2 *1031:X 0.000589836
3 FrameStrobe_O[1] FrameStrobe_O[2] 0
4 FrameStrobe_O[1] FrameStrobe_O[3] 0
5 FrameStrobe_O[1] *199:7 0
6 FrameStrobe_O[1] *220:14 0.000240404
7 FrameStrobe_O[0] FrameStrobe_O[1] 0
*RES
1 *1031:X FrameStrobe_O[1] 25.2736 
*END

*D_NET *97 0.00156094
*CONN
*P FrameStrobe_O[2] O
*I *1032:X O *D sg13g2_buf_1
*CAP
1 FrameStrobe_O[2] 0.000317569
2 *1032:X 0.000151177
3 *97:10 0.000468746
4 FrameStrobe_O[2] FrameStrobe_O[3] 0
5 *97:10 FrameStrobe_O[5] 4.75151e-05
6 *97:10 *235:16 0
7 *97:10 *248:22 0.000394151
8 FrameStrobe_O[1] FrameStrobe_O[2] 0
9 *85:8 *97:10 0.000181781
*RES
1 *1032:X *97:10 42.1527 
2 *97:10 FrameStrobe_O[2] 22.5441 
*END

*D_NET *98 0.00133695
*CONN
*P FrameStrobe_O[3] O
*I *1033:X O *D sg13g2_buf_1
*CAP
1 FrameStrobe_O[3] 0.00060527
2 *1033:X 0.00060527
3 FrameStrobe_O[3] FrameStrobe_O[4] 0
4 FrameStrobe_O[3] FrameStrobe_O[5] 0
5 FrameStrobe_O[3] *1031:A 1.54008e-05
6 FrameStrobe_O[3] *236:8 0.00011101
7 FrameStrobe_O[3] *245:24 0
8 FrameStrobe_O[1] FrameStrobe_O[3] 0
9 FrameStrobe_O[2] FrameStrobe_O[3] 0
*RES
1 *1033:X FrameStrobe_O[3] 24.6224 
*END

*D_NET *99 0.00149831
*CONN
*P FrameStrobe_O[4] O
*I *1034:X O *D sg13g2_buf_1
*CAP
1 FrameStrobe_O[4] 0.000251966
2 *1034:X 0.00020885
3 *99:10 0.000460816
4 FrameStrobe_O[4] FrameStrobe_O[5] 0
5 *99:10 FrameStrobe_O[7] 0.00011101
6 *99:10 FrameStrobe_O[8] 4.68848e-05
7 *99:10 *101:10 0.000182313
8 *99:10 *248:22 0.000236468
9 FrameStrobe_O[3] FrameStrobe_O[4] 0
*RES
1 *1034:X *99:10 42.5853 
2 *99:10 FrameStrobe_O[4] 22.1115 
*END

*D_NET *100 0.00130801
*CONN
*P FrameStrobe_O[5] O
*I *1035:X O *D sg13g2_buf_1
*CAP
1 FrameStrobe_O[5] 0.000630249
2 *1035:X 0.000630249
3 FrameStrobe_O[5] FrameStrobe_O[6] 0
4 FrameStrobe_O[5] FrameStrobe_O[7] 0
5 FrameStrobe_O[5] *245:24 0
6 FrameStrobe_O[5] *258:16 0
7 FrameStrobe_O[3] FrameStrobe_O[5] 0
8 FrameStrobe_O[4] FrameStrobe_O[5] 0
9 *97:10 FrameStrobe_O[5] 4.75151e-05
*RES
1 *1035:X FrameStrobe_O[5] 24.992 
*END

*D_NET *101 0.00142714
*CONN
*P FrameStrobe_O[6] O
*I *1036:X O *D sg13g2_buf_1
*CAP
1 FrameStrobe_O[6] 0.000224979
2 *1036:X 0.000254084
3 *101:10 0.000479063
4 FrameStrobe_O[6] FrameStrobe_O[7] 0
5 *101:10 FrameStrobe_O[9] 0.000143351
6 FrameStrobe_O[10] *101:10 0.000143351
7 FrameStrobe_O[5] FrameStrobe_O[6] 0
8 *99:10 *101:10 0.000182313
*RES
1 *1036:X *101:10 42.8016 
2 *101:10 FrameStrobe_O[6] 21.8952 
*END

*D_NET *102 0.00134305
*CONN
*P FrameStrobe_O[7] O
*I *1038:X O *D sg13g2_buf_1
*CAP
1 FrameStrobe_O[7] 0.00061602
2 *1038:X 0.00061602
3 FrameStrobe_O[7] FrameStrobe_O[8] 0
4 FrameStrobe_O[7] FrameStrobe_O[9] 0
5 FrameStrobe_O[7] *1034:A 0
6 FrameStrobe_O[7] *258:16 0
7 FrameStrobe_O[5] FrameStrobe_O[7] 0
8 FrameStrobe_O[6] FrameStrobe_O[7] 0
9 *99:10 FrameStrobe_O[7] 0.00011101
*RES
1 *1038:X FrameStrobe_O[7] 25.2736 
*END

*D_NET *103 0.00147973
*CONN
*P FrameStrobe_O[8] O
*I *1039:X O *D sg13g2_buf_1
*CAP
1 FrameStrobe_O[8] 0.000279876
2 *1039:X 0.000200064
3 *103:10 0.00047994
4 FrameStrobe_O[8] FrameStrobe_O[9] 0
5 *103:10 *248:22 0.000393736
6 FrameStrobe_O[11] *103:10 7.9225e-05
7 FrameStrobe_O[7] FrameStrobe_O[8] 0
8 *99:10 FrameStrobe_O[8] 4.68848e-05
*RES
1 *1039:X *103:10 42.369 
2 *103:10 FrameStrobe_O[8] 22.3278 
*END

*D_NET *104 0.00148069
*CONN
*P FrameStrobe_O[9] O
*I *1040:X O *D sg13g2_buf_1
*CAP
1 FrameStrobe_O[9] 0.000596699
2 *1040:X 0.000596699
3 FrameStrobe_O[9] *1034:A 0.000143938
4 FrameStrobe_O[9] *262:16 0
5 FrameStrobe_O[10] FrameStrobe_O[9] 0
6 FrameStrobe_O[11] FrameStrobe_O[9] 0
7 FrameStrobe_O[7] FrameStrobe_O[9] 0
8 FrameStrobe_O[8] FrameStrobe_O[9] 0
9 *101:10 FrameStrobe_O[9] 0.000143351
*RES
1 *1040:X FrameStrobe_O[9] 25.2736 
*END

*D_NET *105 0.000993798
*CONN
*P N1BEG[0] O
*I *1041:X O *D sg13g2_buf_1
*CAP
1 N1BEG[0] 4.27856e-05
2 *1041:X 0.000454113
3 *105:10 0.000496899
4 N1BEG[0] N1BEG[1] 0
5 *105:10 *1043:A 0
6 *105:10 *107:10 0
7 *105:10 *269:26 0
8 *105:10 *269:34 0
*RES
1 *1041:X *105:10 45.3045 
2 *105:10 N1BEG[0] 20.3811 
*END

*D_NET *106 0.00159918
*CONN
*P N1BEG[1] O
*I *1042:X O *D sg13g2_buf_1
*CAP
1 N1BEG[1] 0.000599074
2 *1042:X 0.000599074
3 N1BEG[1] N1BEG[2] 0
4 N1BEG[1] *1047:A 8.00842e-05
5 N1BEG[1] *1050:A 1.54008e-05
6 N1BEG[1] *268:42 0.000305548
7 N1BEG[1] *268:52 0
8 N1BEG[1] *269:34 0
9 N1BEG[0] N1BEG[1] 0
*RES
1 *1042:X N1BEG[1] 25.974 
*END

*D_NET *107 0.00170673
*CONN
*P N1BEG[2] O
*I *1043:X O *D sg13g2_buf_1
*CAP
1 N1BEG[2] 0.000224751
2 *1043:X 0.000310435
3 *107:10 0.000535187
4 N1BEG[2] N1BEG[3] 0
5 N1BEG[2] *268:42 0.000241912
6 *107:10 *109:10 0.000394442
7 *107:10 *269:26 0
8 *107:10 *269:34 0
9 N1BEG[1] N1BEG[2] 0
10 *105:10 *107:10 0
*RES
1 *1043:X *107:10 43.2045 
2 *107:10 N1BEG[2] 22.1115 
*END

*D_NET *108 0.00164178
*CONN
*P N1BEG[3] O
*I *1044:X O *D sg13g2_buf_1
*CAP
1 N1BEG[3] 0.000646438
2 *1044:X 0.000646438
3 N1BEG[3] N2BEG[0] 0
4 N1BEG[3] *1050:A 0.000134485
5 N1BEG[3] *113:10 4.75151e-05
6 N1BEG[3] *278:18 0.000166901
7 N1BEG[2] N1BEG[3] 0
*RES
1 *1044:X N1BEG[3] 25.871 
*END

*D_NET *109 0.00199748
*CONN
*P N2BEG[0] O
*I *1045:X O *D sg13g2_buf_1
*CAP
1 N2BEG[0] 0.000284387
2 *1045:X 0.000235238
3 *109:10 0.000519625
4 N2BEG[0] N2BEG[1] 0
5 N2BEG[0] *115:10 4.69895e-05
6 *109:10 *111:8 0
7 *109:10 *113:10 0.000181608
8 *109:10 *268:52 0.000335187
9 *109:10 *269:26 0
10 N1BEG[3] N2BEG[0] 0
11 *107:10 *109:10 0.000394442
*RES
1 *1045:X *109:10 43.3578 
2 *109:10 N2BEG[0] 22.3278 
*END

*D_NET *110 0.00154172
*CONN
*P N2BEG[1] O
*I *1046:X O *D sg13g2_buf_1
*CAP
1 N2BEG[1] 0.000640339
2 *1046:X 0.000640339
3 N2BEG[1] N2BEG[2] 0
4 N2BEG[1] N2BEG[3] 0
5 N2BEG[1] *115:10 0.00011101
6 N2BEG[1] *278:18 6.99453e-05
7 N2BEG[1] *280:34 8.00842e-05
8 N2BEG[0] N2BEG[1] 0
*RES
1 *1046:X N2BEG[1] 25.871 
*END

*D_NET *111 0.00185293
*CONN
*P N2BEG[2] O
*I *1047:X O *D sg13g2_buf_1
*CAP
1 N2BEG[2] 0.000341537
2 *1047:X 0.000246672
3 *111:8 0.00058821
4 N2BEG[2] N2BEG[3] 0
5 N2BEG[2] *117:10 7.9225e-05
6 *111:8 *113:10 0.000393736
7 *111:8 *268:52 0.000128334
8 *111:8 *280:34 7.52158e-05
9 N2BEG[1] N2BEG[2] 0
10 *21:5 *111:8 0
11 *109:10 *111:8 0
*RES
1 *1047:X *111:8 42.8222 
2 *111:8 N2BEG[2] 22.7604 
*END

*D_NET *112 0.0017511
*CONN
*P N2BEG[3] O
*I *1049:X O *D sg13g2_buf_1
*CAP
1 N2BEG[3] 0.000594667
2 *1049:X 0.000594667
3 N2BEG[3] N2BEG[4] 0
4 N2BEG[3] N2BEG[5] 0
5 N2BEG[3] *1056:A 0.000467142
6 N2BEG[3] *117:10 7.9225e-05
7 N2BEG[3] *280:34 1.54008e-05
8 N2BEG[1] N2BEG[3] 0
9 N2BEG[2] N2BEG[3] 0
*RES
1 *1049:X N2BEG[3] 25.974 
*END

*D_NET *113 0.00218436
*CONN
*P N2BEG[4] O
*I *1050:X O *D sg13g2_buf_1
*CAP
1 N2BEG[4] 0.000275632
2 *1050:X 0.000245649
3 *113:10 0.000521281
4 N2BEG[4] N2BEG[5] 0
5 N2BEG[4] *1056:A 0.000337747
6 *113:10 *117:10 0.000181192
7 *113:10 *280:34 0
8 N1BEG[3] *113:10 4.75151e-05
9 N2BEG[3] N2BEG[4] 0
10 *109:10 *113:10 0.000181608
11 *111:8 *113:10 0.000393736
*RES
1 *1050:X *113:10 43.1415 
2 *113:10 N2BEG[4] 22.5441 
*END

*D_NET *114 0.00134479
*CONN
*P N2BEG[5] O
*I *1051:X O *D sg13g2_buf_1
*CAP
1 N2BEG[5] 0.000656995
2 *1051:X 0.000656995
3 N2BEG[5] N2BEG[6] 0
4 N2BEG[5] N2BEG[7] 0
5 N2BEG[5] *1056:A 1.54008e-05
6 N2BEG[5] *286:22 1.54008e-05
7 N2BEG[3] N2BEG[5] 0
8 N2BEG[4] N2BEG[5] 0
*RES
1 *1051:X N2BEG[5] 25.974 
*END

*D_NET *115 0.00178402
*CONN
*P N2BEG[6] O
*I *1052:X O *D sg13g2_buf_1
*CAP
1 N2BEG[6] 0.0002562
2 *1052:X 0.000335913
3 *115:10 0.000592113
4 N2BEG[6] N2BEG[7] 0
5 N2BEG[6] *122:10 4.75442e-05
6 *115:10 *117:10 0.000394248
7 N2BEG[0] *115:10 4.69895e-05
8 N2BEG[1] *115:10 0.00011101
9 N2BEG[5] N2BEG[6] 0
*RES
1 *1052:X *115:10 43.5741 
2 *115:10 N2BEG[6] 22.1115 
*END

*D_NET *116 0.00151902
*CONN
*P N2BEG[7] O
*I *1053:X O *D sg13g2_buf_1
*CAP
1 N2BEG[7] 0.000631736
2 *1053:X 0.000631736
3 N2BEG[7] N2BEGb[0] 0
4 N2BEG[7] *122:10 0.000143351
5 N2BEG[7] *286:22 0.0001122
6 N2BEG[7] *289:24 0
7 N2BEG[5] N2BEG[7] 0
8 N2BEG[6] N2BEG[7] 0
*RES
1 *1053:X N2BEG[7] 25.2348 
*END

*D_NET *117 0.00200589
*CONN
*P N2BEGb[0] O
*I *1054:X O *D sg13g2_buf_1
*CAP
1 N2BEGb[0] 0.000280689
2 *1054:X 0.000299529
3 *117:10 0.000580218
4 N2BEGb[0] N2BEGb[1] 0
5 N2BEGb[0] *125:10 0.000111568
6 *117:10 *119:8 0
7 *117:10 *280:34 0
8 N2BEG[2] *117:10 7.9225e-05
9 N2BEG[3] *117:10 7.9225e-05
10 N2BEG[7] N2BEGb[0] 0
11 *113:10 *117:10 0.000181192
12 *115:10 *117:10 0.000394248
*RES
1 *1054:X *117:10 43.3578 
2 *117:10 N2BEGb[0] 22.3278 
*END

*D_NET *118 0.00193575
*CONN
*P N2BEGb[1] O
*I *1055:X O *D sg13g2_buf_1
*CAP
1 N2BEGb[1] 0.000539984
2 *1055:X 6.36338e-05
3 *118:8 0.000603617
4 N2BEGb[1] N2BEGb[2] 0
5 N2BEGb[1] N2BEGb[3] 0
6 N2BEGb[1] *1073:A 0.000370727
7 N2BEGb[1] *125:10 0.000176506
8 N2BEGb[1] *289:24 0
9 *118:8 *277:16 0
10 N2BEGb[0] N2BEGb[1] 0
11 *19:11 *118:8 0.000181279
*RES
1 *1055:X *118:8 40.8446 
2 *118:8 N2BEGb[1] 24.9234 
*END

*D_NET *119 0.00202749
*CONN
*P N2BEGb[2] O
*I *1056:X O *D sg13g2_buf_1
*CAP
1 N2BEGb[2] 0.000296927
2 *1056:X 0.000237307
3 *119:8 0.000534234
4 N2BEGb[2] N2BEGb[3] 0
5 N2BEGb[2] *1073:A 0.000273531
6 N2BEGb[2] *134:10 7.95069e-05
7 *119:8 *122:10 0
8 *119:8 *280:34 0.000605985
9 N2BEGb[1] N2BEGb[2] 0
10 *117:10 *119:8 0
*RES
1 *1056:X *119:8 42.8222 
2 *119:8 N2BEGb[2] 22.7604 
*END

*D_NET *120 0.00145622
*CONN
*P N2BEGb[3] O
*I *1057:X O *D sg13g2_buf_1
*CAP
1 N2BEGb[3] 0.000680839
2 *1057:X 0.000680839
3 N2BEGb[3] N2BEGb[4] 0
4 N2BEGb[3] *1073:A 1.54282e-05
5 N2BEGb[3] *134:10 7.9112e-05
6 N2BEGb[1] N2BEGb[3] 0
7 N2BEGb[2] N2BEGb[3] 0
*RES
1 *1057:X N2BEGb[3] 25.974 
*END

*D_NET *121 0.00187244
*CONN
*P N2BEGb[4] O
*I *1058:X O *D sg13g2_buf_1
*CAP
1 N2BEGb[4] 0.000824548
2 *1058:X 0.000824548
3 N2BEGb[4] N2BEGb[5] 0
4 N2BEGb[4] *970:A 0
5 N2BEGb[4] *1071:A 0.000112445
6 N2BEGb[4] *137:10 0.000110897
7 N2BEGb[4] *287:14 0
8 N2BEGb[3] N2BEGb[4] 0
*RES
1 *1058:X N2BEGb[4] 27.004 
*END

*D_NET *122 0.00206145
*CONN
*P N2BEGb[5] O
*I *1060:X O *D sg13g2_buf_1
*CAP
1 N2BEGb[5] 0.00024122
2 *1060:X 0.000406705
3 *122:10 0.000647924
4 N2BEGb[5] N2BEGb[6] 0
5 *122:10 *125:10 0.000499383
6 *122:10 *137:10 7.53228e-05
7 *122:10 *280:34 0
8 N2BEG[6] *122:10 4.75442e-05
9 N2BEG[7] *122:10 0.000143351
10 N2BEGb[4] N2BEGb[5] 0
11 *119:8 *122:10 0
*RES
1 *1060:X *122:10 44.2848 
2 *122:10 N2BEGb[5] 21.8952 
*END

*D_NET *123 0.0018818
*CONN
*P N2BEGb[6] O
*I *1061:X O *D sg13g2_buf_1
*CAP
1 N2BEGb[6] 0.000622075
2 *1061:X 9.05838e-05
3 *123:8 0.000712659
4 N2BEGb[6] N2BEGb[7] 0
5 N2BEGb[6] *132:10 1.54008e-05
6 N2BEGb[6] *137:10 0
7 N2BEGb[6] *306:10 7.92265e-05
8 *123:8 *132:10 7.48178e-05
9 *123:8 *277:16 0
10 N2BEGb[5] N2BEGb[6] 0
11 *19:11 *123:8 0.000287032
*RES
1 *1061:X *123:8 41.339 
2 *123:8 N2BEGb[6] 24.9234 
*END

*D_NET *124 0.00187434
*CONN
*P N2BEGb[7] O
*I *1062:X O *D sg13g2_buf_1
*CAP
1 N2BEGb[7] 0.000841346
2 *1062:X 0.000841346
3 N2BEGb[7] N4BEG[0] 0
4 N2BEGb[7] N4BEG[1] 0
5 N2BEGb[7] *970:A 0
6 N2BEGb[7] *1074:A 0.000112426
7 N2BEGb[7] *126:10 0
8 N2BEGb[7] *306:10 7.92265e-05
9 N2BEGb[6] N2BEGb[7] 0
*RES
1 *1062:X N2BEGb[7] 26.9072 
*END

*D_NET *125 0.00276059
*CONN
*P N4BEG[0] O
*I *1063:X O *D sg13g2_buf_1
*CAP
1 N4BEG[0] 0.000201167
2 *1063:X 0.000336568
3 *125:10 0.000537735
4 N4BEG[0] N4BEG[1] 0
5 N4BEG[0] *126:10 8.00842e-05
6 *125:10 *137:10 0
7 *125:10 *269:26 0.000817575
8 N2BEGb[0] *125:10 0.000111568
9 N2BEGb[1] *125:10 0.000176506
10 N2BEGb[7] N4BEG[0] 0
11 *122:10 *125:10 0.000499383
*RES
1 *1063:X *125:10 44.9955 
2 *125:10 N4BEG[0] 21.6789 
*END

*D_NET *126 0.00345557
*CONN
*P N4BEG[10] O
*I *1064:X O *D sg13g2_buf_1
*CAP
1 N4BEG[10] 0.000138048
2 *1064:X 0.000388631
3 *126:10 0.000526678
4 N4BEG[10] N4BEG[9] 0
5 N4BEG[10] *150:10 0.000112426
6 *126:10 N4BEG[1] 0.000240379
7 *126:10 *131:10 0
8 *126:10 *148:10 0.000182023
9 *126:10 *269:26 0.000759751
10 *126:10 *299:22 0.00102755
11 N2BEGb[7] *126:10 0
12 N4BEG[0] *126:10 8.00842e-05
*RES
1 *1064:X *126:10 46.4169 
2 *126:10 N4BEG[10] 21.2463 
*END

*D_NET *127 0.0020777
*CONN
*P N4BEG[11] O
*I *1065:X O *D sg13g2_buf_1
*CAP
1 N4BEG[11] 0.00087015
2 *1065:X 0.00087015
3 N4BEG[11] *989:A 0
4 N4BEG[11] *130:12 0
5 N4BEG[11] *150:10 0.000337402
*RES
1 *1065:X N4BEG[11] 27.4984 
*END

*D_NET *128 0.00290106
*CONN
*P N4BEG[12] O
*I *1066:X O *D sg13g2_buf_1
*CAP
1 N4BEG[12] 0.000520156
2 *1066:X 0.000313133
3 *128:12 0.000833289
4 N4BEG[12] *989:A 0.000197984
5 N4BEG[12] *152:10 0.000240377
6 N4BEG[12] *281:38 0.000175809
7 *128:12 N4BEG[8] 0
8 *128:12 *1066:A 0
9 *128:12 *1088:A 1.51734e-05
10 *128:12 *138:10 0
11 *128:12 *277:16 0
12 *128:12 *306:10 0.00060514
*RES
1 *1066:X *128:12 43.708 
2 *128:12 N4BEG[12] 24.944 
*END

*D_NET *129 0.00301393
*CONN
*P N4BEG[13] O
*I *1067:X O *D sg13g2_buf_1
*CAP
1 N4BEG[13] 0.000224962
2 *1067:X 0.000391257
3 *129:10 0.000616219
4 N4BEG[13] *152:10 0.000112426
5 *129:10 N4BEG[4] 0.000143306
6 *129:10 N4BEG[5] 0.000143351
7 *129:10 *131:10 0.00070637
8 *129:10 *137:10 0.000179389
9 *129:10 *138:18 0
10 *129:10 *269:26 0
11 *129:10 *293:26 0.000496645
*RES
1 *1067:X *129:10 45.2736 
2 *129:10 N4BEG[13] 21.8952 
*END

*D_NET *130 0.0023819
*CONN
*P N4BEG[14] O
*I *1068:X O *D sg13g2_buf_1
*CAP
1 N4BEG[14] 0.000331706
2 *1068:X 0.000484349
3 *130:12 0.000816054
4 N4BEG[14] *991:A 0
5 N4BEG[14] *153:10 4.68848e-05
6 *130:12 *150:10 7.9225e-05
7 *130:12 *196:23 0.000232418
8 *130:12 *293:26 0.000391262
9 *130:12 *295:18 0
10 N4BEG[11] *130:12 0
*RES
1 *1068:X *130:12 44.8822 
2 *130:12 N4BEG[14] 22.678 
*END

*D_NET *131 0.00292882
*CONN
*P N4BEG[15] O
*I *1069:X O *D sg13g2_buf_1
*CAP
1 N4BEG[15] 0.000214699
2 *1069:X 0.000381125
3 *131:10 0.000595824
4 *131:10 N4BEG[6] 7.98582e-05
5 *131:10 N4BEG[7] 0.000112244
6 *131:10 *148:10 0.000712342
7 *131:10 *153:10 0
8 *131:10 *269:26 0.000126354
9 *131:10 *293:26 0
10 *126:10 *131:10 0
11 *129:10 *131:10 0.00070637
*RES
1 *1069:X *131:10 45.4899 
2 *131:10 N4BEG[15] 21.6789 
*END

*D_NET *132 0.00232129
*CONN
*P N4BEG[1] O
*I *1071:X O *D sg13g2_buf_1
*CAP
1 N4BEG[1] 0.000670979
2 *1071:X 0.000191605
3 *132:10 0.000862584
4 N4BEG[1] N4BEG[2] 0
5 N4BEG[1] *973:A 0.000144427
6 N4BEG[1] *1064:A 0
7 N4BEG[1] *1077:A 0
8 *132:10 *970:A 4.77699e-05
9 *132:10 *135:8 7.33225e-05
10 *132:10 *277:16 0
11 *132:10 *297:26 0
12 N2BEGb[6] *132:10 1.54008e-05
13 N2BEGb[7] N4BEG[1] 0
14 N4BEG[0] N4BEG[1] 0
15 *123:8 *132:10 7.48178e-05
16 *126:10 N4BEG[1] 0.000240379
*RES
1 *1071:X *132:10 41.6583 
2 *132:10 N4BEG[1] 25.8401 
*END

*D_NET *133 0.00191435
*CONN
*P N4BEG[2] O
*I *1072:X O *D sg13g2_buf_1
*CAP
1 N4BEG[2] 0.000861034
2 *1072:X 0.000861034
3 N4BEG[2] N4BEG[3] 0
4 N4BEG[2] *973:A 0.00014454
5 N4BEG[2] *1077:A 0
6 N4BEG[2] *138:10 4.77425e-05
7 N4BEG[2] *305:28 0
8 N4BEG[1] N4BEG[2] 0
*RES
1 *1072:X N4BEG[2] 27.004 
*END

*D_NET *134 0.00259706
*CONN
*P N4BEG[3] O
*I *1073:X O *D sg13g2_buf_1
*CAP
1 N4BEG[3] 0.000263711
2 *1073:X 0.000390266
3 *134:10 0.000653977
4 N4BEG[3] N4BEG[4] 0
5 N4BEG[3] *305:28 0.000240745
6 *134:10 *137:10 0.000710382
7 *134:10 *196:23 0.000179357
8 *134:10 *280:34 0
9 N2BEGb[2] *134:10 7.95069e-05
10 N2BEGb[3] *134:10 7.9112e-05
11 N4BEG[2] N4BEG[3] 0
*RES
1 *1073:X *134:10 44.841 
2 *134:10 N4BEG[3] 22.3278 
*END

*D_NET *135 0.00250314
*CONN
*P N4BEG[4] O
*I *1074:X O *D sg13g2_buf_1
*CAP
1 N4BEG[4] 0.000566911
2 *1074:X 0.000250202
3 *135:8 0.000817114
4 N4BEG[4] N4BEG[5] 0
5 N4BEG[4] *972:A 4.77425e-05
6 N4BEG[4] *140:16 1.54008e-05
7 N4BEG[4] *305:28 0.00030487
8 *135:8 *138:10 0.00028427
9 *135:8 *277:16 0
10 *135:8 *297:26 0
11 N4BEG[3] N4BEG[4] 0
12 *129:10 N4BEG[4] 0.000143306
13 *132:10 *135:8 7.33225e-05
*RES
1 *1074:X *135:8 42.3278 
2 *135:8 N4BEG[4] 24.9234 
*END

*D_NET *136 0.00215437
*CONN
*P N4BEG[5] O
*I *1075:X O *D sg13g2_buf_1
*CAP
1 N4BEG[5] 0.000884723
2 *1075:X 0.000884723
3 N4BEG[5] N4BEG[6] 0
4 N4BEG[5] N4BEG[8] 8.15892e-05
5 N4BEG[5] *972:A 7.98942e-05
6 N4BEG[5] *295:18 8.00842e-05
7 N4BEG[4] N4BEG[5] 0
8 *129:10 N4BEG[5] 0.000143351
*RES
1 *1075:X N4BEG[5] 27.4984 
*END

*D_NET *137 0.00270781
*CONN
*P N4BEG[6] O
*I *1076:X O *D sg13g2_buf_1
*CAP
1 N4BEG[6] 0.000256899
2 *1076:X 0.000519083
3 *137:10 0.000775982
4 N4BEG[6] N4BEG[7] 0
5 *137:10 *196:23 0
6 *137:10 *269:26 0
7 N2BEGb[4] *137:10 0.000110897
8 N2BEGb[6] *137:10 0
9 N4BEG[5] N4BEG[6] 0
10 *122:10 *137:10 7.53228e-05
11 *125:10 *137:10 0
12 *129:10 *137:10 0.000179389
13 *131:10 N4BEG[6] 7.98582e-05
14 *134:10 *137:10 0.000710382
*RES
1 *1076:X *137:10 45.5517 
2 *137:10 N4BEG[6] 22.1115 
*END

*D_NET *138 0.0040408
*CONN
*P N4BEG[7] O
*I *1077:X O *D sg13g2_buf_1
*CAP
1 N4BEG[7] 0.000237453
2 *1077:X 0.000325115
3 *138:18 0.000672387
4 *138:10 0.000760049
5 N4BEG[7] N4BEG[8] 0.000273277
6 *138:10 *1077:A 1.54282e-05
7 *138:10 *140:16 0.000676258
8 *138:10 *277:16 0
9 *138:10 *297:26 0
10 *138:10 *306:10 0
11 *138:18 N4BEG[9] 0.000240377
12 *138:18 *1088:A 0
13 *138:18 *148:10 7.9225e-05
14 *138:18 *196:23 0.000228248
15 *138:18 *293:26 7.33256e-05
16 *138:18 *294:22 1.54008e-05
17 N4BEG[2] *138:10 4.77425e-05
18 N4BEG[6] N4BEG[7] 0
19 *128:12 *138:10 0
20 *129:10 *138:18 0
21 *131:10 N4BEG[7] 0.000112244
22 *135:8 *138:10 0.00028427
*RES
1 *1077:X *138:10 44.1303 
2 *138:10 *138:18 44.0067 
3 *138:18 N4BEG[7] 22.3278 
*END

*D_NET *139 0.00271814
*CONN
*P N4BEG[8] O
*I *1078:X O *D sg13g2_buf_1
*CAP
1 N4BEG[8] 0.000885048
2 *1078:X 0.000885048
3 N4BEG[8] N4BEG[9] 0.000337402
4 N4BEG[8] *1066:A 0.000208035
5 N4BEG[8] *1088:A 0
6 N4BEG[8] *295:18 4.77425e-05
7 N4BEG[5] N4BEG[8] 8.15892e-05
8 N4BEG[7] N4BEG[8] 0.000273277
9 *128:12 N4BEG[8] 0
*RES
1 *1078:X N4BEG[8] 29.2494 
*END

*D_NET *140 0.00397518
*CONN
*P N4BEG[9] O
*I *1079:X O *D sg13g2_buf_1
*CAP
1 N4BEG[9] 0.000553475
2 *1079:X 0.000319725
3 *140:16 0.000873201
4 N4BEG[9] *1088:A 4.74703e-05
5 N4BEG[9] *148:10 0.000208035
6 *140:16 *277:16 0.000656098
7 *140:16 *305:28 4.77425e-05
8 N4BEG[10] N4BEG[9] 0
9 N4BEG[4] *140:16 1.54008e-05
10 N4BEG[8] N4BEG[9] 0.000337402
11 *138:10 *140:16 0.000676258
12 *138:18 N4BEG[9] 0.000240377
*RES
1 *1079:X *140:16 45.0573 
2 *140:16 N4BEG[9] 25.8607 
*END

*D_NET *141 0.00199819
*CONN
*P NN4BEG[0] O
*I *1080:X O *D sg13g2_buf_1
*CAP
1 NN4BEG[0] 0.000783918
2 *1080:X 0.000783918
3 NN4BEG[0] NN4BEG[2] 0
4 NN4BEG[0] *979:A 0.000143812
5 NN4BEG[0] *1080:A 0
6 NN4BEG[0] *1089:A 0.000143351
7 NN4BEG[0] *153:10 0
8 NN4BEG[0] *154:10 0.000143193
*RES
1 *1080:X NN4BEG[0] 26.9072 
*END

*D_NET *142 0.00161862
*CONN
*P NN4BEG[10] O
*I *1082:X O *D sg13g2_buf_1
*CAP
1 NN4BEG[10] 0.000351711
2 *1082:X 0.000108807
3 *142:8 0.000460518
4 NN4BEG[10] NN4BEG[11] 0
5 NN4BEG[10] NN4BEG[8] 0
6 NN4BEG[10] NN4BEG[9] 0
7 *142:8 *155:10 0.000181383
8 *142:8 *158:11 0.000126358
9 *142:8 *295:18 0.000389842
*RES
1 *1082:X *142:8 41.8334 
2 *142:8 NN4BEG[10] 22.7604 
*END

*D_NET *143 0.00152973
*CONN
*P NN4BEG[11] O
*I *1083:X O *D sg13g2_buf_1
*CAP
1 NN4BEG[11] 0.000270552
2 *1083:X 0.00014518
3 *143:10 0.000415732
4 NN4BEG[11] NN4BEG[12] 0
5 *143:10 NN4BEG[8] 7.86999e-05
6 *143:10 *936:A 4.75151e-05
7 *143:10 *205:17 0.000285463
8 *143:10 *293:26 0.000286586
9 NN4BEG[10] NN4BEG[11] 0
*RES
1 *1083:X *143:10 42.0909 
2 *143:10 NN4BEG[11] 22.1115 
*END

*D_NET *144 0.000870834
*CONN
*P NN4BEG[12] O
*I *1084:X O *D sg13g2_buf_1
*CAP
1 NN4BEG[12] 0.000435417
2 *1084:X 0.000435417
3 NN4BEG[12] NN4BEG[13] 0
4 NN4BEG[12] *1085:A 0
5 NN4BEG[12] *1086:A 0
6 NN4BEG[11] NN4BEG[12] 0
*RES
1 *1084:X NN4BEG[12] 23.605 
*END

*D_NET *145 0.000798785
*CONN
*P NN4BEG[13] O
*I *1085:X O *D sg13g2_buf_1
*CAP
1 NN4BEG[13] 0.000399393
2 *1085:X 0.000399393
3 NN4BEG[13] NN4BEG[14] 0
4 NN4BEG[13] *1086:A 0
5 NN4BEG[12] NN4BEG[13] 0
*RES
1 *1085:X NN4BEG[13] 23.1106 
*END

*D_NET *146 0.000785184
*CONN
*P NN4BEG[14] O
*I *1086:X O *D sg13g2_buf_1
*CAP
1 NN4BEG[14] 0.000392592
2 *1086:X 0.000392592
3 NN4BEG[14] NN4BEG[15] 0
4 NN4BEG[13] NN4BEG[14] 0
*RES
1 *1086:X NN4BEG[14] 23.1106 
*END

*D_NET *147 0.000785184
*CONN
*P NN4BEG[15] O
*I *1087:X O *D sg13g2_buf_1
*CAP
1 NN4BEG[15] 0.000392592
2 *1087:X 0.000392592
3 NN4BEG[15] *157:11 0
4 NN4BEG[14] NN4BEG[15] 0
*RES
1 *1087:X NN4BEG[15] 23.1106 
*END

*D_NET *148 0.00285823
*CONN
*P NN4BEG[1] O
*I *1088:X O *D sg13g2_buf_1
*CAP
1 NN4BEG[1] 0.000187038
2 *1088:X 0.000401571
3 *148:10 0.000588609
4 *148:10 *152:10 0.000499383
5 *148:10 *153:10 0
6 *148:10 *154:10 0
7 N4BEG[9] *148:10 0.000208035
8 *126:10 *148:10 0.000182023
9 *131:10 *148:10 0.000712342
10 *138:18 *148:10 7.9225e-05
*RES
1 *1088:X *148:10 45.7062 
2 *148:10 NN4BEG[1] 21.4626 
*END

*D_NET *149 0.00208545
*CONN
*P NN4BEG[2] O
*I *1089:X O *D sg13g2_buf_1
*CAP
1 NN4BEG[2] 0.000762748
2 *1089:X 0.000762748
3 NN4BEG[2] *979:A 0
4 NN4BEG[2] *992:A 0.000208035
5 NN4BEG[2] *993:A 0
6 NN4BEG[2] *154:10 0
7 NN4BEG[2] *155:10 4.74021e-05
8 NN4BEG[2] *204:25 0.000304519
9 NN4BEG[0] NN4BEG[2] 0
*RES
1 *1089:X NN4BEG[2] 27.004 
*END

*D_NET *150 0.00277813
*CONN
*P NN4BEG[3] O
*I *1090:X O *D sg13g2_buf_1
*CAP
1 NN4BEG[3] 7.63958e-05
2 *1090:X 0.00058607
3 *150:10 0.000662466
4 *150:10 *305:28 0.000924141
5 N4BEG[10] *150:10 0.000112426
6 N4BEG[11] *150:10 0.000337402
7 *130:12 *150:10 7.9225e-05
*RES
1 *1090:X *150:10 46.5714 
2 *150:10 NN4BEG[3] 20.5974 
*END

*D_NET *151 0.0021306
*CONN
*P NN4BEG[4] O
*I *1091:X O *D sg13g2_buf_1
*CAP
1 NN4BEG[4] 0.000801284
2 *1091:X 0.000801284
3 NN4BEG[4] NN4BEG[5] 0
4 NN4BEG[4] *937:A 0
5 NN4BEG[4] *981:A 0.000304824
6 NN4BEG[4] *993:A 0
7 NN4BEG[4] *156:10 0.000175693
8 NN4BEG[4] *270:8 4.75151e-05
*RES
1 *1091:X NN4BEG[4] 27.004 
*END

*D_NET *152 0.00315147
*CONN
*P NN4BEG[5] O
*I *989:X O *D sg13g2_buf_1
*CAP
1 NN4BEG[5] 0.000136093
2 *989:X 0.000361613
3 *152:10 0.000497706
4 NN4BEG[5] *981:A 0.000144768
5 *152:10 *153:10 0
6 *152:10 *154:10 0
7 *152:10 *204:25 0.00023464
8 *152:10 *299:22 0.000924469
9 N4BEG[12] *152:10 0.000240377
10 N4BEG[13] *152:10 0.000112426
11 NN4BEG[4] NN4BEG[5] 0
12 *148:10 *152:10 0.000499383
*RES
1 *989:X *152:10 45.9225 
2 *152:10 NN4BEG[5] 21.2463 
*END

*D_NET *153 0.00272253
*CONN
*P NN4BEG[6] O
*I *990:X O *D sg13g2_buf_1
*CAP
1 NN4BEG[6] 0.000236776
2 *990:X 0.000282855
3 *153:10 0.000519631
4 NN4BEG[6] NN4BEG[7] 0
5 NN4BEG[6] *981:A 0.000209451
6 *153:10 *154:10 0.000606376
7 *153:10 *293:26 0.000820555
8 N4BEG[14] *153:10 4.68848e-05
9 NN4BEG[0] *153:10 0
10 *131:10 *153:10 0
11 *148:10 *153:10 0
12 *152:10 *153:10 0
*RES
1 *990:X *153:10 44.5629 
2 *153:10 NN4BEG[6] 22.1115 
*END

*D_NET *154 0.00235045
*CONN
*P NN4BEG[7] O
*I *991:X O *D sg13g2_buf_1
*CAP
1 NN4BEG[7] 0.000209021
2 *991:X 0.000343068
3 *154:10 0.000552089
4 NN4BEG[7] NN4BEG[8] 0
5 NN4BEG[7] *268:32 0.000209451
6 *154:10 *156:10 0.000287256
7 *154:10 *293:26 0
8 NN4BEG[0] *154:10 0.000143193
9 NN4BEG[2] *154:10 0
10 NN4BEG[6] NN4BEG[7] 0
11 *148:10 *154:10 0
12 *152:10 *154:10 0
13 *153:10 *154:10 0.000606376
*RES
1 *991:X *154:10 44.2848 
2 *154:10 NN4BEG[7] 21.8952 
*END

*D_NET *155 0.0022662
*CONN
*P NN4BEG[8] O
*I *992:X O *D sg13g2_buf_1
*CAP
1 NN4BEG[8] 0.000265465
2 *992:X 0.000234471
3 *155:10 0.000499936
4 NN4BEG[8] NN4BEG[9] 0
5 NN4BEG[8] *268:32 0.000304947
6 *155:10 *204:25 4.75151e-05
7 *155:10 *293:26 0.000606382
8 *155:10 *295:18 0
9 NN4BEG[10] NN4BEG[8] 0
10 NN4BEG[2] *155:10 4.74021e-05
11 NN4BEG[7] NN4BEG[8] 0
12 *142:8 *155:10 0.000181383
13 *143:10 NN4BEG[8] 7.86999e-05
*RES
1 *992:X *155:10 43.1415 
2 *155:10 NN4BEG[8] 22.5441 
*END

*D_NET *156 0.00209749
*CONN
*P NN4BEG[9] O
*I *993:X O *D sg13g2_buf_1
*CAP
1 NN4BEG[9] 0.000213772
2 *993:X 0.000229652
3 *156:10 0.000443424
4 *156:10 *981:A 0.000175693
5 *156:10 *204:25 0.000497577
6 *156:10 *205:17 7.44263e-05
7 *156:10 *293:26 0
8 NN4BEG[10] NN4BEG[9] 0
9 NN4BEG[4] *156:10 0.000175693
10 NN4BEG[8] NN4BEG[9] 0
11 *154:10 *156:10 0.000287256
*RES
1 *993:X *156:10 43.5123 
2 *156:10 NN4BEG[9] 21.6789 
*END

*D_NET *157 0.00455411
*CONN
*P S1END[0] I
*I *937:A I *D sg13g2_buf_1
*CAP
1 S1END[0] 0.000856702
2 *937:A 0.000433454
3 *157:11 0.00129016
4 *937:A *981:A 0.000240141
5 *937:A *1082:A 0.000175693
6 *937:A *1083:A 0
7 *937:A *270:8 4.75151e-05
8 *157:11 *158:11 0
9 *157:11 *170:13 0.000286436
10 *157:11 *171:13 0.000121065
11 *157:11 *269:22 0.000340808
12 *157:11 *281:32 0.000762138
13 *157:11 *282:18 0
14 NN4BEG[15] *157:11 0
15 NN4BEG[4] *937:A 0
16 *21:5 *157:11 0
*RES
1 S1END[0] *157:11 49.167 
2 *157:11 *937:A 24.1303 
*END

*D_NET *158 0.00474356
*CONN
*P S1END[1] I
*I *936:A I *D sg13g2_buf_1
*CAP
1 S1END[1] 0.00051694
2 *936:A 0.000564224
3 *158:11 0.00108116
4 *936:A *935:A 0.00014454
5 *936:A *1084:A 0.000240346
6 *936:A *268:8 0.000143351
7 *936:A *268:32 0.000207922
8 *936:A *269:16 0
9 *158:11 *159:9 0
10 *158:11 *172:13 0.00030506
11 *158:11 *293:26 0.000866648
12 *158:11 *295:18 0.000499492
13 *142:8 *158:11 0.000126358
14 *143:10 *936:A 4.75151e-05
15 *157:11 *158:11 0
*RES
1 S1END[1] *158:11 46.6023 
2 *158:11 *936:A 25.7062 
*END

*D_NET *159 0.00461673
*CONN
*P S1END[2] I
*I *935:A I *D sg13g2_buf_1
*CAP
1 S1END[2] 0.000972194
2 *935:A 9.24082e-05
3 *159:9 0.0010646
4 *159:9 *160:11 0
5 *159:9 *172:13 0.000691744
6 *159:9 *200:13 0
7 *159:9 *276:10 0.00012816
8 *159:9 *276:20 4.68833e-05
9 *159:9 *278:18 0.000341621
10 *159:9 *287:14 0.000926546
11 *922:A *159:9 0.000208035
12 *936:A *935:A 0.00014454
13 *158:11 *159:9 0
*RES
1 S1END[2] *159:9 30.7429 
2 *159:9 *935:A 40.9682 
*END

*D_NET *160 0.00388446
*CONN
*P S1END[3] I
*I *934:A I *D sg13g2_buf_1
*CAP
1 S1END[3] 0.00082529
2 *934:A 0.000225545
3 *160:11 0.00105084
4 *934:A *278:8 7.92265e-05
5 *160:11 *169:11 0
6 *160:11 *201:21 0.000766204
7 *160:11 *265:14 0.000208035
8 *160:11 *277:16 0.000341206
9 *160:11 *280:12 0.000340375
10 *160:11 *294:22 0
11 *922:A *160:11 4.77425e-05
12 *159:9 *160:11 0
*RES
1 S1END[3] *160:11 48.9198 
2 *160:11 *934:A 22.0497 
*END

*D_NET *161 0.00187226
*CONN
*P S2END[0] I
*I *953:A I *D sg13g2_buf_1
*CAP
1 S2END[0] 0.000727524
2 *953:A 0.000727524
3 *953:A *940:A 8.00394e-05
4 *953:A *952:A 0.000337174
5 *953:A *176:13 0
*RES
1 S2END[0] *953:A 26.5817 
*END

*D_NET *162 0.00179513
*CONN
*P S2END[1] I
*I *952:A I *D sg13g2_buf_1
*CAP
1 S2END[1] 0.000678051
2 *952:A 0.000678051
3 *952:A *951:A 0
4 *952:A *286:12 0.000101855
5 *953:A *952:A 0.000337174
*RES
1 S2END[1] *952:A 26.1903 
*END

*D_NET *163 0.00164049
*CONN
*P S2END[2] I
*I *951:A I *D sg13g2_buf_1
*CAP
1 S2END[2] 0.00061991
2 *951:A 0.00061991
3 *951:A *950:A 0
4 *951:A *281:20 0.000400669
5 *951:A *286:12 0
6 *952:A *951:A 0
*RES
1 S2END[2] *951:A 25.4899 
*END

*D_NET *164 0.00172729
*CONN
*P S2END[3] I
*I *950:A I *D sg13g2_buf_1
*CAP
1 S2END[3] 0.000591593
2 *950:A 0.000591593
3 *950:A *949:A 0.00014344
4 *950:A *281:20 0.000400669
5 *950:A *282:10 0
6 *951:A *950:A 0
*RES
1 S2END[3] *950:A 25.4899 
*END

*D_NET *165 0.00165712
*CONN
*P S2END[4] I
*I *949:A I *D sg13g2_buf_1
*CAP
1 S2END[4] 0.000700761
2 *949:A 0.000700761
3 *949:A *947:A 0
4 *949:A *166:13 0
5 *949:A *166:23 0
6 *949:A *281:14 0
7 *949:A *282:10 0.000112154
8 *950:A *949:A 0.00014344
*RES
1 S2END[4] *949:A 26.7877 
*END

*D_NET *166 0.00199189
*CONN
*P S2END[5] I
*I *948:A I *D sg13g2_buf_1
*CAP
1 S2END[5] 0.000526135
2 *948:A 0
3 *166:23 0.000201422
4 *166:13 0.000727556
5 *166:13 *947:A 0
6 *166:13 *168:13 0.000355633
7 *166:13 *293:26 0
8 *166:13 *299:22 0
9 *166:23 *947:A 0
10 *166:23 *968:A 0
11 *166:23 *281:14 0.000181146
12 *949:A *166:13 0
13 *949:A *166:23 0
*RES
1 S2END[5] *166:13 44.8204 
2 *166:13 *166:23 42.0136 
3 *166:23 *948:A 20 
*END

*D_NET *167 0.00102626
*CONN
*P S2END[6] I
*I *947:A I *D sg13g2_buf_1
*CAP
1 S2END[6] 0.0005029
2 *947:A 0.0005029
3 *947:A *168:13 1.54008e-05
4 *947:A *177:13 5.05779e-06
5 *949:A *947:A 0
6 *166:13 *947:A 0
7 *166:23 *947:A 0
*RES
1 S2END[6] *947:A 24.5011 
*END

*D_NET *168 0.00234983
*CONN
*P S2END[7] I
*I *946:A I *D sg13g2_buf_1
*CAP
1 S2END[7] 0.000634131
2 *946:A 0
3 *168:19 0.000253264
4 *168:13 0.000887395
5 *168:13 *299:22 0
6 *168:19 *186:13 7.56299e-05
7 *168:19 *201:21 0.00012838
8 *168:19 *266:14 0
9 *168:19 *280:12 0
10 *947:A *168:13 1.54008e-05
11 *166:13 *168:13 0.000355633
*RES
1 S2END[7] *168:13 45.5929 
2 *168:13 *168:19 42.575 
3 *168:19 *946:A 20 
*END

*D_NET *169 0.00364452
*CONN
*P S2MID[0] I
*I *945:A I *D sg13g2_buf_1
*CAP
1 S2MID[0] 0.000740732
2 *945:A 0.000270622
3 *169:11 0.00101135
4 *945:A *170:13 4.77425e-05
5 *945:A *277:10 4.77425e-05
6 *169:11 *170:13 0
7 *169:11 *201:21 0.000659397
8 *169:11 *265:14 0.000208035
9 *169:11 *286:22 0.000658895
10 *160:11 *169:11 0
*RES
1 S2MID[0] *169:11 47.9928 
2 *169:11 *945:A 21.3735 
*END

*D_NET *170 0.00295245
*CONN
*P S2MID[1] I
*I *944:A I *D sg13g2_buf_1
*CAP
1 S2MID[1] 0.000935067
2 *944:A 0
3 *170:13 0.000935067
4 *170:13 *1086:A 0
5 *170:13 *171:13 0
6 *170:13 *193:9 0.000551541
7 *170:13 *265:14 0.000181192
8 *170:13 *275:12 1.54008e-05
9 *170:13 *282:18 0
10 *945:A *170:13 4.77425e-05
11 *157:11 *170:13 0.000286436
12 *169:11 *170:13 0
*RES
1 S2MID[1] *170:13 49.0537 
2 *170:13 *944:A 20 
*END

*D_NET *171 0.00293887
*CONN
*P S2MID[2] I
*I *943:A I *D sg13g2_buf_1
*CAP
1 S2MID[2] 0.000822802
2 *943:A 0
3 *171:13 0.000822802
4 *171:13 *985:A 0.000176369
5 *171:13 *172:13 0
6 *171:13 *265:14 0.000287623
7 *21:5 *171:13 0.000708214
8 *157:11 *171:13 0.000121065
9 *170:13 *171:13 0
*RES
1 S2MID[2] *171:13 48.5593 
2 *171:13 *943:A 20 
*END

*D_NET *172 0.00367223
*CONN
*P S2MID[3] I
*I *942:A I *D sg13g2_buf_1
*CAP
1 S2MID[3] 0.000595655
2 *942:A 0
3 *172:13 0.000595655
4 *172:13 *941:A 0
5 *172:13 *1087:A 0.000272718
6 *172:13 *203:9 0.000605447
7 *172:13 *305:28 0.000605949
8 *158:11 *172:13 0.00030506
9 *159:9 *172:13 0.000691744
10 *171:13 *172:13 0
*RES
1 S2MID[3] *172:13 48.0649 
2 *172:13 *942:A 20 
*END

*D_NET *173 0.00123036
*CONN
*P S2MID[4] I
*I *941:A I *D sg13g2_buf_1
*CAP
1 S2MID[4] 0.000438185
2 *941:A 0.000438185
3 *941:A *175:13 0.00014454
4 *941:A *205:17 0.000209451
5 *941:A *288:10 0
6 *172:13 *941:A 0
*RES
1 S2MID[4] *941:A 24.2539 
*END

*D_NET *174 0.00238282
*CONN
*P S2MID[5] I
*I *940:A I *D sg13g2_buf_1
*CAP
1 S2MID[5] 0.000845832
2 *940:A 0.000845832
3 *940:A *175:13 0.000401857
4 *940:A *205:17 0.000209261
5 *940:A *286:12 0
6 *940:A *288:10 0
7 *953:A *940:A 8.00394e-05
*RES
1 S2MID[5] *940:A 27.9001 
*END

*D_NET *175 0.00280531
*CONN
*P S2MID[6] I
*I *939:A I *D sg13g2_buf_1
*CAP
1 S2MID[6] 0.000638619
2 *939:A 0
3 *175:19 0.000140284
4 *175:13 0.000778903
5 *175:13 *176:13 0
6 *175:13 *293:26 0.000180603
7 *175:13 *295:18 0.000181601
8 *175:19 *201:21 0.000338902
9 *175:19 *280:12 0
10 *940:A *175:13 0.000401857
11 *941:A *175:13 0.00014454
*RES
1 S2MID[6] *175:13 46.0873 
2 *175:13 *175:19 41.5862 
3 *175:19 *939:A 20 
*END

*D_NET *176 0.00206337
*CONN
*P S2MID[7] I
*I *938:A I *D sg13g2_buf_1
*CAP
1 S2MID[7] 0.0008341
2 *938:A 0
3 *176:13 0.0008341
4 *176:13 *193:9 0.000395166
5 *953:A *176:13 0
6 *175:13 *176:13 0
*RES
1 S2MID[7] *176:13 47.0761 
2 *176:13 *938:A 20 
*END

*D_NET *177 0.00313878
*CONN
*P S4END[0] I
*I *969:A I *D sg13g2_buf_1
*CAP
1 S4END[0] 0.000730301
2 *969:A 0
3 *177:13 0.000730301
4 *177:13 *968:A 0
5 *177:13 *185:13 0
6 *177:13 *188:13 0.000402005
7 *177:13 *189:11 0.00014454
8 *177:13 *293:12 0.000604472
9 *177:13 *295:18 0.00050063
10 *177:13 *302:8 2.14736e-05
11 *947:A *177:13 5.05779e-06
*RES
1 S4END[0] *177:13 48.0649 
2 *177:13 *969:A 20 
*END

*D_NET *178 0.00297756
*CONN
*P S4END[10] I
*I *959:A I *D sg13g2_buf_1
*CAP
1 S4END[10] 0.000623764
2 *959:A 0
3 *178:13 0.000623764
4 *178:13 *196:11 0.000497325
5 *178:13 *200:13 0.000208035
6 *178:13 *201:21 0.000208035
7 *178:13 *299:12 0.000816638
8 *178:13 *305:16 0
*RES
1 S4END[10] *178:13 47.3233 
2 *178:13 *959:A 20 
*END

*D_NET *179 0.00220741
*CONN
*P S4END[11] I
*I *958:A I *D sg13g2_buf_1
*CAP
1 S4END[11] 0.000873681
2 *958:A 0
3 *179:11 0.000873681
4 *179:11 *181:13 0
5 *179:11 *183:17 7.49083e-05
6 *179:11 *188:13 1.54008e-05
7 *179:11 *190:13 0.000369743
8 *179:11 *229:10 0
9 *179:11 *229:12 0
10 *179:11 *266:14 0
11 *179:11 *305:16 0
*RES
1 S4END[11] *179:11 47.4675 
2 *179:11 *958:A 20 
*END

*D_NET *180 0.0031188
*CONN
*P S4END[12] I
*I *957:A I *D sg13g2_buf_1
*CAP
1 S4END[12] 0.000561964
2 *957:A 0
3 *180:11 0.000561964
4 *180:11 *181:13 0
5 *180:11 *190:13 0.000369743
6 *180:11 *265:22 0.00081302
7 *21:5 *180:11 0.000812105
*RES
1 S4END[12] *180:11 47.2203 
2 *180:11 *957:A 20 
*END

*D_NET *181 0.00281022
*CONN
*P S4END[13] I
*I *956:A I *D sg13g2_buf_1
*CAP
1 S4END[13] 0.000876879
2 *956:A 0
3 *181:13 0.000876879
4 *181:13 *182:13 0
5 *181:13 *183:17 0.000286337
6 *181:13 *191:13 0.000337402
7 *181:13 *200:13 8.00842e-05
8 *181:13 *202:15 8.00842e-05
9 *181:13 *266:14 0
10 *181:13 *303:8 0.000272555
11 *179:11 *181:13 0
12 *180:11 *181:13 0
*RES
1 S4END[13] *181:13 48.1541 
2 *181:13 *956:A 20 
*END

*D_NET *182 0.00252844
*CONN
*P S4END[14] I
*I *955:A I *D sg13g2_buf_1
*CAP
1 S4END[14] 0.000707307
2 *955:A 0
3 *182:13 0.000707307
4 *182:13 *183:17 0
5 *182:13 *191:13 4.77425e-05
6 *182:13 *192:13 0.000178621
7 *182:13 *196:11 0
8 *182:13 *202:15 0
9 *182:13 *205:9 0
10 *182:13 *206:27 0
11 *182:13 *208:11 0.000710954
12 *182:13 *248:12 0.000176509
13 *181:13 *182:13 0
*RES
1 S4END[14] *182:13 47.3233 
2 *182:13 *955:A 20 
*END

*D_NET *183 0.00262945
*CONN
*P S4END[15] I
*I *954:A I *D sg13g2_buf_1
*CAP
1 S4END[15] 0.000844791
2 *954:A 0
3 *183:17 0.000844791
4 *183:17 *192:13 0.000272718
5 *183:17 *193:9 0
6 *183:17 *202:15 0
7 *183:17 *229:12 0
8 *183:17 *266:14 0
9 *20:21 *183:17 0.000305909
10 *179:11 *183:17 7.49083e-05
11 *181:13 *183:17 0.000286337
12 *182:13 *183:17 0
*RES
1 S4END[15] *183:17 48.6417 
2 *183:17 *954:A 20 
*END

*D_NET *184 0.00220476
*CONN
*P S4END[1] I
*I *968:A I *D sg13g2_buf_1
*CAP
1 S4END[1] 0.000894065
2 *968:A 0.000894065
3 *968:A *186:13 0
4 *968:A *266:8 7.92265e-05
5 *923:A *968:A 0.000337402
6 *166:23 *968:A 0
7 *177:13 *968:A 0
*RES
1 S4END[1] *968:A 28.0249 
*END

*D_NET *185 0.00281381
*CONN
*P S4END[2] I
*I *967:A I *D sg13g2_buf_1
*CAP
1 S4END[2] 0.000752764
2 *967:A 0
3 *185:13 0.000752764
4 *185:13 *189:11 0
5 *185:13 *190:13 0.000122871
6 *185:13 *191:13 8.00842e-05
7 *185:13 *205:9 0.000605447
8 *185:13 *260:10 0
9 *185:13 *293:12 0
10 *185:13 *305:16 0.000499885
11 *177:13 *185:13 0
*RES
1 S4END[2] *185:13 48.0649 
2 *185:13 *967:A 20 
*END

*D_NET *186 0.00202188
*CONN
*P S4END[3] I
*I *966:A I *D sg13g2_buf_1
*CAP
1 S4END[3] 0.000973127
2 *966:A 0
3 *186:13 0.000973127
4 *186:13 *187:11 0
5 *186:13 *188:13 0
6 *186:13 *201:21 0
7 *186:13 *266:14 0
8 *968:A *186:13 0
9 *168:19 *186:13 7.56299e-05
*RES
1 S4END[3] *186:13 48.5593 
2 *186:13 *966:A 20 
*END

*D_NET *187 0.0028142
*CONN
*P S4END[4] I
*I *965:A I *D sg13g2_buf_1
*CAP
1 S4END[4] 0.000949713
2 *965:A 0
3 *187:11 0.000949713
4 *187:11 *188:13 0
5 *187:11 *194:13 0
6 *187:11 *228:8 0.000342122
7 *187:11 *260:10 0
8 *187:11 *291:12 0.000235055
9 *187:11 *292:8 0
10 *187:11 *295:8 0.000337594
11 *186:13 *187:11 0
*RES
1 S4END[4] *187:11 48.2465 
2 *187:11 *965:A 20 
*END

*D_NET *188 0.00279403
*CONN
*P S4END[5] I
*I *964:A I *D sg13g2_buf_1
*CAP
1 S4END[5] 0.00101951
2 *964:A 0
3 *188:13 0.00101951
4 *188:13 *189:11 0
5 *188:13 *229:10 0
6 *188:13 *229:12 0
7 *188:13 *260:10 0
8 *188:13 *266:14 0
9 *188:13 *295:8 0.000337594
10 *177:13 *188:13 0.000402005
11 *179:11 *188:13 1.54008e-05
12 *186:13 *188:13 0
13 *187:11 *188:13 0
*RES
1 S4END[5] *188:13 49.4245 
2 *188:13 *964:A 20 
*END

*D_NET *189 0.00201507
*CONN
*P S4END[6] I
*I *963:A I *D sg13g2_buf_1
*CAP
1 S4END[6] 0.00045249
2 *963:A 0
3 *189:11 0.00045249
4 *189:11 *265:22 0.000394652
5 *189:11 *293:12 0.00017625
6 *21:5 *189:11 0.000394652
7 *177:13 *189:11 0.00014454
8 *185:13 *189:11 0
9 *188:13 *189:11 0
*RES
1 S4END[6] *189:11 45.2427 
2 *189:11 *963:A 20 
*END

*D_NET *190 0.00234841
*CONN
*P S4END[7] I
*I *962:A I *D sg13g2_buf_1
*CAP
1 S4END[7] 0.000546367
2 *962:A 0
3 *190:13 0.000546367
4 *190:13 *191:13 0.00039332
5 *190:13 *305:16 0
6 *179:11 *190:13 0.000369743
7 *180:11 *190:13 0.000369743
8 *185:13 *190:13 0.000122871
*RES
1 S4END[7] *190:13 45.8401 
2 *190:13 *962:A 20 
*END

*D_NET *191 0.00220458
*CONN
*P S4END[8] I
*I *961:A I *D sg13g2_buf_1
*CAP
1 S4END[8] 0.000635451
2 *961:A 0
3 *191:13 0.000635451
4 *191:13 *305:16 7.51285e-05
5 *181:13 *191:13 0.000337402
6 *182:13 *191:13 4.77425e-05
7 *185:13 *191:13 8.00842e-05
8 *190:13 *191:13 0.00039332
*RES
1 S4END[8] *191:13 46.3345 
2 *191:13 *961:A 20 
*END

*D_NET *192 0.00247854
*CONN
*P S4END[9] I
*I *960:A I *D sg13g2_buf_1
*CAP
1 S4END[9] 0.00071105
2 *960:A 0
3 *192:13 0.00071105
4 *192:13 *193:9 0.000272718
5 *192:13 *196:11 0.000284685
6 *192:13 *299:22 0
7 *192:13 *305:16 4.76977e-05
8 *182:13 *192:13 0.000178621
9 *183:17 *192:13 0.000272718
*RES
1 S4END[9] *192:13 46.8289 
2 *192:13 *960:A 20 
*END

*D_NET *193 0.0099093
*CONN
*P SS4END[0] I
*I *985:A I *D sg13g2_buf_1
*CAP
1 SS4END[0] 0.00192605
2 *985:A 0.000450408
3 *193:9 0.00237646
4 *985:A *1087:A 0
5 *985:A *276:10 7.92265e-05
6 *985:A *276:20 0
7 *193:9 *200:13 0
8 *193:9 *201:21 0.000926618
9 *193:9 *260:14 0.000764334
10 *193:9 *265:14 0
11 *193:9 *265:22 0
12 *193:9 *281:14 0
13 *193:9 *282:18 0
14 *193:9 *304:8 0.00199041
15 *170:13 *193:9 0.000551541
16 *171:13 *985:A 0.000176369
17 *176:13 *193:9 0.000395166
18 *183:17 *193:9 0
19 *192:13 *193:9 0.000272718
*RES
1 SS4END[0] *193:9 41.9596 
2 *193:9 *985:A 44.1921 
*END

*D_NET *194 0.0146855
*CONN
*P SS4END[10] I
*I *975:A I *D sg13g2_buf_1
*CAP
1 SS4END[10] 0.000768432
2 *975:A 4.31906e-05
3 *194:13 0.00273654
4 *194:11 0.00346179
5 *975:A *206:37 8.00842e-05
6 *975:A *281:38 8.01995e-05
7 *194:11 *195:11 0.000691385
8 *194:11 *206:27 0
9 *194:11 *207:11 0
10 *194:11 *208:11 0
11 *194:11 *233:8 0
12 *194:13 *200:13 0
13 *194:13 *224:16 0.00299967
14 *194:13 *228:8 0
15 *194:13 *287:14 0.00310974
16 *194:13 *291:12 0.000714504
17 *194:13 *291:16 0
18 *187:11 *194:13 0
*RES
1 SS4END[10] *194:11 27.3233 
2 *194:11 *194:13 32.239 
3 *194:13 *975:A 40.5356 
*END

*D_NET *195 0.0166352
*CONN
*P SS4END[11] I
*I *974:A I *D sg13g2_buf_1
*CAP
1 SS4END[11] 0.00260802
2 *974:A 0
3 *195:21 0.00176295
4 *195:11 0.00437097
5 *195:11 *196:11 0
6 *195:11 *198:7 0
7 *195:11 *206:27 0
8 *195:11 *214:10 0
9 *195:11 *214:14 0
10 *195:11 *247:12 0
11 *195:11 *249:6 0
12 *195:11 *285:22 0
13 *195:11 *298:14 0.00226643
14 *195:21 *1066:A 0
15 *195:21 *214:10 0.00071675
16 *195:21 *261:8 0.000272789
17 *195:21 *283:16 0.000932797
18 *195:21 *298:14 0
19 *11:9 *195:21 0.00301314
20 *76:21 *195:11 0
21 *194:11 *195:11 0.000691385
*RES
1 SS4END[11] *195:11 48.7061 
2 *195:11 *195:21 43.0308 
3 *195:21 *974:A 20 
*END

*D_NET *196 0.0139283
*CONN
*P SS4END[12] I
*I *973:A I *D sg13g2_buf_1
*CAP
1 SS4END[12] 0.000968106
2 *973:A 7.95261e-05
3 *196:23 0.000765828
4 *196:15 0.00254407
5 *196:11 0.00282587
6 *196:11 *198:7 0
7 *196:11 *207:11 0
8 *196:11 *208:11 0
9 *196:11 *248:22 0
10 *196:15 *197:13 0
11 *196:15 *271:20 0
12 *196:15 *301:12 0
13 *196:15 *302:20 0.00490592
14 *196:23 *269:22 0
15 *196:23 *280:28 0.000127957
16 *196:23 *280:34 0
17 *196:23 *293:26 0
18 *196:23 *295:18 0
19 N4BEG[1] *973:A 0.000144427
20 N4BEG[2] *973:A 0.00014454
21 *130:12 *196:23 0.000232418
22 *134:10 *196:23 0.000179357
23 *137:10 *196:23 0
24 *138:18 *196:23 0.000228248
25 *178:13 *196:11 0.000497325
26 *182:13 *196:11 0
27 *192:13 *196:11 0.000284685
28 *195:11 *196:11 0
*RES
1 SS4END[12] *196:11 49.4142 
2 *196:11 *196:15 46.3062 
3 *196:15 *196:23 46.0461 
4 *196:23 *973:A 40.9682 
*END

*D_NET *197 0.00909219
*CONN
*P SS4END[13] I
*I *972:A I *D sg13g2_buf_1
*CAP
1 SS4END[13] 1.97345e-05
2 *972:A 4.85025e-05
3 *197:19 0.000587475
4 *197:13 0.00335799
5 *197:11 0.00281901
6 *197:9 1.97345e-05
7 *197:13 *282:24 0.0021121
8 *197:13 *302:20 0
9 *197:19 *269:22 0
10 *197:19 *280:28 0
11 *197:19 *301:20 0
12 *197:19 *302:20 0
13 N4BEG[4] *972:A 4.77425e-05
14 N4BEG[5] *972:A 7.98942e-05
15 *196:15 *197:13 0
*RES
1 SS4END[13] *197:9 40.1648 
2 *197:9 *197:11 20 
3 *197:11 *197:13 37.9246 
4 *197:13 *197:19 43.0789 
5 *197:19 *972:A 40.5356 
*END

*D_NET *198 0.0190959
*CONN
*P SS4END[14] I
*I *971:A I *D sg13g2_buf_1
*CAP
1 SS4END[14] 0.00140275
2 *971:A 0.000672086
3 *198:9 0.00383533
4 *198:7 0.004566
5 *971:A *1066:A 0.000754587
6 *198:7 *199:7 0
7 *198:7 *220:14 0
8 *198:7 *257:10 0.000175693
9 *198:9 *261:14 0.0055122
10 *198:9 *274:12 0
11 *198:9 *289:14 0
12 *6:9 *198:9 0
13 *8:5 *198:9 0.000612093
14 *76:21 *198:7 0.00156516
15 *195:11 *198:7 0
16 *196:11 *198:7 0
*RES
1 SS4END[14] *198:7 33.7917 
2 *198:7 *198:9 37.4302 
3 *198:9 *971:A 46.592 
*END

*D_NET *199 0.0201964
*CONN
*P SS4END[15] I
*I *970:A I *D sg13g2_buf_1
*CAP
1 SS4END[15] 0.00110793
2 *970:A 0.000723847
3 *199:9 0.00357837
4 *199:7 0.00396246
5 *970:A *1057:A 0
6 *970:A *1071:A 0.000112226
7 *970:A *1074:A 0
8 *970:A *284:26 0.00020837
9 *970:A *289:24 0
10 *199:7 UserCLKo 0
11 *199:7 *220:14 0
12 *199:7 *257:10 0.000175693
13 *199:9 *202:15 0.00199599
14 *199:9 *202:23 0
15 *199:9 *206:27 0
16 *199:9 *227:10 0
17 *199:9 *249:12 0.000341206
18 *199:9 *267:12 0.00322402
19 *199:9 *275:16 0
20 *199:9 *307:10 0
21 FrameStrobe_O[1] *199:7 0
22 N2BEGb[4] *970:A 0
23 N2BEGb[7] *970:A 0
24 *13:9 *199:9 0
25 *14:7 *199:9 0.00471852
26 *84:17 *199:9 0
27 *132:10 *970:A 4.77699e-05
28 *198:7 *199:7 0
*RES
1 SS4END[15] *199:7 29.4657 
2 *199:7 *199:9 42.6214 
3 *199:9 *970:A 46.5096 
*END

*D_NET *200 0.0111799
*CONN
*P SS4END[1] I
*I *984:A I *D sg13g2_buf_1
*CAP
1 SS4END[1] 0.00234543
2 *984:A 9.70353e-05
3 *200:13 0.00244246
4 *984:A *1085:A 0.000112426
5 *200:13 *201:21 0
6 *200:13 *202:15 0
7 *200:13 *224:16 0.00198722
8 *200:13 *266:14 0.00166832
9 *200:13 *276:10 0.00012816
10 *200:13 *278:18 0.000236274
11 *200:13 *287:14 0.000181298
12 *200:13 *294:12 1.57122e-05
13 *200:13 *294:22 0.00156622
14 *200:13 *298:8 0.000111202
15 *200:13 *303:8 0
16 *159:9 *200:13 0
17 *178:13 *200:13 0.000208035
18 *181:13 *200:13 8.00842e-05
19 *193:9 *200:13 0
20 *194:13 *200:13 0
*RES
1 SS4END[1] *200:13 48.1911 
2 *200:13 *984:A 40.9682 
*END

*D_NET *201 0.0109587
*CONN
*P SS4END[2] I
*I *983:A I *D sg13g2_buf_1
*CAP
1 SS4END[2] 0.00225901
2 *983:A 0
3 *201:21 0.00225901
4 *201:21 *202:15 0
5 *201:21 *229:12 0.000867212
6 *201:21 *260:14 0.000973605
7 *201:21 *277:16 0
8 *201:21 *280:12 0
9 *201:21 *281:14 0.000499287
10 *201:21 *282:18 0
11 *201:21 *286:22 0.000867463
12 *201:21 *299:12 7.9225e-05
13 *201:21 *310:8 0.000126358
14 *160:11 *201:21 0.000766204
15 *168:19 *201:21 0.00012838
16 *169:11 *201:21 0.000659397
17 *175:19 *201:21 0.000338902
18 *178:13 *201:21 0.000208035
19 *186:13 *201:21 0
20 *193:9 *201:21 0.000926618
21 *200:13 *201:21 0
*RES
1 SS4END[2] *201:21 48.7885 
2 *201:21 *983:A 40 
*END

*D_NET *202 0.0124413
*CONN
*P SS4END[3] I
*I *982:A I *D sg13g2_buf_1
*CAP
1 SS4END[3] 0.00176335
2 *982:A 0
3 *202:23 0.00166062
4 *202:15 0.00342397
5 *202:15 *206:27 0
6 *202:15 *248:12 0
7 *202:15 *289:8 0.000531162
8 *202:15 *298:8 0
9 *202:15 *299:12 7.9225e-05
10 *202:23 *1083:A 0
11 *202:23 *206:27 2.22695e-05
12 *202:23 *224:8 0.000928555
13 *202:23 *269:10 4.75151e-05
14 *202:23 *269:16 0
15 *202:23 *276:24 0.00119464
16 *202:23 *283:20 0.00071395
17 *14:7 *202:23 0
18 *17:25 *202:23 0
19 *181:13 *202:15 8.00842e-05
20 *182:13 *202:15 0
21 *183:17 *202:15 0
22 *199:9 *202:15 0.00199599
23 *199:9 *202:23 0
24 *200:13 *202:15 0
25 *201:21 *202:15 0
*RES
1 SS4END[3] *202:15 39.1804 
2 *202:15 *202:23 38.3237 
3 *202:23 *982:A 20 
*END

*D_NET *203 0.0130095
*CONN
*P SS4END[4] I
*I *981:A I *D sg13g2_buf_1
*CAP
1 SS4END[4] 0.00164492
2 *981:A 0.000516549
3 *203:9 0.00216147
4 *203:9 *204:9 0.00341153
5 *203:9 *205:9 0.0033605
6 *203:9 *268:32 0.000234224
7 *203:9 *305:28 0
8 NN4BEG[4] *981:A 0.000304824
9 NN4BEG[5] *981:A 0.000144768
10 NN4BEG[6] *981:A 0.000209451
11 *937:A *981:A 0.000240141
12 *156:10 *981:A 0.000175693
13 *172:13 *203:9 0.000605447
*RES
1 SS4END[4] *203:9 45.4513 
2 *203:9 *981:A 45.768 
*END

*D_NET *204 0.0115762
*CONN
*P SS4END[5] I
*I *980:A I *D sg13g2_buf_1
*CAP
1 SS4END[5] 0.00119034
2 *980:A 0
3 *204:25 0.00143224
4 *204:15 0.00158213
5 *204:9 0.00134023
6 *204:9 *205:9 0
7 *204:25 *993:A 0.000294353
8 *204:25 *205:17 0
9 *204:25 *299:22 0.0012411
10 NN4BEG[2] *204:25 0.000304519
11 *152:10 *204:25 0.00023464
12 *155:10 *204:25 4.75151e-05
13 *156:10 *204:25 0.000497577
14 *203:9 *204:9 0.00341153
*RES
1 SS4END[5] *204:9 36.583 
2 *204:9 *204:15 41.4008 
3 *204:15 *204:25 34.7187 
4 *204:25 *980:A 20 
*END

*D_NET *205 0.0139627
*CONN
*P SS4END[6] I
*I *979:A I *D sg13g2_buf_1
*CAP
1 SS4END[6] 0.00113737
2 *979:A 0.000100213
3 *205:25 0.00068093
4 *205:17 0.00141346
5 *205:9 0.00197012
6 *205:9 *206:27 0
7 *205:9 *208:11 0
8 *205:9 *305:16 0
9 *205:9 *305:28 0.00118569
10 *205:17 *281:26 0.00134765
11 *205:17 *293:26 0
12 *205:25 *282:18 0.000368206
13 *205:25 *286:22 0.000870658
14 *205:25 *310:8 0
15 NN4BEG[0] *979:A 0.000143812
16 NN4BEG[2] *979:A 0
17 *940:A *205:17 0.000209261
18 *941:A *205:17 0.000209451
19 *143:10 *205:17 0.000285463
20 *156:10 *205:17 7.44263e-05
21 *182:13 *205:9 0
22 *185:13 *205:9 0.000605447
23 *203:9 *205:9 0.0033605
24 *204:9 *205:9 0
25 *204:25 *205:17 0
*RES
1 SS4END[6] *205:9 37.2628 
2 *205:9 *205:17 49.4142 
3 *205:17 *205:25 46.5405 
4 *205:25 *979:A 40.9682 
*END

*D_NET *206 0.0140459
*CONN
*P SS4END[7] I
*I *978:A I *D sg13g2_buf_1
*CAP
1 SS4END[7] 0.00274636
2 *978:A 0
3 *206:37 0.00115814
4 *206:27 0.0039045
5 *206:27 *207:11 0
6 *206:27 *224:8 0.000551901
7 *206:27 *227:8 0
8 *206:27 *227:10 2.24836e-05
9 *206:27 *233:8 0
10 *206:27 *248:12 0.000370221
11 *206:27 *291:16 0
12 *206:37 *991:A 0.00011219
13 *206:37 *1080:A 0.000272482
14 *206:37 *283:20 0
15 *206:37 *288:16 0.00276431
16 *975:A *206:37 8.00842e-05
17 *17:25 *206:27 7.52149e-05
18 *17:25 *206:37 0.00167633
19 *18:21 *206:27 0.000289436
20 *182:13 *206:27 0
21 *194:11 *206:27 0
22 *195:11 *206:27 0
23 *199:9 *206:27 0
24 *202:15 *206:27 0
25 *202:23 *206:27 2.22695e-05
26 *205:9 *206:27 0
*RES
1 SS4END[7] *206:27 47.3053 
2 *206:27 *206:37 37.0362 
3 *206:37 *978:A 20 
*END

*D_NET *207 0.0166722
*CONN
*P SS4END[8] I
*I *977:A I *D sg13g2_buf_1
*CAP
1 SS4END[8] 0.000770023
2 *977:A 0
3 *207:21 0
4 *207:17 0.00132168
5 *207:11 0.0020917
6 *207:11 *208:11 0
7 *207:11 *248:22 0.000234224
8 *207:11 *297:10 0.000162223
9 *207:11 *297:16 0
10 *207:11 *299:12 0.000601074
11 *207:11 *302:8 0.000179494
12 *207:17 *208:15 0
13 *207:17 *208:23 0.00565468
14 *207:17 *300:18 0.00565711
15 *21:5 *207:11 0
16 *194:11 *207:11 0
17 *196:11 *207:11 0
18 *206:27 *207:11 0
*RES
1 SS4END[8] *207:11 48.0855 
2 *207:11 *207:17 48.7576 
3 *207:17 *207:21 40 
4 *207:21 *977:A 40 
*END

*D_NET *208 0.0145042
*CONN
*P SS4END[9] I
*I *976:A I *D sg13g2_buf_1
*CAP
1 SS4END[9] 0.000576096
2 *976:A 0
3 *208:27 0
4 *208:23 0.00158861
5 *208:15 0.00197638
6 *208:11 0.000963863
7 *208:15 *300:12 1.4965e-05
8 *208:23 *273:20 0.00301861
9 *208:23 *280:28 0
10 *208:23 *300:18 0
11 *208:23 *301:12 0
12 *182:13 *208:11 0.000710954
13 *194:11 *208:11 0
14 *196:11 *208:11 0
15 *205:9 *208:11 0
16 *207:11 *208:11 0
17 *207:17 *208:15 0
18 *207:17 *208:23 0.00565468
*RES
1 SS4END[9] *208:11 46.2933 
2 *208:11 *208:15 23.7801 
3 *208:15 *208:23 48.4589 
4 *208:23 *208:27 40 
5 *208:27 *976:A 20 
*END

*D_NET *209 0.0256446
*CONN
*P UserCLK I
*I *986:A I *D sg13g2_buf_1
*CAP
1 UserCLK 0.000326215
2 *986:A 6.04866e-05
3 *209:9 0.00516664
4 *209:7 0.00543237
5 *986:A *220:10 0
6 *209:9 *234:14 0
7 *914:A *986:A 0
8 *26:9 *209:9 0.00146184
9 *27:5 *209:9 0
10 *65:17 *209:9 0.011507
11 *67:11 *209:9 0.000395482
12 *68:11 *209:9 0.000449344
13 *81:11 *209:9 0.000395897
14 *82:11 *209:9 0.000449344
*RES
1 UserCLK *209:7 23.193 
2 *209:7 *209:9 63.6334 
3 *209:9 *986:A 40.6695 
*END

*D_NET *210 0.000741703
*CONN
*P UserCLKo O
*I *994:X O *D sg13g2_buf_1
*CAP
1 UserCLKo 0.000370851
2 *994:X 0.000370851
3 FrameStrobe_O[0] UserCLKo 0
4 *199:7 UserCLKo 0
*RES
1 *994:X UserCLKo 23.1106 
*END

*D_NET *213 0.0155037
*CONN
*I *987:A I *D sg13g2_buf_1
*I *882:X O *D sg13g2_buf_1
*CAP
1 *987:A 0.000115949
2 *882:X 0.000245413
3 *213:18 0.00462449
4 *213:16 0.00455975
5 *213:10 0.000296625
6 *213:18 *237:10 0
7 *213:18 *238:10 0
8 FrameData_O[1] *987:A 0
9 FrameData_O[2] *213:18 0.000343005
10 *26:9 *213:10 0
11 *75:13 *987:A 0
12 *78:11 *213:10 0.000665693
13 *78:17 *213:18 0.0046528
*RES
1 *882:X *213:10 43.3887 
2 *213:10 *213:16 40.5974 
3 *213:16 *213:18 42.8686 
4 *213:18 *987:A 40.9682 
*END

*D_NET *214 0.0115271
*CONN
*I *988:A I *D sg13g2_buf_1
*I *900:X O *D sg13g2_buf_1
*CAP
1 *988:A 0
2 *900:X 0.000285527
3 *214:14 0.0045632
4 *214:10 0.00484872
5 *214:10 *223:12 0
6 *214:10 *223:14 0.000770358
7 *214:14 *221:10 0
8 *214:14 *223:14 0
9 *214:14 *285:22 0
10 *214:14 *296:22 0
11 FrameData_O[17] *214:14 0
12 FrameData_O[18] *214:14 0
13 FrameData_O[20] *214:14 0
14 *11:9 *214:10 0.000342558
15 *195:11 *214:10 0
16 *195:11 *214:14 0
17 *195:21 *214:10 0.00071675
*RES
1 *900:X *214:10 45.6135 
2 *214:10 *214:14 41.6738 
3 *214:14 *988:A 40 
*END

*D_NET *215 0.00123858
*CONN
*I *989:A I *D sg13g2_buf_1
*I *975:X O *D sg13g2_buf_1
*CAP
1 *989:A 0.00043245
2 *975:X 0.00043245
3 *989:A *281:38 0.000175693
4 N4BEG[11] *989:A 0
5 N4BEG[12] *989:A 0.000197984
*RES
1 *975:X *989:A 44.1509 
*END

*D_NET *216 0.00101184
*CONN
*I *990:A I *D sg13g2_buf_1
*I *976:X O *D sg13g2_buf_1
*CAP
1 *990:A 0.000137768
2 *976:X 0.00012789
3 *216:8 0.000265659
4 *990:A *991:A 0.000240264
5 *990:A *281:38 0.000240264
*RES
1 *976:X *216:8 41.0918 
2 *216:8 *990:A 41.6171 
*END

*D_NET *217 0.00105249
*CONN
*I *991:A I *D sg13g2_buf_1
*I *977:X O *D sg13g2_buf_1
*CAP
1 *991:A 0.000350019
2 *977:X 0.000350019
3 *991:A *1080:A 0
4 *991:A *281:38 0
5 N4BEG[14] *991:A 0
6 *990:A *991:A 0.000240264
7 *206:37 *991:A 0.00011219
*RES
1 *977:X *991:A 43.6771 
*END

*D_NET *218 0.000745985
*CONN
*I *992:A I *D sg13g2_buf_1
*I *978:X O *D sg13g2_buf_1
*CAP
1 *992:A 0.000148715
2 *978:X 0.00012026
3 *218:8 0.000268975
4 *218:8 *277:16 0
5 NN4BEG[2] *992:A 0.000208035
*RES
1 *978:X *218:8 41.0918 
2 *218:8 *992:A 41.4008 
*END

*D_NET *219 0.00133818
*CONN
*I *993:A I *D sg13g2_buf_1
*I *979:X O *D sg13g2_buf_1
*CAP
1 *993:A 0.000305352
2 *979:X 3.46677e-05
3 *219:8 0.000340019
4 *219:8 *277:16 0.000181279
5 *219:8 *294:22 0.000182508
6 NN4BEG[2] *993:A 0
7 NN4BEG[4] *993:A 0
8 *204:25 *993:A 0.000294353
*RES
1 *979:X *219:8 40.8446 
2 *219:8 *993:A 42.8325 
*END

*D_NET *220 0.00530973
*CONN
*I *994:A I *D sg13g2_buf_1
*I *986:X O *D sg13g2_buf_1
*CAP
1 *994:A 0
2 *986:X 0.000895444
3 *220:14 0.00151096
4 *220:10 0.0024064
5 *220:10 *245:8 0
6 *220:10 *249:6 0
7 *220:10 *252:8 0
8 *220:10 *262:10 0
9 *220:14 *245:24 0
10 *220:14 *258:10 4.68848e-05
11 *220:14 *264:18 0
12 FrameStrobe_O[1] *220:14 0.000240404
13 *914:A *220:10 0
14 *986:A *220:10 0
15 *76:21 *220:10 0.00020964
16 *76:21 *220:14 0
17 *198:7 *220:14 0
18 *199:7 *220:14 0
*RES
1 *986:X *220:10 44.263 
2 *220:10 *220:14 34.5951 
3 *220:14 *994:A 20 
*END

*D_NET *221 0.0228945
*CONN
*I *995:A I *D sg13g2_buf_1
*I *901:X O *D sg13g2_buf_1
*CAP
1 *995:A 0.000235314
2 *901:X 4.96871e-05
3 *221:10 0.00201299
4 *221:8 0.00182736
5 *995:A *997:A 0
6 *221:8 *307:8 8.00842e-05
7 *221:10 *223:14 0.00930499
8 *221:10 *307:10 0.00930499
9 FrameData_O[19] *995:A 0
10 FrameData_O[20] *995:A 7.90673e-05
11 FrameData_O[20] *221:10 0
12 FrameData_O[21] *995:A 0
13 *214:14 *221:10 0
*RES
1 *901:X *221:8 40.5356 
2 *221:8 *221:10 44.1046 
3 *221:10 *995:A 42.3999 
*END

*D_NET *222 0.0128768
*CONN
*I *996:A I *D sg13g2_buf_1
*I *883:X O *D sg13g2_buf_1
*CAP
1 *996:A 0
2 *883:X 0.000245874
3 *222:14 0.00393881
4 *222:12 0.00418468
5 *222:12 *239:10 0
6 *222:14 *240:8 0
7 *222:14 *244:16 0
8 *222:14 *264:12 0.00450745
*RES
1 *883:X *222:12 42.3175 
2 *222:12 *222:14 41.8798 
3 *222:14 *996:A 40 
*END

*D_NET *223 0.018083
*CONN
*I *997:A I *D sg13g2_buf_1
*I *902:X O *D sg13g2_buf_1
*CAP
1 *997:A 0.000242029
2 *902:X 0.00014396
3 *223:14 0.00375552
4 *223:12 0.00365745
5 *997:A *1081:A 8.00842e-05
6 FrameData_O[20] *997:A 0
7 *902:A *223:12 0
8 *995:A *997:A 0
9 *11:9 *223:12 0.00012859
10 *84:17 *223:12 0
11 *214:10 *223:12 0
12 *214:10 *223:14 0.000770358
13 *214:14 *223:14 0
14 *221:10 *223:14 0.00930499
*RES
1 *902:X *223:12 41.6995 
2 *223:12 *223:14 43.363 
3 *223:14 *997:A 42.6162 
*END

*D_NET *224 0.0151157
*CONN
*I *998:A I *D sg13g2_buf_1
*I *903:X O *D sg13g2_buf_1
*CAP
1 *998:A 7.53e-05
2 *903:X 0.000192356
3 *224:16 0.00357584
4 *224:14 0.00371963
5 *224:8 0.000411447
6 *998:A *1002:A 0.000112656
7 *224:16 *228:8 0
8 *224:16 *229:12 0
9 *224:16 *231:14 0
10 *224:16 *266:14 0
11 FrameData_O[23] *998:A 0
12 FrameData_O[24] *224:16 0.000126441
13 *907:A *224:14 0.00014391
14 *17:25 *224:8 0.000290809
15 *194:13 *224:16 0.00299967
16 *200:13 *224:16 0.00198722
17 *202:23 *224:8 0.000928555
18 *206:27 *224:8 0.000551901
*RES
1 *903:X *224:8 44.3054 
2 *224:8 *224:14 42.0497 
3 *224:14 *224:16 41.6326 
4 *224:16 *998:A 40.7519 
*END

*D_NET *225 0.0214988
*CONN
*I *999:A I *D sg13g2_buf_1
*I *904:X O *D sg13g2_buf_1
*CAP
1 *999:A 5.14904e-05
2 *904:X 0
3 *225:8 0.00181378
4 *225:6 0.00176229
5 *999:A *1001:A 8.01118e-05
6 *999:A *1002:A 0
7 *225:8 *227:10 0.00908306
8 *225:8 *228:8 0.00870811
*RES
1 *904:X *225:6 40 
2 *225:6 *225:8 42.127 
3 *225:8 *999:A 40.5356 
*END

*D_NET *226 0.00825956
*CONN
*I *1000:A I *D sg13g2_buf_1
*I *905:X O *D sg13g2_buf_1
*CAP
1 *1000:A 0
2 *905:X 0
3 *226:18 0.000372372
4 *226:12 0.00398505
5 *226:10 0.00361268
6 *226:6 0
7 *15:13 *226:12 0.000289468
8 *18:13 *226:12 0
9 *19:17 *226:12 0
10 *20:13 *226:12 0
11 *25:13 *226:12 0
*RES
1 *905:X *226:6 40 
2 *226:6 *226:10 40 
3 *226:10 *226:12 44.8462 
4 *226:12 *226:18 44.6453 
5 *226:18 *1000:A 40 
*END

*D_NET *227 0.0163782
*CONN
*I *1001:A I *D sg13g2_buf_1
*I *906:X O *D sg13g2_buf_1
*CAP
1 *1001:A 0.000317326
2 *906:X 2.53043e-05
3 *227:10 0.00311114
4 *227:8 0.00281912
5 *1001:A *1002:A 0
6 *1001:A *1005:A 0
7 *227:10 *249:12 0
8 *227:10 *264:18 0.000607304
9 *227:10 *291:16 0
10 FrameData_O[24] *1001:A 0
11 FrameData_O[29] *1001:A 2.21754e-05
12 *999:A *1001:A 8.01118e-05
13 *18:21 *227:10 0.000290195
14 *199:9 *227:10 0
15 *206:27 *227:8 0
16 *206:27 *227:10 2.24836e-05
17 *225:8 *227:10 0.00908306
*RES
1 *906:X *227:8 40.3193 
2 *227:8 *227:10 42.8686 
3 *227:10 *1001:A 43.2651 
*END

*D_NET *228 0.0161122
*CONN
*I *1002:A I *D sg13g2_buf_1
*I *907:X O *D sg13g2_buf_1
*CAP
1 *1002:A 0.000423444
2 *907:X 0
3 *228:8 0.00322855
4 *228:6 0.0028051
5 *1002:A *1003:A 0
6 *1002:A *1005:A 0
7 *228:8 *245:24 0.000128247
8 *228:8 *291:12 0
9 *228:8 *291:16 7.55952e-05
10 FrameData_O[22] *228:8 0
11 FrameData_O[23] *1002:A 0
12 FrameData_O[24] *1002:A 0.000111828
13 FrameData_O[25] *1002:A 0
14 FrameData_O[26] *1002:A 0.000176511
15 *998:A *1002:A 0.000112656
16 *999:A *1002:A 0
17 *1001:A *1002:A 0
18 *187:11 *228:8 0.000342122
19 *194:13 *228:8 0
20 *224:16 *228:8 0
21 *225:8 *228:8 0.00870811
*RES
1 *907:X *228:6 40 
2 *228:6 *228:8 41.1382 
3 *228:8 *1002:A 44.0085 
*END

*D_NET *229 0.0136128
*CONN
*I *1003:A I *D sg13g2_buf_1
*I *908:X O *D sg13g2_buf_1
*CAP
1 *1003:A 0.000143773
2 *908:X 0.000285786
3 *229:12 0.0034179
4 *229:10 0.00355992
5 *229:10 *260:10 0
6 *229:10 *303:8 0
7 *229:12 *231:14 0
8 *229:12 *233:12 0
9 *229:12 *236:14 0.00439618
10 *229:12 *257:10 0.000551826
11 *229:12 *260:14 0
12 FrameData_O[26] *1003:A 0
13 FrameData_O[28] *229:12 0
14 FrameData_O[29] *1003:A 0.000208941
15 *1002:A *1003:A 0
16 *20:21 *229:12 0
17 *94:8 *229:12 0.00018128
18 *179:11 *229:10 0
19 *179:11 *229:12 0
20 *183:17 *229:12 0
21 *188:13 *229:10 0
22 *188:13 *229:12 0
23 *201:21 *229:12 0.000867212
24 *224:16 *229:12 0
*RES
1 *908:X *229:10 42.3999 
2 *229:10 *229:12 34.9582 
3 *229:12 *1003:A 41.4008 
*END

*D_NET *230 0.0139611
*CONN
*I *1004:A I *D sg13g2_buf_1
*I *892:X O *D sg13g2_buf_1
*CAP
1 *1004:A 0
2 *892:X 0
3 *230:16 0.00287546
4 *230:6 0.00287546
5 *230:16 *242:18 0
6 *230:16 *243:12 0
7 *230:16 *246:12 0.00415848
8 *230:16 *252:8 0
9 *230:16 *255:14 0
10 *230:16 *262:10 0
11 FrameData_O[11] *230:16 0
12 *72:11 *230:16 0.000288502
13 *76:17 *230:16 0.00376319
*RES
1 *892:X *230:6 40 
2 *230:6 *230:16 44.4548 
3 *230:16 *1004:A 40 
*END

*D_NET *231 0.0067986
*CONN
*I *1005:A I *D sg13g2_buf_1
*I *909:X O *D sg13g2_buf_1
*CAP
1 *1005:A 0.000298965
2 *909:X 0
3 *231:14 0.0033993
4 *231:6 0.00310034
5 *231:14 *233:12 0
6 *231:14 *266:14 0
7 FrameData_O[29] *1005:A 0
8 FrameData_O[31] *1005:A 0
9 *1001:A *1005:A 0
10 *1002:A *1005:A 0
11 *224:16 *231:14 0
12 *229:12 *231:14 0
*RES
1 *909:X *231:6 40 
2 *231:6 *231:14 48.7061 
3 *231:14 *1005:A 22.6162 
*END

*D_NET *232 0.00748485
*CONN
*I *1006:A I *D sg13g2_buf_1
*I *910:X O *D sg13g2_buf_1
*CAP
1 *1006:A 0
2 *910:X 0
3 *232:16 0.00225859
4 *232:6 0.00225859
5 *232:16 *235:16 0
6 *232:16 *236:14 0
7 *232:16 *250:20 0.00114134
8 *232:16 *260:14 0
9 *232:16 *265:22 0.00182634
10 FrameData_O[31] *232:16 0
*RES
1 *910:X *232:6 40 
2 *232:6 *232:16 45.0084 
3 *232:16 *1006:A 20 
*END

*D_NET *233 0.00728657
*CONN
*I *1007:A I *D sg13g2_buf_1
*I *911:X O *D sg13g2_buf_1
*CAP
1 *1007:A 0
2 *911:X 0.000162429
3 *233:12 0.003113
4 *233:8 0.00327542
5 *233:12 *257:10 0.000553195
6 *94:8 *233:12 0.000182525
7 *194:11 *233:8 0
8 *206:27 *233:8 0
9 *229:12 *233:12 0
10 *231:14 *233:12 0
*RES
1 *911:X *233:8 41.4008 
2 *233:8 *233:12 47.0478 
3 *233:12 *1007:A 20 
*END

*D_NET *234 0.0165262
*CONN
*I *1008:A I *D sg13g2_buf_1
*I *884:X O *D sg13g2_buf_1
*CAP
1 *1008:A 0
2 *884:X 4.74634e-05
3 *234:14 0.00295439
4 *234:8 0.00300185
5 *234:14 *237:10 0.00793953
6 *234:14 *239:12 0
7 *234:14 *256:8 0.00102678
8 *883:A *234:8 0
9 *26:9 *234:14 0.000128742
10 *65:17 *234:14 0
11 *67:11 *234:14 0.000395482
12 *68:11 *234:14 0.000449344
13 *73:11 *234:14 0.00050279
14 *84:17 *234:8 7.97925e-05
15 *209:9 *234:14 0
*RES
1 *884:X *234:8 40.5356 
2 *234:8 *234:14 42.7965 
3 *234:14 *1008:A 40 
*END

*D_NET *235 0.00603871
*CONN
*I *1009:A I *D sg13g2_buf_1
*I *912:X O *D sg13g2_buf_1
*CAP
1 *1009:A 0
2 *912:X 2.41961e-05
3 *235:16 0.00225809
4 *235:8 0.00228229
5 *235:16 *248:22 0
6 *235:16 *265:22 0
7 *21:5 *235:16 0.000181366
8 *85:8 *235:16 0.000394739
9 *86:8 *235:16 0.000394739
10 *93:10 *235:16 0
11 *95:8 *235:16 0.000503291
12 *97:10 *235:16 0
13 *232:16 *235:16 0
*RES
1 *912:X *235:8 40.3193 
2 *235:8 *235:16 44.72 
3 *235:16 *1009:A 20 
*END

*D_NET *236 0.0084946
*CONN
*I *1010:A I *D sg13g2_buf_1
*I *913:X O *D sg13g2_buf_1
*CAP
1 *1010:A 0
2 *913:X 8.29597e-05
3 *236:14 0.00158151
4 *236:8 0.00166447
5 *236:14 *250:20 0
6 *236:14 *260:14 0.000658479
7 FrameStrobe_O[3] *236:8 0.00011101
8 *229:12 *236:14 0.00439618
9 *232:16 *236:14 0
*RES
1 *913:X *236:8 40.7519 
2 *236:8 *236:14 41.1253 
3 *236:14 *1010:A 20 
*END

*D_NET *237 0.019262
*CONN
*I *1011:A I *D sg13g2_buf_1
*I *885:X O *D sg13g2_buf_1
*CAP
1 *1011:A 5.06999e-05
2 *885:X 2.48786e-05
3 *237:10 0.00297648
4 *237:8 0.00295066
5 *1011:A *1012:A 0
6 *237:10 *239:12 0
7 FrameData_O[1] *1011:A 8.02269e-05
8 FrameData_O[2] *237:10 0.000554653
9 FrameData_O[3] *1011:A 0
10 *78:11 *237:8 1.5617e-05
11 *78:17 *237:10 0.00466922
12 *213:18 *237:10 0
13 *234:14 *237:10 0.00793953
*RES
1 *885:X *237:8 40.3193 
2 *237:8 *237:10 44.3518 
3 *237:10 *1011:A 40.5356 
*END

*D_NET *238 0.012143
*CONN
*I *1012:A I *D sg13g2_buf_1
*I *886:X O *D sg13g2_buf_1
*CAP
1 *1012:A 0.000163946
2 *886:X 0.000100702
3 *238:10 0.00548436
4 *238:8 0.00542112
5 FrameData_O[1] *1012:A 0
6 FrameData_O[2] *238:10 0
7 *882:A *238:8 0
8 *884:A *238:8 0
9 *1011:A *1012:A 0
10 *23:9 *238:10 0.000128589
11 *33:10 *238:10 0.000342035
12 *70:13 *238:10 0
13 *75:13 *238:10 0
14 *77:9 *238:10 0
15 *78:11 *238:10 0.000502204
16 *78:17 *238:10 0
17 *213:18 *238:10 0
*RES
1 *886:X *238:8 40.7519 
2 *238:8 *238:10 47.3182 
3 *238:10 *1012:A 41.4008 
*END

*D_NET *239 0.0153587
*CONN
*I *1013:A I *D sg13g2_buf_1
*I *887:X O *D sg13g2_buf_1
*CAP
1 *1013:A 7.11994e-05
2 *887:X 7.22138e-05
3 *239:12 0.00289085
4 *239:10 0.00289186
5 *1013:A *1014:A 0
6 *239:12 *240:8 0.00938505
7 *239:12 *256:8 0
8 FrameData_O[1] *1013:A 4.75166e-05
9 *65:17 *239:12 0
10 *73:11 *239:12 0
11 *222:12 *239:10 0
12 *234:14 *239:12 0
13 *237:10 *239:12 0
*RES
1 *887:X *239:10 40.6695 
2 *239:10 *239:12 43.1158 
3 *239:12 *1013:A 40.7519 
*END

*D_NET *240 0.0172132
*CONN
*I *1014:A I *D sg13g2_buf_1
*I *888:X O *D sg13g2_buf_1
*CAP
1 *1014:A 5.37247e-05
2 *888:X 0
3 *240:8 0.00384975
4 *240:6 0.00379602
5 *240:8 *244:16 0
6 *240:8 *264:12 0
7 FrameData_O[2] *240:8 0
8 FrameData_O[5] *240:8 0.000128662
9 *1013:A *1014:A 0
10 *28:9 *240:8 0
11 *65:17 *240:8 0
12 *222:14 *240:8 0
13 *239:12 *240:8 0.00938505
*RES
1 *888:X *240:6 40 
2 *240:6 *240:8 45.3406 
3 *240:8 *1014:A 40.5356 
*END

*D_NET *241 0.0108077
*CONN
*I *1015:A I *D sg13g2_buf_1
*I *893:X O *D sg13g2_buf_1
*CAP
1 *1015:A 0
2 *893:X 0
3 *241:16 0.0028732
4 *241:14 0.0028732
5 *241:12 0.001049
6 *241:6 0.001049
7 *241:12 *248:12 0
8 *241:12 *252:8 0
9 *241:12 *262:10 0.00296332
10 *241:16 *245:14 0
11 *241:16 *252:8 0
12 *241:16 *263:12 0
*RES
1 *893:X *241:6 40 
2 *241:6 *241:12 35.3161 
3 *241:12 *241:14 20 
4 *241:14 *241:16 30.0142 
5 *241:16 *1015:A 40 
*END

*D_NET *242 0.0167862
*CONN
*I *1016:A I *D sg13g2_buf_1
*I *889:X O *D sg13g2_buf_1
*CAP
1 *1016:A 0
2 *889:X 0.000221265
3 *242:18 0.00248865
4 *242:16 0.00264083
5 *242:10 0.000373443
6 *242:10 *244:14 0
7 *242:10 *264:12 0
8 *242:16 *243:8 0
9 *242:16 *244:14 0
10 *242:18 *243:12 0.00937004
11 *242:18 *246:12 0
12 *242:18 *255:14 0.00151654
13 *29:5 *242:10 0.000127744
14 *72:11 *242:18 0
15 *76:17 *242:18 0
16 *84:17 *242:10 4.7651e-05
17 *230:16 *242:18 0
*RES
1 *889:X *242:10 42.3999 
2 *242:10 *242:16 41.4008 
3 *242:16 *242:18 43.363 
4 *242:18 *1016:A 40 
*END

*D_NET *243 0.0220705
*CONN
*I *1017:A I *D sg13g2_buf_1
*I *890:X O *D sg13g2_buf_1
*CAP
1 *1017:A 0
2 *890:X 5.57339e-05
3 *243:12 0.00198477
4 *243:8 0.00204051
5 *243:8 *244:14 0
6 *243:12 *244:14 0
7 *243:12 *244:16 0.00861948
8 FrameData_O[7] *243:12 0
9 FrameData_O[9] *243:12 0
10 *230:16 *243:12 0
11 *242:16 *243:8 0
12 *242:18 *243:12 0.00937004
*RES
1 *890:X *243:8 40.5356 
2 *243:8 *243:12 45.1655 
3 *243:12 *1017:A 40 
*END

*D_NET *244 0.0150747
*CONN
*I *1018:A I *D sg13g2_buf_1
*I *891:X O *D sg13g2_buf_1
*CAP
1 *1018:A 0.00025048
2 *891:X 0.000622961
3 *244:16 0.00260466
4 *244:14 0.00297714
5 *244:14 *264:12 0
6 *244:16 *264:12 0
7 FrameData_O[10] *1018:A 0
8 *891:A *244:14 0
9 *76:17 *244:14 0
10 *84:17 *244:14 0
11 *222:14 *244:16 0
12 *240:8 *244:16 0
13 *242:10 *244:14 0
14 *242:16 *244:14 0
15 *243:8 *244:14 0
16 *243:12 *244:14 0
17 *243:12 *244:16 0.00861948
*RES
1 *891:X *244:14 46.1903 
2 *244:14 *244:16 39.9022 
3 *244:16 *1018:A 42.6162 
*END

*D_NET *245 0.00721652
*CONN
*I *1019:A I *D sg13g2_buf_1
*I *914:X O *D sg13g2_buf_1
*CAP
1 *1019:A 0
2 *914:X 0.000762171
3 *245:24 0.000521729
4 *245:14 0.00196824
5 *245:8 0.00220868
6 *245:8 *258:10 0
7 *245:14 *252:8 0.000660643
8 *245:14 *258:16 0
9 *245:14 *259:12 0.000629177
10 *245:24 *259:12 0.000337632
11 FrameStrobe_O[3] *245:24 0
12 FrameStrobe_O[5] *245:24 0
13 *914:A *245:8 0
14 *76:21 *245:8 0
15 *220:10 *245:8 0
16 *220:14 *245:24 0
17 *228:8 *245:24 0.000128247
18 *241:16 *245:14 0
*RES
1 *914:X *245:8 41.9697 
2 *245:8 *245:14 33.1222 
3 *245:14 *245:24 44.944 
4 *245:24 *1019:A 20 
*END

*D_NET *246 0.0133183
*CONN
*I *1020:A I *D sg13g2_buf_1
*I *924:X O *D sg13g2_buf_1
*CAP
1 *1020:A 0.00162644
2 *924:X 0.000519389
3 *246:12 0.00309069
4 *246:8 0.00198364
5 *1020:A *1021:A 0
6 *1020:A *1023:A 0.00069469
7 *1020:A *250:12 0
8 *1020:A *251:10 0.00124494
9 *1020:A *262:16 0
10 FrameStrobe_O[13] *1020:A 0
11 FrameStrobe_O[15] *1020:A 0
12 *230:16 *246:12 0.00415848
13 *242:18 *246:12 0
*RES
1 *924:X *246:8 44.8616 
2 *246:8 *246:12 41.6094 
3 *246:12 *1020:A 36.6757 
*END

*D_NET *247 0.0109802
*CONN
*I *1021:A I *D sg13g2_buf_1
*I *925:X O *D sg13g2_buf_1
*CAP
1 *1021:A 0.00087562
2 *925:X 0.00119145
3 *247:12 0.00176448
4 *247:8 0.00208031
5 *1021:A *262:16 0
6 *1021:A *266:14 0
7 *247:8 *260:10 0
8 *247:12 *261:14 0.00295078
9 *247:12 *274:12 0
10 *247:12 *285:22 0.00204237
11 *247:12 *298:14 0
12 *247:12 *303:18 7.52158e-05
13 *1020:A *1021:A 0
14 *195:11 *247:12 0
*RES
1 *925:X *247:8 31.4845 
2 *247:8 *247:12 36.6654 
3 *247:12 *1021:A 48.3224 
*END

*D_NET *248 0.0100393
*CONN
*I *1022:A I *D sg13g2_buf_1
*I *926:X O *D sg13g2_buf_1
*CAP
1 *1022:A 8.01978e-05
2 *926:X 0.00241744
3 *248:22 0.00135855
4 *248:12 0.00369579
5 *248:12 *289:8 0
6 FrameStrobe_O[15] *1022:A 0
7 FrameStrobe_O[18] *1022:A 0
8 *21:5 *248:22 0
9 *85:8 *248:22 0
10 *86:8 *248:22 0.000393823
11 *88:10 *248:22 0
12 *90:10 *248:22 0.000288173
13 *97:10 *248:22 0.000394151
14 *99:10 *248:22 0.000236468
15 *103:10 *248:22 0.000393736
16 *182:13 *248:12 0.000176509
17 *196:11 *248:22 0
18 *202:15 *248:12 0
19 *206:27 *248:12 0.000370221
20 *207:11 *248:22 0.000234224
21 *235:16 *248:22 0
22 *241:12 *248:12 0
*RES
1 *926:X *248:12 42.969 
2 *248:12 *248:22 34.4406 
3 *248:22 *1022:A 40.7519 
*END

*D_NET *249 0.00675503
*CONN
*I *1023:A I *D sg13g2_buf_1
*I *927:X O *D sg13g2_buf_1
*CAP
1 *1023:A 0.000419955
2 *927:X 0.00159663
3 *249:12 0.00126294
4 *249:6 0.00243961
5 *1023:A *251:10 0
6 *249:12 *264:18 0
7 *249:12 *307:10 0
8 *1020:A *1023:A 0.00069469
9 *76:21 *249:6 0
10 *195:11 *249:6 0
11 *199:9 *249:12 0.000341206
12 *220:10 *249:6 0
13 *227:10 *249:12 0
*RES
1 *927:X *249:6 34.8114 
2 *249:6 *249:12 49.7438 
3 *249:12 *1023:A 24.6453 
*END

*D_NET *250 0.0075244
*CONN
*I *1024:A I *D sg13g2_buf_1
*I *928:X O *D sg13g2_buf_1
*CAP
1 *1024:A 0
2 *928:X 0.00227984
3 *250:20 0.000505209
4 *250:12 0.00278505
5 *250:12 *1034:A 4.68848e-05
6 *250:12 *1035:A 0
7 *250:12 *1038:A 0.000466256
8 *250:12 *258:16 0
9 *250:12 *259:12 0
10 *250:12 *262:16 0
11 *250:20 *1027:A 0.000112343
12 *250:20 *260:14 7.51285e-05
13 FrameStrobe_O[18] *250:20 0.000112343
14 *1020:A *250:12 0
15 *232:16 *250:20 0.00114134
16 *236:14 *250:20 0
*RES
1 *928:X *250:12 41.4858 
2 *250:12 *250:20 46.0461 
3 *250:20 *1024:A 20 
*END

*D_NET *251 0.00530034
*CONN
*I *1025:A I *D sg13g2_buf_1
*I *929:X O *D sg13g2_buf_1
*CAP
1 *1025:A 0
2 *929:X 0.0020277
3 *251:10 0.0020277
4 *930:A *251:10 0
5 *1020:A *251:10 0.00124494
6 *1023:A *251:10 0
*RES
1 *929:X *251:10 40.5485 
2 *251:10 *1025:A 20 
*END

*D_NET *252 0.00915676
*CONN
*I *1026:A I *D sg13g2_buf_1
*I *894:X O *D sg13g2_buf_1
*CAP
1 *1026:A 7.61373e-05
2 *894:X 0
3 *252:8 0.00396999
4 *252:6 0.00389386
5 *252:8 *258:10 0.00055613
6 *252:8 *262:10 0
7 *252:8 *263:12 0
8 *252:8 *274:12 0
9 FrameData_O[11] *252:8 0
10 FrameData_O[12] *1026:A 0
11 *220:10 *252:8 0
12 *230:16 *252:8 0
13 *241:12 *252:8 0
14 *241:16 *252:8 0
15 *245:14 *252:8 0.000660643
*RES
1 *894:X *252:6 40 
2 *252:6 *252:8 44.599 
3 *252:8 *1026:A 40.7519 
*END

*D_NET *253 0.000654373
*CONN
*I *1027:A I *D sg13g2_buf_1
*I *930:X O *D sg13g2_buf_1
*CAP
1 *1027:A 0.000271015
2 *930:X 0.000271015
3 *1027:A *254:10 0
4 *250:20 *1027:A 0.000112343
*RES
1 *930:X *1027:A 42.8119 
*END

*D_NET *254 0.00443898
*CONN
*I *1028:A I *D sg13g2_buf_1
*I *931:X O *D sg13g2_buf_1
*CAP
1 *1028:A 0
2 *931:X 0.00221949
3 *254:10 0.00221949
4 *254:10 *255:14 0
5 *254:10 *256:16 0
6 *1027:A *254:10 0
7 *72:11 *254:10 0
*RES
1 *931:X *254:10 36.4253 
2 *254:10 *1028:A 20 
*END

*D_NET *255 0.00641504
*CONN
*I *1029:A I *D sg13g2_buf_1
*I *932:X O *D sg13g2_buf_1
*CAP
1 *1029:A 0
2 *932:X 0.000414793
3 *255:14 0.00194582
4 *255:8 0.00236062
5 *930:A *255:14 0
6 *72:11 *255:14 0.000177272
7 *230:16 *255:14 0
8 *242:18 *255:14 0.00151654
9 *254:10 *255:14 0
*RES
1 *932:X *255:8 43.9964 
2 *255:8 *255:14 42.4849 
3 *255:14 *1029:A 20 
*END

*D_NET *256 0.00725685
*CONN
*I *1030:A I *D sg13g2_buf_1
*I *933:X O *D sg13g2_buf_1
*CAP
1 *1030:A 0
2 *933:X 0.000689153
3 *256:16 0.00220121
4 *256:8 0.00289036
5 *73:11 *256:8 0.000449343
6 *234:14 *256:8 0.00102678
7 *239:12 *256:8 0
8 *254:10 *256:16 0
*RES
1 *933:X *256:8 49.2494 
2 *256:8 *256:16 41.5373 
3 *256:16 *1030:A 20 
*END

*D_NET *257 0.0019577
*CONN
*I *1031:A I *D sg13g2_buf_1
*I *915:X O *D sg13g2_buf_1
*CAP
1 *1031:A 3.28346e-05
2 *915:X 0.000210112
3 *257:10 0.000242946
4 FrameStrobe_O[3] *1031:A 1.54008e-05
5 *198:7 *257:10 0.000175693
6 *199:7 *257:10 0.000175693
7 *229:12 *257:10 0.000551826
8 *233:12 *257:10 0.000553195
*RES
1 *915:X *257:10 43.7595 
2 *257:10 *1031:A 40.3193 
*END

*D_NET *258 0.00683406
*CONN
*I *1032:A I *D sg13g2_buf_1
*I *916:X O *D sg13g2_buf_1
*CAP
1 *1032:A 0
2 *916:X 0.000876112
3 *258:16 0.00160186
4 *258:10 0.00247797
5 *258:10 *259:12 0
6 *258:10 *262:10 0
7 *258:10 *264:18 0
8 *258:16 *1035:A 0.0012751
9 *258:16 *259:12 0
10 FrameStrobe_O[5] *258:16 0
11 FrameStrobe_O[7] *258:16 0
12 *220:14 *258:10 4.68848e-05
13 *245:8 *258:10 0
14 *245:14 *258:16 0
15 *250:12 *258:16 0
16 *252:8 *258:10 0.00055613
*RES
1 *916:X *258:10 45.3177 
2 *258:10 *258:16 34.3594 
3 *258:16 *1032:A 20 
*END

*D_NET *259 0.00544381
*CONN
*I *1033:A I *D sg13g2_buf_1
*I *917:X O *D sg13g2_buf_1
*CAP
1 *1033:A 0
2 *917:X 0.0022385
3 *259:12 0.0022385
4 *259:12 *264:18 0
5 *245:14 *259:12 0.000629177
6 *245:24 *259:12 0.000337632
7 *250:12 *259:12 0
8 *258:10 *259:12 0
9 *258:16 *259:12 0
*RES
1 *917:X *259:12 40.4043 
2 *259:12 *1033:A 20 
*END

*D_NET *260 0.0111857
*CONN
*I *1034:A I *D sg13g2_buf_1
*I *918:X O *D sg13g2_buf_1
*CAP
1 *1034:A 9.12321e-05
2 *918:X 0.00215427
3 *260:14 0.00168034
4 *260:10 0.00374338
5 *260:10 *292:8 0.000854103
6 *260:10 *303:8 0
7 *260:14 *265:22 0
8 FrameStrobe_O[7] *1034:A 0
9 FrameStrobe_O[9] *1034:A 0.000143938
10 *185:13 *260:10 0
11 *187:11 *260:10 0
12 *188:13 *260:10 0
13 *193:9 *260:14 0.000764334
14 *201:21 *260:14 0.000973605
15 *229:10 *260:10 0
16 *229:12 *260:14 0
17 *232:16 *260:14 0
18 *236:14 *260:14 0.000658479
19 *247:8 *260:10 0
20 *250:12 *1034:A 4.68848e-05
21 *250:20 *260:14 7.51285e-05
*RES
1 *918:X *260:10 40.6721 
2 *260:10 *260:14 36.171 
3 *260:14 *1034:A 40.9682 
*END

*D_NET *261 0.0225095
*CONN
*I *1035:A I *D sg13g2_buf_1
*I *919:X O *D sg13g2_buf_1
*CAP
1 *1035:A 0.000811736
2 *919:X 0.000439353
3 *261:14 0.00303109
4 *261:8 0.00265871
5 *261:14 *274:12 0
6 *261:14 *289:18 0.00194535
7 *261:14 *292:20 0.00337715
8 *261:14 *303:18 0
9 *919:A *261:8 0
10 *8:5 *261:14 0.000235272
11 *9:9 *261:14 0
12 *195:21 *261:8 0.000272789
13 *198:9 *261:14 0.0055122
14 *247:12 *261:14 0.00295078
15 *250:12 *1035:A 0
16 *258:16 *1035:A 0.0012751
*RES
1 *919:X *261:8 43.7801 
2 *261:8 *261:14 40.8189 
3 *261:14 *1035:A 48.5387 
*END

*D_NET *262 0.0165846
*CONN
*I *1036:A I *D sg13g2_buf_1
*I *920:X O *D sg13g2_buf_1
*CAP
1 *1036:A 0
2 *920:X 0.000630242
3 *262:16 0.00172594
4 *262:10 0.00479916
5 *262:8 0.00370346
6 *262:16 *1038:A 0
7 *262:16 *266:14 0.000176367
8 FrameStrobe_O[11] *262:16 0
9 FrameStrobe_O[9] *262:16 0
10 *1020:A *262:16 0
11 *1021:A *262:16 0
12 *2:9 *262:10 0
13 *3:13 *262:10 0.00258607
14 *76:17 *262:10 0
15 *220:10 *262:10 0
16 *230:16 *262:10 0
17 *241:12 *262:10 0.00296332
18 *250:12 *262:16 0
19 *252:8 *262:10 0
20 *258:10 *262:10 0
*RES
1 *920:X *262:8 45.9431 
2 *262:8 *262:10 37.4302 
3 *262:10 *262:16 32.9102 
4 *262:16 *1036:A 20 
*END

*D_NET *263 0.0102004
*CONN
*I *1037:A I *D sg13g2_buf_1
*I *895:X O *D sg13g2_buf_1
*CAP
1 *1037:A 8.06105e-05
2 *895:X 0
3 *263:12 0.00374212
4 *263:6 0.00366151
5 *263:12 *274:12 0.00271613
6 FrameData_O[13] *1037:A 0
7 *241:16 *263:12 0
8 *252:8 *263:12 0
*RES
1 *895:X *263:6 40 
2 *263:6 *263:12 43.2909 
3 *263:12 *1037:A 40.7519 
*END

*D_NET *264 0.0157539
*CONN
*I *1038:A I *D sg13g2_buf_1
*I *921:X O *D sg13g2_buf_1
*CAP
1 *1038:A 0.00031066
2 *921:X 0.000196887
3 *264:18 0.00213244
4 *264:12 0.00376766
5 *264:8 0.00214277
6 *922:A *264:8 0
7 *28:9 *264:12 0.00162245
8 *29:5 *264:12 0
9 *220:14 *264:18 0
10 *222:14 *264:12 0.00450745
11 *227:10 *264:18 0.000607304
12 *240:8 *264:12 0
13 *242:10 *264:12 0
14 *244:14 *264:12 0
15 *244:16 *264:12 0
16 *249:12 *264:18 0
17 *250:12 *1038:A 0.000466256
18 *258:10 *264:18 0
19 *259:12 *264:18 0
20 *262:16 *1038:A 0
*RES
1 *921:X *264:8 41.8334 
2 *264:8 *264:12 49.2726 
3 *264:12 *264:18 37.4173 
4 *264:18 *1038:A 43.1312 
*END

*D_NET *265 0.0122126
*CONN
*I *1039:A I *D sg13g2_buf_1
*I *922:X O *D sg13g2_buf_1
*CAP
1 *1039:A 0
2 *922:X 0.000847455
3 *265:22 0.00202906
4 *265:14 0.00287652
5 *265:14 *304:8 0
6 *265:22 *304:8 0.00119254
7 *21:5 *265:14 0.00134809
8 *21:5 *265:22 0
9 *160:11 *265:14 0.000208035
10 *169:11 *265:14 0.000208035
11 *170:13 *265:14 0.000181192
12 *171:13 *265:14 0.000287623
13 *180:11 *265:22 0.00081302
14 *189:11 *265:22 0.000394652
15 *193:9 *265:14 0
16 *193:9 *265:22 0
17 *232:16 *265:22 0.00182634
18 *235:16 *265:22 0
19 *260:14 *265:22 0
*RES
1 *922:X *265:14 49.8365 
2 *265:14 *265:22 43.484 
3 *265:22 *1039:A 20 
*END

*D_NET *266 0.00693897
*CONN
*I *1040:A I *D sg13g2_buf_1
*I *923:X O *D sg13g2_buf_1
*CAP
1 *1040:A 0
2 *923:X 5.02106e-05
3 *266:14 0.00239631
4 *266:8 0.00244652
5 *266:8 *294:12 4.68848e-05
6 *266:14 *280:12 0
7 *266:14 *294:12 7.51285e-05
8 *968:A *266:8 7.92265e-05
9 *1021:A *266:14 0
10 *20:21 *266:14 0
11 *168:19 *266:14 0
12 *179:11 *266:14 0
13 *181:13 *266:14 0
14 *183:17 *266:14 0
15 *186:13 *266:14 0
16 *188:13 *266:14 0
17 *200:13 *266:14 0.00166832
18 *224:16 *266:14 0
19 *231:14 *266:14 0
20 *262:16 *266:14 0.000176367
*RES
1 *923:X *266:8 40.5356 
2 *266:8 *266:14 42.0523 
3 *266:14 *1040:A 20 
*END

*D_NET *267 0.0129288
*CONN
*I *1041:A I *D sg13g2_buf_1
*I *934:X O *D sg13g2_buf_1
*CAP
1 *1041:A 0.000624282
2 *934:X 0.000240159
3 *267:12 0.00231506
4 *267:8 0.00193093
5 *1041:A *1043:A 0
6 *267:12 *272:12 0
7 *267:12 *275:16 0.00459432
8 *13:9 *267:12 0
9 *14:7 *267:12 0
10 *199:9 *267:12 0.00322402
*RES
1 *934:X *267:8 42.0497 
2 *267:8 *267:12 46.5534 
3 *267:12 *1041:A 26.3757 
*END

*D_NET *268 0.0118844
*CONN
*I *1042:A I *D sg13g2_buf_1
*I *935:X O *D sg13g2_buf_1
*CAP
1 *1042:A 0
2 *935:X 8.81482e-05
3 *268:52 0.000368936
4 *268:42 0.00236077
5 *268:32 0.00256655
6 *268:14 0.000747038
7 *268:8 0.000260469
8 *268:8 *269:16 0.00011101
9 *268:32 *1083:A 0
10 *268:32 *269:16 0.000143238
11 *268:32 *305:28 0.000287256
12 *268:42 *282:30 0.00192826
13 *268:42 *305:28 0.000708941
14 *268:52 *1043:A 0
15 *268:52 *1047:A 8.02267e-05
16 *268:52 *269:34 0.000122644
17 *268:52 *270:14 0
18 N1BEG[1] *268:42 0.000305548
19 N1BEG[1] *268:52 0
20 N1BEG[2] *268:42 0.000241912
21 NN4BEG[7] *268:32 0.000209451
22 NN4BEG[8] *268:32 0.000304947
23 *936:A *268:8 0.000143351
24 *936:A *268:32 0.000207922
25 *21:5 *268:52 0
26 *109:10 *268:52 0.000335187
27 *111:8 *268:52 0.000128334
28 *203:9 *268:32 0.000234224
*RES
1 *935:X *268:8 40.9682 
2 *268:8 *268:14 41.1845 
3 *268:14 *268:32 46.9937 
4 *268:32 *268:42 42.3201 
5 *268:42 *268:52 44.3878 
6 *268:52 *1042:A 20 
*END

*D_NET *269 0.0109965
*CONN
*I *1043:A I *D sg13g2_buf_1
*I *936:X O *D sg13g2_buf_1
*CAP
1 *1043:A 8.15395e-05
2 *936:X 6.67649e-05
3 *269:34 0.000470946
4 *269:26 0.00171253
5 *269:22 0.00223532
6 *269:16 0.00121712
7 *269:10 0.00037169
8 *269:10 *278:18 0.000181192
9 *269:10 *287:14 0.000181608
10 *269:16 *1083:A 0
11 *269:22 *280:28 0
12 *269:22 *281:32 0
13 *269:22 *286:22 0.00177648
14 *269:22 *293:26 0
15 *269:22 *316:10 0.000232421
16 N1BEG[1] *269:34 0
17 *936:A *269:16 0
18 *1041:A *1043:A 0
19 *21:5 *269:34 0
20 *105:10 *1043:A 0
21 *105:10 *269:26 0
22 *105:10 *269:34 0
23 *107:10 *269:26 0
24 *107:10 *269:34 0
25 *109:10 *269:26 0
26 *125:10 *269:26 0.000817575
27 *126:10 *269:26 0.000759751
28 *129:10 *269:26 0
29 *131:10 *269:26 0.000126354
30 *137:10 *269:26 0
31 *157:11 *269:22 0.000340808
32 *196:23 *269:22 0
33 *197:19 *269:22 0
34 *202:23 *269:10 4.75151e-05
35 *202:23 *269:16 0
36 *268:8 *269:16 0.00011101
37 *268:32 *269:16 0.000143238
38 *268:52 *1043:A 0
39 *268:52 *269:34 0.000122644
*RES
1 *936:X *269:10 41.1639 
2 *269:10 *269:16 42.6986 
3 *269:16 *269:22 30.7429 
4 *269:22 *269:26 33.9462 
5 *269:26 *269:34 43.4814 
6 *269:34 *1043:A 40.6639 
*END

*D_NET *270 0.010438
*CONN
*I *1044:A I *D sg13g2_buf_1
*I *937:X O *D sg13g2_buf_1
*CAP
1 *1044:A 0
2 *937:X 2.67614e-05
3 *270:14 0.00102497
4 *270:8 0.00105173
5 *270:14 *1050:A 0.000208968
6 *270:14 *278:18 0.00400527
7 *270:14 *287:14 0.00278239
8 NN4BEG[4] *270:8 4.75151e-05
9 *937:A *270:8 4.75151e-05
10 *16:9 *270:14 0
11 *17:9 *270:14 0.00124284
12 *18:9 *270:14 0
13 *268:52 *270:14 0
*RES
1 *937:X *270:8 40.3193 
2 *270:8 *270:14 41.2798 
3 *270:14 *1044:A 20 
*END

*D_NET *271 0.00766736
*CONN
*I *1045:A I *D sg13g2_buf_1
*I *938:X O *D sg13g2_buf_1
*CAP
1 *1045:A 0
2 *938:X 0.000102048
3 *271:26 0.000612737
4 *271:20 0.00274486
5 *271:14 0.00233891
6 *271:8 0.000308837
7 *271:20 *273:20 0
8 *271:20 *301:12 0
9 *271:20 *302:20 0
10 *271:26 *273:26 0
11 *19:11 *271:26 0
12 *21:5 *271:26 0.00155996
13 *196:15 *271:20 0
*RES
1 *938:X *271:8 40.7519 
2 *271:8 *271:14 41.8334 
3 *271:14 *271:20 44.0608 
4 *271:20 *271:26 47.2718 
5 *271:26 *1045:A 20 
*END

*D_NET *272 0.0130977
*CONN
*I *1046:A I *D sg13g2_buf_1
*I *939:X O *D sg13g2_buf_1
*CAP
1 *1046:A 0.000553642
2 *939:X 0.000470825
3 *272:12 0.00278253
4 *272:8 0.00269971
5 *1046:A *1049:A 0
6 *1046:A *1050:A 0
7 *1046:A *278:18 0.000177185
8 *272:8 *275:12 0.000627626
9 *272:12 *275:16 0
10 *922:A *272:8 0
11 *13:9 *272:12 0.00578618
12 *267:12 *272:12 0
*RES
1 *939:X *272:8 44.6453 
2 *272:8 *272:12 46.8006 
3 *272:12 *1046:A 25.2942 
*END

*D_NET *273 0.012194
*CONN
*I *1047:A I *D sg13g2_buf_1
*I *940:X O *D sg13g2_buf_1
*CAP
1 *1047:A 4.30691e-05
2 *940:X 5.19392e-05
3 *273:26 0.00102134
4 *273:20 0.00219652
5 *273:14 0.00144059
6 *273:8 0.00027428
7 *273:8 *275:12 0
8 *273:8 *288:10 7.99004e-05
9 *273:14 *304:14 0
10 *273:20 *290:14 0
11 *273:20 *290:20 0
12 *273:20 *297:20 0.00286022
13 *273:20 *300:18 0
14 *273:20 *301:12 0
15 *273:26 *286:22 0.00103161
16 *273:26 *302:26 0
17 N1BEG[1] *1047:A 8.00842e-05
18 *19:11 *273:26 0
19 *19:15 *273:20 1.55639e-05
20 *21:5 *273:26 0
21 *208:23 *273:20 0.00301861
22 *268:52 *1047:A 8.02267e-05
23 *271:20 *273:20 0
24 *271:26 *273:26 0
*RES
1 *940:X *273:8 40.5356 
2 *273:8 *273:14 41.6171 
3 *273:14 *273:20 40.8472 
4 *273:20 *273:26 49.7438 
5 *273:26 *1047:A 20.5356 
*END

*D_NET *274 0.0106631
*CONN
*I *1048:A I *D sg13g2_buf_1
*I *896:X O *D sg13g2_buf_1
*CAP
1 *1048:A 0
2 *896:X 0
3 *274:12 0.00397347
4 *274:6 0.00397347
5 *274:12 *285:22 0
6 *274:12 *289:14 0
7 *274:12 *296:22 0
8 FrameData_O[13] *274:12 0
9 FrameData_O[15] *274:12 0
10 *198:9 *274:12 0
11 *247:12 *274:12 0
12 *252:8 *274:12 0
13 *261:14 *274:12 0
14 *263:12 *274:12 0.00271613
*RES
1 *896:X *274:6 40 
2 *274:6 *274:12 47.2461 
3 *274:12 *1048:A 40 
*END

*D_NET *275 0.0124378
*CONN
*I *1049:A I *D sg13g2_buf_1
*I *941:X O *D sg13g2_buf_1
*CAP
1 *1049:A 0.000508885
2 *941:X 0.000681613
3 *275:16 0.00291862
4 *275:12 0.00309135
5 *1049:A *277:16 0
6 *1049:A *278:18 0
7 *1049:A *279:12 0
8 *275:12 *288:10 0
9 *1046:A *1049:A 0
10 *13:9 *275:16 0
11 *170:13 *275:12 1.54008e-05
12 *199:9 *275:16 0
13 *267:12 *275:16 0.00459432
14 *272:8 *275:12 0.000627626
15 *272:12 *275:16 0
16 *273:8 *275:12 0
*RES
1 *941:X *275:12 46.4278 
2 *275:12 *275:16 46.059 
3 *275:16 *1049:A 23.568 
*END

*D_NET *276 0.013851
*CONN
*I *1050:A I *D sg13g2_buf_1
*I *942:X O *D sg13g2_buf_1
*CAP
1 *1050:A 0.000624368
2 *942:X 7.27406e-05
3 *276:24 0.00247653
4 *276:20 0.002176
5 *276:10 0.000396578
6 *1050:A *278:18 0
7 *276:10 *1087:A 7.92265e-05
8 *276:20 *1087:A 7.9225e-05
9 *276:24 *279:12 0
10 *276:24 *281:38 0
11 *276:24 *283:20 0
12 N1BEG[1] *1050:A 1.54008e-05
13 N1BEG[3] *1050:A 0.000134485
14 *922:A *276:20 0.000337517
15 *985:A *276:10 7.92265e-05
16 *985:A *276:20 0
17 *1046:A *1050:A 0
18 *14:7 *276:24 0.00567285
19 *16:9 *276:24 0
20 *159:9 *276:10 0.00012816
21 *159:9 *276:20 4.68833e-05
22 *200:13 *276:10 0.00012816
23 *202:23 *276:24 0.00119464
24 *270:14 *1050:A 0.000208968
*RES
1 *942:X *276:10 41.133 
2 *276:10 *276:20 43.3681 
3 *276:20 *276:24 46.3062 
4 *276:24 *1050:A 26.18 
*END

*D_NET *277 0.00781086
*CONN
*I *1051:A I *D sg13g2_buf_1
*I *943:X O *D sg13g2_buf_1
*CAP
1 *1051:A 0
2 *943:X 5.81461e-05
3 *277:16 0.00194345
4 *277:10 0.0020016
5 *277:16 *278:18 0
6 *277:16 *279:12 0
7 *277:16 *284:26 0
8 *277:16 *294:22 0.000552888
9 *277:16 *300:24 0.000656573
10 *277:16 *310:8 0
11 *277:16 *315:8 0.00119043
12 *945:A *277:10 4.77425e-05
13 *1049:A *277:16 0
14 *18:9 *277:16 0.000181453
15 *19:11 *277:16 0
16 *118:8 *277:16 0
17 *123:8 *277:16 0
18 *128:12 *277:16 0
19 *132:10 *277:16 0
20 *135:8 *277:16 0
21 *138:10 *277:16 0
22 *140:16 *277:16 0.000656098
23 *160:11 *277:16 0.000341206
24 *201:21 *277:16 0
25 *218:8 *277:16 0
26 *219:8 *277:16 0.000181279
*RES
1 *943:X *277:10 40.6695 
2 *277:10 *277:16 42.6394 
3 *277:16 *1051:A 20 
*END

*D_NET *278 0.0114557
*CONN
*I *1052:A I *D sg13g2_buf_1
*I *944:X O *D sg13g2_buf_1
*CAP
1 *1052:A 0
2 *944:X 5.80446e-05
3 *278:18 0.00166051
4 *278:8 0.00171855
5 *278:18 *284:26 0.000871465
6 *278:18 *287:14 0
7 *278:18 *294:22 0.00188955
8 *278:18 *315:8 0
9 N1BEG[3] *278:18 0.000166901
10 N2BEG[1] *278:18 6.99453e-05
11 *934:A *278:8 7.92265e-05
12 *1046:A *278:18 0.000177185
13 *1049:A *278:18 0
14 *1050:A *278:18 0
15 *18:9 *278:18 0
16 *159:9 *278:18 0.000341621
17 *200:13 *278:18 0.000236274
18 *269:10 *278:18 0.000181192
19 *270:14 *278:18 0.00400527
20 *277:16 *278:18 0
*RES
1 *944:X *278:8 40.5356 
2 *278:8 *278:18 45.9663 
3 *278:18 *1052:A 20 
*END

*D_NET *279 0.00886653
*CONN
*I *1053:A I *D sg13g2_buf_1
*I *945:X O *D sg13g2_buf_1
*CAP
1 *1053:A 0
2 *945:X 0
3 *279:12 0.00170059
4 *279:6 0.00170059
5 *279:12 *1055:A 0
6 *279:12 *281:38 0
7 *279:12 *287:14 0
8 *279:12 *288:16 0.00318856
9 *279:12 *291:16 0
10 *279:12 *301:20 0
11 *279:12 *317:8 0.000768867
12 *1049:A *279:12 0
13 *16:9 *279:12 0.00150793
14 *276:24 *279:12 0
15 *277:16 *279:12 0
*RES
1 *945:X *279:6 40 
2 *279:6 *279:12 42.3672 
3 *279:12 *1053:A 20 
*END

*D_NET *280 0.0143074
*CONN
*I *1054:A I *D sg13g2_buf_1
*I *946:X O *D sg13g2_buf_1
*CAP
1 *1054:A 0
2 *946:X 2.45647e-05
3 *280:34 0.000720233
4 *280:28 0.00115355
5 *280:16 0.00137834
6 *280:12 0.00208068
7 *280:8 0.00116022
8 *280:12 *294:12 0
9 *280:12 *294:22 0.00102958
10 *280:16 *284:12 0.000601578
11 *280:16 *284:18 0
12 *280:16 *300:18 0.00275095
13 *280:28 *295:18 7.50805e-05
14 *280:28 *301:20 0
15 N2BEG[1] *280:34 8.00842e-05
16 N2BEG[3] *280:34 1.54008e-05
17 *21:5 *280:34 0.00208764
18 *111:8 *280:34 7.52158e-05
19 *113:10 *280:34 0
20 *117:10 *280:34 0
21 *119:8 *280:34 0.000605985
22 *122:10 *280:34 0
23 *134:10 *280:34 0
24 *160:11 *280:12 0.000340375
25 *168:19 *280:12 0
26 *175:19 *280:12 0
27 *196:23 *280:28 0.000127957
28 *196:23 *280:34 0
29 *197:19 *280:28 0
30 *201:21 *280:12 0
31 *208:23 *280:28 0
32 *266:14 *280:12 0
33 *269:22 *280:28 0
*RES
1 *946:X *280:8 40.3193 
2 *280:8 *280:12 31.227 
3 *280:12 *280:16 32.7102 
4 *280:16 *280:28 44.1818 
5 *280:28 *280:34 30.2794 
6 *280:34 *1054:A 20 
*END

*D_NET *281 0.0167563
*CONN
*I *1055:A I *D sg13g2_buf_1
*I *947:X O *D sg13g2_buf_1
*CAP
1 *1055:A 0.000348083
2 *947:X 0.000277843
3 *281:38 0.00202826
4 *281:32 0.00218706
5 *281:26 0.00124472
6 *281:20 0.000970417
7 *281:14 0.000510427
8 *1055:A *289:24 0
9 *281:14 *282:18 0.000287935
10 *281:26 *282:18 0
11 *281:26 *293:26 0.00155908
12 *281:26 *299:22 0
13 *281:38 *283:20 0
14 *281:38 *288:16 0.00146925
15 N4BEG[12] *281:38 0.000175809
16 *949:A *281:14 0
17 *950:A *281:20 0.000400669
18 *951:A *281:20 0.000400669
19 *975:A *281:38 8.01995e-05
20 *989:A *281:38 0.000175693
21 *990:A *281:38 0.000240264
22 *991:A *281:38 0
23 *21:5 *281:32 0.00160967
24 *157:11 *281:32 0.000762138
25 *166:23 *281:14 0.000181146
26 *193:9 *281:14 0
27 *201:21 *281:14 0.000499287
28 *205:17 *281:26 0.00134765
29 *269:22 *281:32 0
30 *276:24 *281:38 0
31 *279:12 *1055:A 0
32 *279:12 *281:38 0
*RES
1 *947:X *281:14 43.7492 
2 *281:14 *281:20 42.6986 
3 *281:20 *281:26 30.6502 
4 *281:26 *281:32 47.519 
5 *281:32 *281:38 36.0886 
6 *281:38 *1055:A 43.1312 
*END

*D_NET *282 0.0141197
*CONN
*I *1056:A I *D sg13g2_buf_1
*I *948:X O *D sg13g2_buf_1
*CAP
1 *1056:A 0.000268896
2 *948:X 0.000206666
3 *282:30 0.000901935
4 *282:24 0.00120763
5 *282:18 0.00209291
6 *282:10 0.00172498
7 *282:10 *286:12 0
8 *282:18 *286:22 0.00208771
9 *282:24 *302:20 0
10 N2BEG[3] *1056:A 0.000467142
11 N2BEG[4] *1056:A 0.000337747
12 N2BEG[5] *1056:A 1.54008e-05
13 *923:A *282:10 0
14 *949:A *282:10 0.000112154
15 *950:A *282:10 0
16 *157:11 *282:18 0
17 *170:13 *282:18 0
18 *193:9 *282:18 0
19 *197:13 *282:24 0.0021121
20 *201:21 *282:18 0
21 *205:25 *282:18 0.000368206
22 *268:42 *282:30 0.00192826
23 *281:14 *282:18 0.000287935
24 *281:26 *282:18 0
*RES
1 *948:X *282:10 42.1574 
2 *282:10 *282:18 36.2843 
3 *282:18 *282:24 49.7438 
4 *282:24 *282:30 49.0022 
5 *282:30 *1056:A 23.1312 
*END

*D_NET *283 0.0118663
*CONN
*I *1057:A I *D sg13g2_buf_1
*I *949:X O *D sg13g2_buf_1
*CAP
1 *1057:A 0.000344364
2 *949:X 0.00076213
3 *283:20 0.00248447
4 *283:16 0.00330629
5 *283:10 0.00192831
6 *1057:A *287:14 0
7 *1057:A *289:24 0.000530415
8 *283:16 *298:14 0.000272051
9 *283:20 *288:16 0
10 *904:A *283:10 0.000143764
11 *907:A *283:10 0
12 *922:A *283:16 0
13 *970:A *1057:A 0
14 *17:25 *283:20 0.000447731
15 *195:21 *283:16 0.000932797
16 *202:23 *283:20 0.00071395
17 *206:37 *283:20 0
18 *276:24 *283:20 0
19 *281:38 *283:20 0
*RES
1 *949:X *283:10 47.004 
2 *283:10 *283:16 32.1025 
3 *283:16 *283:20 38.3958 
4 *283:20 *1057:A 43.5638 
*END

*D_NET *284 0.00752988
*CONN
*I *1058:A I *D sg13g2_buf_1
*I *950:X O *D sg13g2_buf_1
*CAP
1 *1058:A 0
2 *950:X 0
3 *284:26 0.000358913
4 *284:18 0.00157872
5 *284:12 0.00221015
6 *284:6 0.000990346
7 *284:12 *290:14 0
8 *284:12 *300:18 0
9 *284:18 *290:14 0
10 *284:18 *300:18 2.89997e-05
11 *284:26 *1077:A 0
12 *284:26 *288:16 0
13 *284:26 *300:24 0.000659242
14 *284:26 *315:8 2.20966e-05
15 *970:A *284:26 0.00020837
16 *277:16 *284:26 0
17 *278:18 *284:26 0.000871465
18 *280:16 *284:12 0.000601578
19 *280:16 *284:18 0
*RES
1 *950:X *284:6 40 
2 *284:6 *284:12 49.9498 
3 *284:12 *284:18 30.8459 
4 *284:18 *284:26 45.459 
5 *284:26 *1058:A 20 
*END

*D_NET *285 0.0166526
*CONN
*I *1059:A I *D sg13g2_buf_1
*I *897:X O *D sg13g2_buf_1
*CAP
1 *1059:A 6.08239e-05
2 *897:X 5.37103e-05
3 *285:22 0.00151636
4 *285:18 0.00269351
5 *285:12 0.00123797
6 *285:8 5.37103e-05
7 *285:8 *296:8 0
8 *285:18 *296:18 0.0037163
9 *285:22 *296:22 0.00514696
10 *5:13 *285:18 0
11 *8:17 *285:18 0.00013089
12 *22:13 *285:18 0
13 *84:17 *285:8 0
14 *195:11 *285:22 0
15 *214:14 *285:22 0
16 *247:12 *285:22 0.00204237
17 *274:12 *285:22 0
*RES
1 *897:X *285:8 40.5356 
2 *285:8 *285:12 40 
3 *285:12 *285:18 39.982 
4 *285:18 *285:22 46.5534 
5 *285:22 *1059:A 40.6695 
*END

*D_NET *286 0.0133978
*CONN
*I *1060:A I *D sg13g2_buf_1
*I *951:X O *D sg13g2_buf_1
*CAP
1 *1060:A 0
2 *951:X 0.000151922
3 *286:22 0.00186906
4 *286:12 0.00202098
5 *286:22 *302:26 0
6 *286:22 *306:10 0.00175871
7 *286:22 *310:8 7.48209e-05
8 *286:22 *316:10 0
9 N2BEG[5] *286:22 1.54008e-05
10 N2BEG[7] *286:22 0.0001122
11 *940:A *286:12 0
12 *951:A *286:12 0
13 *952:A *286:12 0.000101855
14 *19:11 *286:22 0
15 *169:11 *286:22 0.000658895
16 *201:21 *286:22 0.000867463
17 *205:25 *286:22 0.000870658
18 *269:22 *286:22 0.00177648
19 *273:26 *286:22 0.00103161
20 *282:10 *286:12 0
21 *282:18 *286:22 0.00208771
*RES
1 *951:X *286:12 41.6377 
2 *286:12 *286:22 49.149 
3 *286:22 *1060:A 20 
*END

*D_NET *287 0.010624
*CONN
*I *1061:A I *D sg13g2_buf_1
*I *952:X O *D sg13g2_buf_1
*CAP
1 *1061:A 0
2 *952:X 0.000122841
3 *287:14 0.00159836
4 *287:8 0.00172121
5 *287:14 *291:16 0
6 *287:14 *301:20 0
7 N2BEGb[4] *287:14 0
8 *1057:A *287:14 0
9 *16:9 *287:14 0
10 *159:9 *287:14 0.000926546
11 *194:13 *287:14 0.00310974
12 *200:13 *287:14 0.000181298
13 *269:10 *287:14 0.000181608
14 *270:14 *287:14 0.00278239
15 *278:18 *287:14 0
16 *279:12 *287:14 0
*RES
1 *952:X *287:8 40.9682 
2 *287:8 *287:14 45.4513 
3 *287:14 *1061:A 20 
*END

*D_NET *288 0.010185
*CONN
*I *1062:A I *D sg13g2_buf_1
*I *953:X O *D sg13g2_buf_1
*CAP
1 *1062:A 0
2 *953:X 0.000292343
3 *288:16 0.00104913
4 *288:10 0.00134147
5 *288:16 *1072:A 0
6 *288:16 *291:16 0
7 *940:A *288:10 0
8 *941:A *288:10 0
9 *17:25 *288:10 0
10 *206:37 *288:16 0.00276431
11 *273:8 *288:10 7.99004e-05
12 *275:12 *288:10 0
13 *279:12 *288:16 0.00318856
14 *281:38 *288:16 0.00146925
15 *283:20 *288:16 0
16 *284:26 *288:16 0
*RES
1 *953:X *288:10 42.8634 
2 *288:10 *288:16 40.6309 
3 *288:16 *1062:A 20 
*END

*D_NET *289 0.0169616
*CONN
*I *1063:A I *D sg13g2_buf_1
*I *954:X O *D sg13g2_buf_1
*CAP
1 *1063:A 0
2 *954:X 0.000882066
3 *289:24 0.00107735
4 *289:18 0.00246015
5 *289:14 0.00380906
6 *289:8 0.00330833
7 *289:8 *298:8 0
8 N2BEG[7] *289:24 0
9 N2BEGb[1] *289:24 0
10 *970:A *289:24 0
11 *1055:A *289:24 0
12 *1057:A *289:24 0.000530415
13 *6:9 *289:14 0
14 *8:5 *289:18 0
15 *9:9 *289:18 0.00241771
16 *198:9 *289:14 0
17 *202:15 *289:8 0.000531162
18 *248:12 *289:8 0
19 *261:14 *289:18 0.00194535
20 *274:12 *289:14 0
*RES
1 *954:X *289:8 45.7667 
2 *289:8 *289:14 42.2995 
3 *289:14 *289:18 37.9014 
4 *289:18 *289:24 30.1867 
5 *289:24 *1063:A 20 
*END

*D_NET *290 0.00689627
*CONN
*I *1064:A I *D sg13g2_buf_1
*I *964:X O *D sg13g2_buf_1
*CAP
1 *1064:A 9.73239e-05
2 *964:X 0
3 *290:20 0.000416593
4 *290:14 0.00325126
5 *290:12 0.00303154
6 *290:6 9.95495e-05
7 *290:14 *300:18 0
8 *290:14 *304:18 0
9 *290:20 *301:20 0
10 N4BEG[1] *1064:A 0
11 *20:13 *290:14 0
12 *273:20 *290:14 0
13 *273:20 *290:20 0
14 *284:12 *290:14 0
15 *284:18 *290:14 0
*RES
1 *964:X *290:6 40 
2 *290:6 *290:12 40.9682 
3 *290:12 *290:14 31.003 
4 *290:14 *290:20 42.9149 
5 *290:20 *1064:A 40.8858 
*END

*D_NET *291 0.00735165
*CONN
*I *1065:A I *D sg13g2_buf_1
*I *965:X O *D sg13g2_buf_1
*CAP
1 *1065:A 0
2 *965:X 0.000305675
3 *291:16 0.00247339
4 *291:12 0.00277907
5 *291:16 *317:8 0.000768365
6 *187:11 *291:12 0.000235055
7 *194:13 *291:12 0.000714504
8 *194:13 *291:16 0
9 *206:27 *291:16 0
10 *227:10 *291:16 0
11 *228:8 *291:12 0
12 *228:8 *291:16 7.55952e-05
13 *279:12 *291:16 0
14 *287:14 *291:16 0
15 *288:16 *291:16 0
*RES
1 *965:X *291:12 43.8987 
2 *291:12 *291:16 41.3622 
3 *291:16 *1065:A 20 
*END

*D_NET *292 0.017313
*CONN
*I *1066:A I *D sg13g2_buf_1
*I *966:X O *D sg13g2_buf_1
*CAP
1 *1066:A 0.000753529
2 *966:X 0.000785123
3 *292:24 0.00116066
4 *292:20 0.00156608
5 *292:8 0.00194408
6 *292:20 *303:18 0.000983812
7 *292:24 *298:14 0.00231824
8 *292:24 *303:18 0.00231865
9 N4BEG[8] *1066:A 0.000208035
10 *919:A *1066:A 0
11 *971:A *1066:A 0.000754587
12 *9:9 *292:20 0.000289003
13 *128:12 *1066:A 0
14 *187:11 *292:8 0
15 *195:21 *1066:A 0
16 *260:10 *292:8 0.000854103
17 *261:14 *292:20 0.00337715
*RES
1 *966:X *292:8 47.6735 
2 *292:8 *292:20 37.4173 
3 *292:20 *292:24 30.7326 
4 *292:24 *1066:A 47.6941 
*END

*D_NET *293 0.0136897
*CONN
*I *1067:A I *D sg13g2_buf_1
*I *967:X O *D sg13g2_buf_1
*CAP
1 *1067:A 0
2 *967:X 0.000549437
3 *293:32 0.000132465
4 *293:26 0.00185172
5 *293:12 0.00226869
6 *293:12 *299:22 0.00076344
7 *293:12 *302:8 0
8 *293:26 *295:18 0.000974908
9 *293:32 *316:10 0.000544497
10 *21:5 *293:32 0.000542686
11 *129:10 *293:26 0.000496645
12 *130:12 *293:26 0.000391262
13 *131:10 *293:26 0
14 *138:18 *293:26 7.33256e-05
15 *143:10 *293:26 0.000286586
16 *153:10 *293:26 0.000820555
17 *154:10 *293:26 0
18 *155:10 *293:26 0.000606382
19 *156:10 *293:26 0
20 *158:11 *293:26 0.000866648
21 *166:13 *293:26 0
22 *175:13 *293:26 0.000180603
23 *177:13 *293:12 0.000604472
24 *185:13 *293:12 0
25 *189:11 *293:12 0.00017625
26 *196:23 *293:26 0
27 *205:17 *293:26 0
28 *269:22 *293:26 0
29 *281:26 *293:26 0.00155908
*RES
1 *967:X *293:12 46.5817 
2 *293:12 *293:26 43.6076 
3 *293:26 *293:32 42.575 
4 *293:32 *1067:A 20 
*END

*D_NET *294 0.0102687
*CONN
*I *1068:A I *D sg13g2_buf_1
*I *968:X O *D sg13g2_buf_1
*CAP
1 *1068:A 0
2 *968:X 0.000934956
3 *294:22 0.00100258
4 *294:12 0.00193754
5 *294:22 *1088:A 0.000144542
6 *294:22 *315:8 0.000875249
7 *138:18 *294:22 1.54008e-05
8 *160:11 *294:22 0
9 *200:13 *294:12 1.57122e-05
10 *200:13 *294:22 0.00156622
11 *219:8 *294:22 0.000182508
12 *266:8 *294:12 4.68848e-05
13 *266:14 *294:12 7.51285e-05
14 *277:16 *294:22 0.000552888
15 *278:18 *294:22 0.00188955
16 *280:12 *294:12 0
17 *280:12 *294:22 0.00102958
*RES
1 *968:X *294:12 47.3542 
2 *294:12 *294:22 37.8087 
3 *294:22 *1068:A 20 
*END

*D_NET *295 0.0124962
*CONN
*I *1069:A I *D sg13g2_buf_1
*I *969:X O *D sg13g2_buf_1
*CAP
1 *1069:A 0
2 *969:X 0.000190107
3 *295:18 0.00180876
4 *295:8 0.00199887
5 *295:18 *297:16 0.00261892
6 N4BEG[5] *295:18 8.00842e-05
7 N4BEG[8] *295:18 4.77425e-05
8 *21:5 *295:18 0.002455
9 *130:12 *295:18 0
10 *142:8 *295:18 0.000389842
11 *155:10 *295:18 0
12 *158:11 *295:18 0.000499492
13 *175:13 *295:18 0.000181601
14 *177:13 *295:18 0.00050063
15 *187:11 *295:8 0.000337594
16 *188:13 *295:8 0.000337594
17 *196:23 *295:18 0
18 *280:28 *295:18 7.50805e-05
19 *293:26 *295:18 0.000974908
*RES
1 *969:X *295:8 42.266 
2 *295:8 *295:18 46.2753 
3 *295:18 *1069:A 20 
*END

*D_NET *296 0.0149676
*CONN
*I *1070:A I *D sg13g2_buf_1
*I *898:X O *D sg13g2_buf_1
*CAP
1 *1070:A 0
2 *898:X 6.96082e-05
3 *296:22 0.00155416
4 *296:18 0.00291796
5 *296:12 0.00136381
6 *296:8 6.96082e-05
7 FrameData_O[15] *296:22 0
8 FrameData_O[17] *296:22 0.000129163
9 *22:13 *296:18 0
10 *24:13 *296:18 0
11 *214:14 *296:22 0
12 *274:12 *296:22 0
13 *285:8 *296:8 0
14 *285:18 *296:18 0.0037163
15 *285:22 *296:22 0.00514696
*RES
1 *898:X *296:8 40.7519 
2 *296:8 *296:12 40 
3 *296:12 *296:18 41.7124 
4 *296:18 *296:22 45.0702 
5 *296:22 *1070:A 40 
*END

*D_NET *297 0.0173063
*CONN
*I *1071:A I *D sg13g2_buf_1
*I *955:X O *D sg13g2_buf_1
*CAP
1 *1071:A 6.14625e-05
2 *955:X 8.15911e-05
3 *297:26 0.000483368
4 *297:20 0.00135991
5 *297:16 0.00208771
6 *297:10 0.0012313
7 *297:16 *302:8 0.000975865
8 *297:20 *301:12 0
9 *297:26 *306:10 0.00075342
10 N2BEGb[4] *1071:A 0.000112445
11 *970:A *1071:A 0.000112226
12 *19:11 *297:26 0.000232418
13 *21:5 *297:10 0
14 *21:5 *297:16 0.00417325
15 *132:10 *297:26 0
16 *135:8 *297:26 0
17 *138:10 *297:26 0
18 *207:11 *297:10 0.000162223
19 *207:11 *297:16 0
20 *273:20 *297:20 0.00286022
21 *295:18 *297:16 0.00261892
*RES
1 *955:X *297:10 41.0712 
2 *297:10 *297:16 41.0944 
3 *297:16 *297:20 33.2046 
4 *297:20 *297:26 44.5526 
5 *297:26 *1071:A 40.7519 
*END

*D_NET *298 0.0152095
*CONN
*I *1072:A I *D sg13g2_buf_1
*I *956:X O *D sg13g2_buf_1
*CAP
1 *1072:A 0.000492203
2 *956:X 0.000734967
3 *298:14 0.00296011
4 *298:8 0.00320287
5 *1072:A *1077:A 0.000723067
6 *298:8 *303:8 0
7 *298:14 *303:18 0.00212836
8 *9:9 *298:14 0
9 *11:9 *298:14 0
10 *195:11 *298:14 0.00226643
11 *195:21 *298:14 0
12 *200:13 *298:8 0.000111202
13 *202:15 *298:8 0
14 *247:12 *298:14 0
15 *283:16 *298:14 0.000272051
16 *288:16 *1072:A 0
17 *289:8 *298:8 0
18 *292:24 *298:14 0.00231824
*RES
1 *956:X *298:8 46.8083 
2 *298:8 *298:14 34.3608 
3 *298:14 *1072:A 44.8616 
*END

*D_NET *299 0.0162567
*CONN
*I *1073:A I *D sg13g2_buf_1
*I *957:X O *D sg13g2_buf_1
*CAP
1 *1073:A 0.000209594
2 *957:X 0.000382147
3 *299:22 0.00330468
4 *299:12 0.00347723
5 *299:12 *302:8 0
6 *299:22 *302:8 0
7 *299:22 *305:16 2.20966e-05
8 *299:22 *305:28 0.00266855
9 N2BEGb[1] *1073:A 0.000370727
10 N2BEGb[2] *1073:A 0.000273531
11 N2BEGb[3] *1073:A 1.54282e-05
12 *126:10 *299:22 0.00102755
13 *152:10 *299:22 0.000924469
14 *166:13 *299:22 0
15 *168:13 *299:22 0
16 *178:13 *299:12 0.000816638
17 *192:13 *299:22 0
18 *201:21 *299:12 7.9225e-05
19 *202:15 *299:12 7.9225e-05
20 *204:25 *299:22 0.0012411
21 *207:11 *299:12 0.000601074
22 *281:26 *299:22 0
23 *293:12 *299:22 0.00076344
*RES
1 *957:X *299:12 45.4075 
2 *299:12 *299:22 35.2157 
3 *299:22 *1073:A 42.4823 
*END

*D_NET *300 0.014426
*CONN
*I *1074:A I *D sg13g2_buf_1
*I *958:X O *D sg13g2_buf_1
*CAP
1 *1074:A 7.1127e-05
2 *958:X 0
3 *300:24 0.000205852
4 *300:18 0.00212324
5 *300:12 0.00206701
6 *300:6 7.84928e-05
7 N2BEGb[7] *1074:A 0.000112426
8 *970:A *1074:A 0
9 *207:17 *300:18 0.00565711
10 *208:15 *300:12 1.4965e-05
11 *208:23 *300:18 0
12 *273:20 *300:18 0
13 *277:16 *300:24 0.000656573
14 *280:16 *300:18 0.00275095
15 *284:12 *300:18 0
16 *284:18 *300:18 2.89997e-05
17 *284:26 *300:24 0.000659242
18 *290:14 *300:18 0
*RES
1 *958:X *300:6 40 
2 *300:6 *300:12 40.5356 
3 *300:12 *300:18 31.3944 
4 *300:18 *300:24 43.0694 
5 *300:24 *1074:A 40.7519 
*END

*D_NET *301 0.00671656
*CONN
*I *1075:A I *D sg13g2_buf_1
*I *959:X O *D sg13g2_buf_1
*CAP
1 *1075:A 0
2 *959:X 0
3 *301:20 0.000449122
4 *301:12 0.00334728
5 *301:10 0.00289816
6 *301:6 0
7 *16:9 *301:20 2.19989e-05
8 *19:15 *301:20 0
9 *196:15 *301:12 0
10 *197:19 *301:20 0
11 *208:23 *301:12 0
12 *271:20 *301:12 0
13 *273:20 *301:12 0
14 *279:12 *301:20 0
15 *280:28 *301:20 0
16 *287:14 *301:20 0
17 *290:20 *301:20 0
18 *297:20 *301:12 0
*RES
1 *959:X *301:6 40 
2 *301:6 *301:10 40 
3 *301:10 *301:12 32.239 
4 *301:12 *301:20 44.1612 
5 *301:20 *1075:A 40 
*END

*D_NET *302 0.0123967
*CONN
*I *1076:A I *D sg13g2_buf_1
*I *960:X O *D sg13g2_buf_1
*CAP
1 *1076:A 0
2 *960:X 0.000349833
3 *302:26 0.000306062
4 *302:20 0.00228995
5 *302:14 0.00210866
6 *302:8 0.000474596
7 *302:26 *316:10 2.20966e-05
8 *21:5 *302:26 0.000762737
9 *177:13 *302:8 2.14736e-05
10 *196:15 *302:20 0.00490592
11 *197:13 *302:20 0
12 *197:19 *302:20 0
13 *207:11 *302:8 0.000179494
14 *271:20 *302:20 0
15 *273:26 *302:26 0
16 *282:24 *302:20 0
17 *286:22 *302:26 0
18 *293:12 *302:8 0
19 *297:16 *302:8 0.000975865
20 *299:12 *302:8 0
21 *299:22 *302:8 0
*RES
1 *960:X *302:8 44.5526 
2 *302:8 *302:14 41.1845 
3 *302:14 *302:20 49.1284 
4 *302:20 *302:26 43.5638 
5 *302:26 *1076:A 20 
*END

*D_NET *303 0.0171254
*CONN
*I *1077:A I *D sg13g2_buf_1
*I *961:X O *D sg13g2_buf_1
*CAP
1 *1077:A 0.000817673
2 *961:X 0.00101552
3 *303:18 0.00316855
4 *303:8 0.0033664
5 N4BEG[1] *1077:A 0
6 N4BEG[2] *1077:A 0
7 *1072:A *1077:A 0.000723067
8 *9:9 *303:18 0.0022402
9 *138:10 *1077:A 1.54282e-05
10 *181:13 *303:8 0.000272555
11 *200:13 *303:8 0
12 *229:10 *303:8 0
13 *247:12 *303:18 7.52158e-05
14 *260:10 *303:8 0
15 *261:14 *303:18 0
16 *284:26 *1077:A 0
17 *292:20 *303:18 0.000983812
18 *292:24 *303:18 0.00231865
19 *298:8 *303:8 0
20 *298:14 *303:18 0.00212836
*RES
1 *961:X *303:8 49.4039 
2 *303:8 *303:18 32.5583 
3 *303:18 *1077:A 47.8074 
*END

*D_NET *304 0.00877997
*CONN
*I *1078:A I *D sg13g2_buf_1
*I *962:X O *D sg13g2_buf_1
*CAP
1 *1078:A 0
2 *962:X 0.000569743
3 *304:22 0
4 *304:18 0.00177933
5 *304:14 0.00222877
6 *304:8 0.00101919
7 *20:13 *304:18 0
8 *193:9 *304:8 0.00199041
9 *265:14 *304:8 0
10 *265:22 *304:8 0.00119254
11 *273:14 *304:14 0
12 *290:14 *304:18 0
*RES
1 *962:X *304:8 49.2494 
2 *304:8 *304:14 43.5638 
3 *304:14 *304:18 39.6318 
4 *304:18 *304:22 40 
5 *304:22 *1078:A 20 
*END

*D_NET *305 0.0137268
*CONN
*I *1079:A I *D sg13g2_buf_1
*I *963:X O *D sg13g2_buf_1
*CAP
1 *1079:A 0
2 *963:X 0.000646999
3 *305:28 0.00240706
4 *305:16 0.00305406
5 N4BEG[2] *305:28 0
6 N4BEG[3] *305:28 0.000240745
7 N4BEG[4] *305:28 0.00030487
8 *140:16 *305:28 4.77425e-05
9 *150:10 *305:28 0.000924141
10 *172:13 *305:28 0.000605949
11 *178:13 *305:16 0
12 *179:11 *305:16 0
13 *185:13 *305:16 0.000499885
14 *190:13 *305:16 0
15 *191:13 *305:16 7.51285e-05
16 *192:13 *305:16 4.76977e-05
17 *203:9 *305:28 0
18 *205:9 *305:16 0
19 *205:9 *305:28 0.00118569
20 *268:32 *305:28 0.000287256
21 *268:42 *305:28 0.000708941
22 *299:22 *305:16 2.20966e-05
23 *299:22 *305:28 0.00266855
*RES
1 *963:X *305:16 46.9113 
2 *305:16 *305:28 49.0666 
3 *305:28 *1079:A 20 
*END

*D_NET *306 0.00533048
*CONN
*I *1080:A I *D sg13g2_buf_1
*I *970:X O *D sg13g2_buf_1
*CAP
1 *1080:A 0.000393448
2 *970:X 0.000497689
3 *306:10 0.000891137
4 N2BEGb[6] *306:10 7.92265e-05
5 N2BEGb[7] *306:10 7.92265e-05
6 NN4BEG[0] *1080:A 0
7 *991:A *1080:A 0
8 *128:12 *306:10 0.00060514
9 *138:10 *306:10 0
10 *206:37 *1080:A 0.000272482
11 *286:22 *306:10 0.00175871
12 *297:26 *306:10 0.00075342
*RES
1 *970:X *306:10 48.7962 
2 *306:10 *1080:A 43.4814 
*END

*D_NET *307 0.0153249
*CONN
*I *1081:A I *D sg13g2_buf_1
*I *899:X O *D sg13g2_buf_1
*CAP
1 *1081:A 5.02134e-05
2 *899:X 0.00020055
3 *307:10 0.0027293
4 *307:8 0.00287964
5 *902:A *307:8 0
6 *997:A *1081:A 8.00842e-05
7 *84:17 *307:8 0
8 *84:17 *307:10 0
9 *199:9 *307:10 0
10 *221:8 *307:8 8.00842e-05
11 *221:10 *307:10 0.00930499
12 *249:12 *307:10 0
*RES
1 *899:X *307:8 41.8334 
2 *307:8 *307:10 43.1158 
3 *307:10 *1081:A 40.5356 
*END

*D_NET *308 0.000894624
*CONN
*I *1082:A I *D sg13g2_buf_1
*I *980:X O *D sg13g2_buf_1
*CAP
1 *1082:A 0.0001255
2 *980:X 0.000129949
3 *308:8 0.000255448
4 *1082:A *1083:A 0.000208035
5 *937:A *1082:A 0.000175693
*RES
1 *980:X *308:8 41.0918 
2 *308:8 *1082:A 41.4008 
*END

*D_NET *309 0.000933602
*CONN
*I *1083:A I *D sg13g2_buf_1
*I *981:X O *D sg13g2_buf_1
*CAP
1 *1083:A 0.000362784
2 *981:X 0.000362784
3 *937:A *1083:A 0
4 *1082:A *1083:A 0.000208035
5 *202:23 *1083:A 0
6 *268:32 *1083:A 0
7 *269:16 *1083:A 0
*RES
1 *981:X *1083:A 43.6771 
*END

*D_NET *310 0.00115937
*CONN
*I *1084:A I *D sg13g2_buf_1
*I *982:X O *D sg13g2_buf_1
*CAP
1 *1084:A 0.000135494
2 *982:X 0.000102996
3 *310:8 0.00023849
4 *1084:A *1085:A 0.000240862
5 *936:A *1084:A 0.000240346
6 *201:21 *310:8 0.000126358
7 *205:25 *310:8 0
8 *277:16 *310:8 0
9 *286:22 *310:8 7.48209e-05
*RES
1 *982:X *310:8 41.0918 
2 *310:8 *1084:A 41.6171 
*END

*D_NET *311 0.00104984
*CONN
*I *1085:A I *D sg13g2_buf_1
*I *983:X O *D sg13g2_buf_1
*CAP
1 *1085:A 0.000348276
2 *983:X 0.000348276
3 *1085:A *1086:A 0
4 NN4BEG[12] *1085:A 0
5 *984:A *1085:A 0.000112426
6 *1084:A *1085:A 0.000240862
*RES
1 *983:X *1085:A 43.6771 
*END

*D_NET *312 0.000507689
*CONN
*I *1086:A I *D sg13g2_buf_1
*I *984:X O *D sg13g2_buf_1
*CAP
1 *1086:A 0.000253845
2 *984:X 0.000253845
3 NN4BEG[12] *1086:A 0
4 NN4BEG[13] *1086:A 0
5 *1085:A *1086:A 0
6 *170:13 *1086:A 0
*RES
1 *984:X *1086:A 42.5956 
*END

*D_NET *313 0.00130247
*CONN
*I *1087:A I *D sg13g2_buf_1
*I *985:X O *D sg13g2_buf_1
*CAP
1 *1087:A 0.00043565
2 *985:X 0.00043565
3 *985:A *1087:A 0
4 *172:13 *1087:A 0.000272718
5 *276:10 *1087:A 7.92265e-05
6 *276:20 *1087:A 7.9225e-05
*RES
1 *985:X *1087:A 44.0479 
*END

*D_NET *314 0.00109019
*CONN
*I *1088:A I *D sg13g2_buf_1
*I *971:X O *D sg13g2_buf_1
*CAP
1 *1088:A 0.000441501
2 *971:X 0.000441501
3 N4BEG[8] *1088:A 0
4 N4BEG[9] *1088:A 4.74703e-05
5 *128:12 *1088:A 1.51734e-05
6 *138:18 *1088:A 0
7 *294:22 *1088:A 0.000144542
*RES
1 *971:X *1088:A 44.1226 
*END

*D_NET *315 0.00316344
*CONN
*I *1089:A I *D sg13g2_buf_1
*I *972:X O *D sg13g2_buf_1
*CAP
1 *1089:A 0.000173842
2 *972:X 0.000292316
3 *315:8 0.000466158
4 NN4BEG[0] *1089:A 0.000143351
5 *277:16 *315:8 0.00119043
6 *278:18 *315:8 0
7 *284:26 *315:8 2.20966e-05
8 *294:22 *315:8 0.000875249
*RES
1 *972:X *315:8 45.5414 
2 *315:8 *1089:A 41.6171 
*END

*D_NET *316 0.00152905
*CONN
*I *1090:A I *D sg13g2_buf_1
*I *973:X O *D sg13g2_buf_1
*CAP
1 *1090:A 0
2 *973:X 0.000365015
3 *316:10 0.000365015
4 *269:22 *316:10 0.000232421
5 *286:22 *316:10 0
6 *293:32 *316:10 0.000544497
7 *302:26 *316:10 2.20966e-05
*RES
1 *973:X *316:10 43.8831 
2 *316:10 *1090:A 40 
*END

*D_NET *317 0.00188317
*CONN
*I *1091:A I *D sg13g2_buf_1
*I *974:X O *D sg13g2_buf_1
*CAP
1 *1091:A 3.42653e-05
2 *974:X 0.000138705
3 *317:8 0.00017297
4 *279:12 *317:8 0.000768867
5 *291:16 *317:8 0.000768365
*RES
1 *974:X *317:8 43.5638 
2 *317:8 *1091:A 40.3193 
*END
