*SPEF "ieee 1481-1999"
*DESIGN "W_IO"
*DATE "20:29:11 Monday August 25, 2025"
*VENDOR "The OpenROAD Project"
*PROGRAM "OpenROAD"
*VERSION "341650e72dad0dc8571822ff8c5d9c5e365327f7"
*DESIGN_FLOW "NAME_SCOPE LOCAL" "PIN_CAP NONE"
*DIVIDER /
*DELIMITER :
*BUS_DELIMITER []
*T_UNIT 1 NS
*C_UNIT 1 PF
*R_UNIT 1 OHM
*L_UNIT 1 HENRY

*NAME_MAP
*1 A_I_top
*2 A_O_top
*3 A_T_top
*4 B_I_top
*5 B_O_top
*6 B_T_top
*7 E1BEG[0]
*8 E1BEG[1]
*9 E1BEG[2]
*10 E1BEG[3]
*11 E2BEG[0]
*12 E2BEG[1]
*13 E2BEG[2]
*14 E2BEG[3]
*15 E2BEG[4]
*16 E2BEG[5]
*17 E2BEG[6]
*18 E2BEG[7]
*19 E2BEGb[0]
*20 E2BEGb[1]
*21 E2BEGb[2]
*22 E2BEGb[3]
*23 E2BEGb[4]
*24 E2BEGb[5]
*25 E2BEGb[6]
*26 E2BEGb[7]
*27 E6BEG[0]
*28 E6BEG[10]
*29 E6BEG[11]
*30 E6BEG[1]
*31 E6BEG[2]
*32 E6BEG[3]
*33 E6BEG[4]
*34 E6BEG[5]
*35 E6BEG[6]
*36 E6BEG[7]
*37 E6BEG[8]
*38 E6BEG[9]
*39 EE4BEG[0]
*40 EE4BEG[10]
*41 EE4BEG[11]
*42 EE4BEG[12]
*43 EE4BEG[13]
*44 EE4BEG[14]
*45 EE4BEG[15]
*46 EE4BEG[1]
*47 EE4BEG[2]
*48 EE4BEG[3]
*49 EE4BEG[4]
*50 EE4BEG[5]
*51 EE4BEG[6]
*52 EE4BEG[7]
*53 EE4BEG[8]
*54 EE4BEG[9]
*55 FrameData[0]
*56 FrameData[10]
*57 FrameData[11]
*58 FrameData[12]
*59 FrameData[13]
*60 FrameData[14]
*61 FrameData[15]
*62 FrameData[16]
*63 FrameData[17]
*64 FrameData[18]
*65 FrameData[19]
*66 FrameData[1]
*67 FrameData[20]
*68 FrameData[21]
*69 FrameData[22]
*70 FrameData[23]
*71 FrameData[24]
*72 FrameData[25]
*73 FrameData[26]
*74 FrameData[27]
*75 FrameData[28]
*76 FrameData[29]
*77 FrameData[2]
*78 FrameData[30]
*79 FrameData[31]
*80 FrameData[3]
*81 FrameData[4]
*82 FrameData[5]
*83 FrameData[6]
*84 FrameData[7]
*85 FrameData[8]
*86 FrameData[9]
*87 FrameData_O[0]
*88 FrameData_O[10]
*89 FrameData_O[11]
*90 FrameData_O[12]
*91 FrameData_O[13]
*92 FrameData_O[14]
*93 FrameData_O[15]
*94 FrameData_O[16]
*95 FrameData_O[17]
*96 FrameData_O[18]
*97 FrameData_O[19]
*98 FrameData_O[1]
*99 FrameData_O[20]
*100 FrameData_O[21]
*101 FrameData_O[22]
*102 FrameData_O[23]
*103 FrameData_O[24]
*104 FrameData_O[25]
*105 FrameData_O[26]
*106 FrameData_O[27]
*107 FrameData_O[28]
*108 FrameData_O[29]
*109 FrameData_O[2]
*110 FrameData_O[30]
*111 FrameData_O[31]
*112 FrameData_O[3]
*113 FrameData_O[4]
*114 FrameData_O[5]
*115 FrameData_O[6]
*116 FrameData_O[7]
*117 FrameData_O[8]
*118 FrameData_O[9]
*119 FrameStrobe[0]
*120 FrameStrobe[10]
*121 FrameStrobe[11]
*122 FrameStrobe[12]
*123 FrameStrobe[13]
*124 FrameStrobe[14]
*125 FrameStrobe[15]
*126 FrameStrobe[16]
*127 FrameStrobe[17]
*128 FrameStrobe[18]
*129 FrameStrobe[19]
*130 FrameStrobe[1]
*131 FrameStrobe[2]
*132 FrameStrobe[3]
*133 FrameStrobe[4]
*134 FrameStrobe[5]
*135 FrameStrobe[6]
*136 FrameStrobe[7]
*137 FrameStrobe[8]
*138 FrameStrobe[9]
*139 FrameStrobe_O[0]
*140 FrameStrobe_O[10]
*141 FrameStrobe_O[11]
*142 FrameStrobe_O[12]
*143 FrameStrobe_O[13]
*144 FrameStrobe_O[14]
*145 FrameStrobe_O[15]
*146 FrameStrobe_O[16]
*147 FrameStrobe_O[17]
*148 FrameStrobe_O[18]
*149 FrameStrobe_O[19]
*150 FrameStrobe_O[1]
*151 FrameStrobe_O[2]
*152 FrameStrobe_O[3]
*153 FrameStrobe_O[4]
*154 FrameStrobe_O[5]
*155 FrameStrobe_O[6]
*156 FrameStrobe_O[7]
*157 FrameStrobe_O[8]
*158 FrameStrobe_O[9]
*159 UserCLK
*160 UserCLKo
*163 W1END[0]
*164 W1END[1]
*165 W1END[2]
*166 W1END[3]
*167 W2END[0]
*168 W2END[1]
*169 W2END[2]
*170 W2END[3]
*171 W2END[4]
*172 W2END[5]
*173 W2END[6]
*174 W2END[7]
*175 W2MID[0]
*176 W2MID[1]
*177 W2MID[2]
*178 W2MID[3]
*179 W2MID[4]
*180 W2MID[5]
*181 W2MID[6]
*182 W2MID[7]
*183 W6END[0]
*184 W6END[10]
*185 W6END[11]
*186 W6END[1]
*187 W6END[2]
*188 W6END[3]
*189 W6END[4]
*190 W6END[5]
*191 W6END[6]
*192 W6END[7]
*193 W6END[8]
*194 W6END[9]
*195 WW4END[0]
*196 WW4END[10]
*197 WW4END[11]
*198 WW4END[12]
*199 WW4END[13]
*200 WW4END[14]
*201 WW4END[15]
*202 WW4END[1]
*203 WW4END[2]
*204 WW4END[3]
*205 WW4END[4]
*206 WW4END[5]
*207 WW4END[6]
*208 WW4END[7]
*209 WW4END[8]
*210 WW4END[9]
*211 Inst_A_IO_1_bidirectional_frame_config_pass\.Q
*212 Inst_B_IO_1_bidirectional_frame_config_pass\.Q
*213 Inst_W_IO_ConfigMem\.Inst_frame0_bit0\.Q
*214 Inst_W_IO_ConfigMem\.Inst_frame0_bit1\.Q
*215 Inst_W_IO_ConfigMem\.Inst_frame0_bit10\.Q
*216 Inst_W_IO_ConfigMem\.Inst_frame0_bit11\.Q
*217 Inst_W_IO_ConfigMem\.Inst_frame0_bit12\.Q
*218 Inst_W_IO_ConfigMem\.Inst_frame0_bit13\.Q
*219 Inst_W_IO_ConfigMem\.Inst_frame0_bit14\.Q
*220 Inst_W_IO_ConfigMem\.Inst_frame0_bit15\.Q
*221 Inst_W_IO_ConfigMem\.Inst_frame0_bit16\.Q
*222 Inst_W_IO_ConfigMem\.Inst_frame0_bit17\.Q
*223 Inst_W_IO_ConfigMem\.Inst_frame0_bit18\.Q
*224 Inst_W_IO_ConfigMem\.Inst_frame0_bit19\.Q
*225 Inst_W_IO_ConfigMem\.Inst_frame0_bit2\.Q
*226 Inst_W_IO_ConfigMem\.Inst_frame0_bit20\.Q
*227 Inst_W_IO_ConfigMem\.Inst_frame0_bit21\.Q
*228 Inst_W_IO_ConfigMem\.Inst_frame0_bit22\.Q
*229 Inst_W_IO_ConfigMem\.Inst_frame0_bit23\.Q
*230 Inst_W_IO_ConfigMem\.Inst_frame0_bit24\.Q
*231 Inst_W_IO_ConfigMem\.Inst_frame0_bit25\.Q
*232 Inst_W_IO_ConfigMem\.Inst_frame0_bit26\.Q
*233 Inst_W_IO_ConfigMem\.Inst_frame0_bit27\.Q
*234 Inst_W_IO_ConfigMem\.Inst_frame0_bit28\.Q
*235 Inst_W_IO_ConfigMem\.Inst_frame0_bit29\.Q
*236 Inst_W_IO_ConfigMem\.Inst_frame0_bit3\.Q
*237 Inst_W_IO_ConfigMem\.Inst_frame0_bit30\.Q
*238 Inst_W_IO_ConfigMem\.Inst_frame0_bit31\.Q
*239 Inst_W_IO_ConfigMem\.Inst_frame0_bit4\.Q
*240 Inst_W_IO_ConfigMem\.Inst_frame0_bit5\.Q
*241 Inst_W_IO_ConfigMem\.Inst_frame0_bit6\.Q
*242 Inst_W_IO_ConfigMem\.Inst_frame0_bit7\.Q
*243 Inst_W_IO_ConfigMem\.Inst_frame0_bit8\.Q
*244 Inst_W_IO_ConfigMem\.Inst_frame0_bit9\.Q
*245 Inst_W_IO_ConfigMem\.Inst_frame1_bit0\.Q
*246 Inst_W_IO_ConfigMem\.Inst_frame1_bit1\.Q
*247 Inst_W_IO_ConfigMem\.Inst_frame1_bit10\.Q
*248 Inst_W_IO_ConfigMem\.Inst_frame1_bit11\.Q
*249 Inst_W_IO_ConfigMem\.Inst_frame1_bit12\.Q
*250 Inst_W_IO_ConfigMem\.Inst_frame1_bit13\.Q
*251 Inst_W_IO_ConfigMem\.Inst_frame1_bit14\.Q
*252 Inst_W_IO_ConfigMem\.Inst_frame1_bit15\.Q
*253 Inst_W_IO_ConfigMem\.Inst_frame1_bit16\.Q
*254 Inst_W_IO_ConfigMem\.Inst_frame1_bit17\.Q
*255 Inst_W_IO_ConfigMem\.Inst_frame1_bit18\.Q
*256 Inst_W_IO_ConfigMem\.Inst_frame1_bit19\.Q
*257 Inst_W_IO_ConfigMem\.Inst_frame1_bit2\.Q
*258 Inst_W_IO_ConfigMem\.Inst_frame1_bit20\.Q
*259 Inst_W_IO_ConfigMem\.Inst_frame1_bit21\.Q
*260 Inst_W_IO_ConfigMem\.Inst_frame1_bit22\.Q
*261 Inst_W_IO_ConfigMem\.Inst_frame1_bit23\.Q
*262 Inst_W_IO_ConfigMem\.Inst_frame1_bit24\.Q
*263 Inst_W_IO_ConfigMem\.Inst_frame1_bit25\.Q
*264 Inst_W_IO_ConfigMem\.Inst_frame1_bit26\.Q
*265 Inst_W_IO_ConfigMem\.Inst_frame1_bit27\.Q
*266 Inst_W_IO_ConfigMem\.Inst_frame1_bit28\.Q
*267 Inst_W_IO_ConfigMem\.Inst_frame1_bit29\.Q
*268 Inst_W_IO_ConfigMem\.Inst_frame1_bit3\.Q
*269 Inst_W_IO_ConfigMem\.Inst_frame1_bit30\.Q
*270 Inst_W_IO_ConfigMem\.Inst_frame1_bit31\.Q
*271 Inst_W_IO_ConfigMem\.Inst_frame1_bit4\.Q
*272 Inst_W_IO_ConfigMem\.Inst_frame1_bit5\.Q
*273 Inst_W_IO_ConfigMem\.Inst_frame1_bit6\.Q
*274 Inst_W_IO_ConfigMem\.Inst_frame1_bit7\.Q
*275 Inst_W_IO_ConfigMem\.Inst_frame1_bit8\.Q
*276 Inst_W_IO_ConfigMem\.Inst_frame1_bit9\.Q
*277 Inst_W_IO_ConfigMem\.Inst_frame2_bit0\.Q
*278 Inst_W_IO_ConfigMem\.Inst_frame2_bit1\.Q
*279 Inst_W_IO_ConfigMem\.Inst_frame2_bit10\.Q
*280 Inst_W_IO_ConfigMem\.Inst_frame2_bit11\.Q
*281 Inst_W_IO_ConfigMem\.Inst_frame2_bit12\.Q
*282 Inst_W_IO_ConfigMem\.Inst_frame2_bit13\.Q
*283 Inst_W_IO_ConfigMem\.Inst_frame2_bit14\.Q
*284 Inst_W_IO_ConfigMem\.Inst_frame2_bit15\.Q
*285 Inst_W_IO_ConfigMem\.Inst_frame2_bit16\.Q
*286 Inst_W_IO_ConfigMem\.Inst_frame2_bit17\.Q
*287 Inst_W_IO_ConfigMem\.Inst_frame2_bit18\.Q
*288 Inst_W_IO_ConfigMem\.Inst_frame2_bit19\.Q
*289 Inst_W_IO_ConfigMem\.Inst_frame2_bit2\.Q
*290 Inst_W_IO_ConfigMem\.Inst_frame2_bit20\.Q
*291 Inst_W_IO_ConfigMem\.Inst_frame2_bit21\.Q
*292 Inst_W_IO_ConfigMem\.Inst_frame2_bit22\.Q
*293 Inst_W_IO_ConfigMem\.Inst_frame2_bit23\.Q
*294 Inst_W_IO_ConfigMem\.Inst_frame2_bit24\.Q
*295 Inst_W_IO_ConfigMem\.Inst_frame2_bit25\.Q
*296 Inst_W_IO_ConfigMem\.Inst_frame2_bit26\.Q
*297 Inst_W_IO_ConfigMem\.Inst_frame2_bit27\.Q
*298 Inst_W_IO_ConfigMem\.Inst_frame2_bit28\.Q
*299 Inst_W_IO_ConfigMem\.Inst_frame2_bit29\.Q
*300 Inst_W_IO_ConfigMem\.Inst_frame2_bit3\.Q
*301 Inst_W_IO_ConfigMem\.Inst_frame2_bit30\.Q
*302 Inst_W_IO_ConfigMem\.Inst_frame2_bit31\.Q
*303 Inst_W_IO_ConfigMem\.Inst_frame2_bit4\.Q
*304 Inst_W_IO_ConfigMem\.Inst_frame2_bit5\.Q
*305 Inst_W_IO_ConfigMem\.Inst_frame2_bit6\.Q
*306 Inst_W_IO_ConfigMem\.Inst_frame2_bit7\.Q
*307 Inst_W_IO_ConfigMem\.Inst_frame2_bit8\.Q
*308 Inst_W_IO_ConfigMem\.Inst_frame2_bit9\.Q
*309 Inst_W_IO_ConfigMem\.Inst_frame3_bit22\.Q
*310 Inst_W_IO_ConfigMem\.Inst_frame3_bit23\.Q
*311 Inst_W_IO_ConfigMem\.Inst_frame3_bit24\.Q
*312 Inst_W_IO_ConfigMem\.Inst_frame3_bit25\.Q
*313 Inst_W_IO_ConfigMem\.Inst_frame3_bit26\.Q
*314 Inst_W_IO_ConfigMem\.Inst_frame3_bit27\.Q
*315 Inst_W_IO_ConfigMem\.Inst_frame3_bit28\.Q
*316 Inst_W_IO_ConfigMem\.Inst_frame3_bit29\.Q
*317 Inst_W_IO_ConfigMem\.Inst_frame3_bit30\.Q
*318 Inst_W_IO_ConfigMem\.Inst_frame3_bit31\.Q
*319 Inst_W_IO_switch_matrix\.E1BEG0
*320 Inst_W_IO_switch_matrix\.E1BEG1
*321 Inst_W_IO_switch_matrix\.E1BEG2
*322 Inst_W_IO_switch_matrix\.E1BEG3
*323 Inst_W_IO_switch_matrix\.E2BEG0
*324 Inst_W_IO_switch_matrix\.E2BEG1
*325 Inst_W_IO_switch_matrix\.E2BEG2
*326 Inst_W_IO_switch_matrix\.E2BEG3
*327 Inst_W_IO_switch_matrix\.E2BEG4
*328 Inst_W_IO_switch_matrix\.E2BEG5
*329 Inst_W_IO_switch_matrix\.E2BEG6
*330 Inst_W_IO_switch_matrix\.E2BEG7
*331 Inst_W_IO_switch_matrix\.E2BEGb0
*332 Inst_W_IO_switch_matrix\.E2BEGb1
*333 Inst_W_IO_switch_matrix\.E2BEGb2
*334 Inst_W_IO_switch_matrix\.E2BEGb3
*335 Inst_W_IO_switch_matrix\.E2BEGb4
*336 Inst_W_IO_switch_matrix\.E2BEGb5
*337 Inst_W_IO_switch_matrix\.E2BEGb6
*338 Inst_W_IO_switch_matrix\.E2BEGb7
*339 Inst_W_IO_switch_matrix\.E6BEG0
*340 Inst_W_IO_switch_matrix\.E6BEG1
*341 Inst_W_IO_switch_matrix\.E6BEG10
*342 Inst_W_IO_switch_matrix\.E6BEG11
*343 Inst_W_IO_switch_matrix\.E6BEG2
*344 Inst_W_IO_switch_matrix\.E6BEG3
*345 Inst_W_IO_switch_matrix\.E6BEG4
*346 Inst_W_IO_switch_matrix\.E6BEG5
*347 Inst_W_IO_switch_matrix\.E6BEG6
*348 Inst_W_IO_switch_matrix\.E6BEG7
*349 Inst_W_IO_switch_matrix\.E6BEG8
*350 Inst_W_IO_switch_matrix\.E6BEG9
*351 Inst_W_IO_switch_matrix\.EE4BEG0
*352 Inst_W_IO_switch_matrix\.EE4BEG1
*353 Inst_W_IO_switch_matrix\.EE4BEG10
*354 Inst_W_IO_switch_matrix\.EE4BEG11
*355 Inst_W_IO_switch_matrix\.EE4BEG12
*356 Inst_W_IO_switch_matrix\.EE4BEG13
*357 Inst_W_IO_switch_matrix\.EE4BEG14
*358 Inst_W_IO_switch_matrix\.EE4BEG15
*359 Inst_W_IO_switch_matrix\.EE4BEG2
*360 Inst_W_IO_switch_matrix\.EE4BEG3
*361 Inst_W_IO_switch_matrix\.EE4BEG4
*362 Inst_W_IO_switch_matrix\.EE4BEG5
*363 Inst_W_IO_switch_matrix\.EE4BEG6
*364 Inst_W_IO_switch_matrix\.EE4BEG7
*365 Inst_W_IO_switch_matrix\.EE4BEG8
*366 Inst_W_IO_switch_matrix\.EE4BEG9
*367 UserCLK_regs
*368 _000_
*369 _001_
*370 _002_
*371 _003_
*372 _004_
*373 _005_
*374 _006_
*375 _007_
*376 _008_
*377 _009_
*378 _010_
*379 _011_
*380 _012_
*381 _013_
*382 _014_
*383 _015_
*384 _016_
*385 _017_
*386 _018_
*387 _019_
*388 _020_
*389 _021_
*390 _022_
*391 _023_
*392 _024_
*393 _025_
*394 _026_
*395 _027_
*396 _028_
*397 _029_
*398 _030_
*399 _031_
*400 _032_
*401 _033_
*402 _034_
*403 _035_
*404 _036_
*405 _037_
*406 _038_
*407 _039_
*408 _040_
*409 _041_
*410 _042_
*411 _043_
*412 _044_
*413 _045_
*414 _046_
*415 _047_
*416 _048_
*417 clknet_0_UserCLK
*418 clknet_0_UserCLK_regs
*419 clknet_1_0__leaf_UserCLK
*420 clknet_1_0__leaf_UserCLK_regs
*421 clknet_1_1__leaf_UserCLK_regs
*422 net1
*423 net10
*424 net100
*425 net101
*426 net102
*427 net103
*428 net104
*429 net105
*430 net106
*431 net107
*432 net108
*433 net109
*434 net11
*435 net110
*436 net111
*437 net112
*438 net113
*439 net114
*440 net115
*441 net116
*442 net117
*443 net118
*444 net119
*445 net12
*446 net120
*447 net121
*448 net122
*449 net123
*450 net124
*451 net125
*452 net126
*453 net127
*454 net128
*455 net129
*456 net13
*457 net130
*458 net131
*459 net132
*460 net133
*461 net134
*462 net135
*463 net136
*464 net137
*465 net138
*466 net139
*467 net14
*468 net140
*469 net141
*470 net142
*471 net143
*472 net144
*473 net145
*474 net146
*475 net147
*476 net148
*477 net149
*478 net15
*479 net150
*480 net151
*481 net152
*482 net153
*483 net154
*484 net155
*485 net156
*486 net157
*487 net158
*488 net159
*489 net16
*490 net160
*491 net161
*492 net162
*493 net163
*494 net164
*495 net165
*496 net166
*497 net167
*498 net168
*499 net169
*500 net17
*501 net170
*502 net171
*503 net172
*504 net173
*505 net174
*506 net175
*507 net176
*508 net177
*509 net178
*510 net179
*511 net18
*512 net180
*513 net181
*514 net182
*515 net183
*516 net184
*517 net185
*518 net186
*519 net187
*520 net188
*521 net189
*522 net19
*523 net190
*524 net191
*525 net192
*526 net193
*527 net194
*528 net195
*529 net196
*530 net197
*531 net198
*532 net199
*533 net2
*534 net20
*535 net200
*536 net201
*537 net202
*538 net203
*539 net204
*540 net205
*541 net206
*542 net207
*543 net208
*544 net21
*545 net22
*546 net23
*547 net24
*548 net25
*549 net26
*550 net27
*551 net28
*552 net29
*553 net3
*554 net30
*555 net31
*556 net32
*557 net33
*558 net34
*559 net35
*560 net36
*561 net37
*562 net38
*563 net39
*564 net4
*565 net40
*566 net41
*567 net42
*568 net43
*569 net44
*570 net45
*571 net46
*572 net47
*573 net48
*574 net49
*575 net5
*576 net50
*577 net51
*578 net52
*579 net53
*580 net54
*581 net55
*582 net56
*583 net57
*584 net58
*585 net59
*586 net6
*587 net60
*588 net61
*589 net62
*590 net63
*591 net64
*592 net65
*593 net66
*594 net67
*595 net68
*596 net69
*597 net7
*598 net70
*599 net71
*600 net72
*601 net73
*602 net74
*603 net75
*604 net76
*605 net77
*606 net78
*607 net79
*608 net8
*609 net80
*610 net81
*611 net82
*612 net83
*613 net84
*614 net85
*615 net86
*616 net87
*617 net88
*618 net89
*619 net9
*620 net90
*621 net91
*622 net92
*623 net93
*624 net94
*625 net95
*626 net96
*627 net97
*628 net98
*629 net99
*630 FILLER_0_0
*631 FILLER_0_106
*632 FILLER_0_113
*633 FILLER_0_120
*634 FILLER_0_127
*635 FILLER_0_134
*636 FILLER_0_14
*637 FILLER_0_141
*638 FILLER_0_148
*639 FILLER_0_155
*640 FILLER_0_162
*641 FILLER_0_169
*642 FILLER_0_176
*643 FILLER_0_183
*644 FILLER_0_21
*645 FILLER_0_28
*646 FILLER_0_35
*647 FILLER_0_42
*648 FILLER_0_44
*649 FILLER_0_50
*650 FILLER_0_57
*651 FILLER_0_64
*652 FILLER_0_7
*653 FILLER_0_71
*654 FILLER_0_78
*655 FILLER_0_85
*656 FILLER_0_92
*657 FILLER_0_99
*658 FILLER_10_0
*659 FILLER_10_114
*660 FILLER_10_133
*661 FILLER_10_140
*662 FILLER_10_147
*663 FILLER_10_154
*664 FILLER_10_161
*665 FILLER_10_168
*666 FILLER_10_175
*667 FILLER_10_182
*668 FILLER_10_189
*669 FILLER_10_196
*670 FILLER_10_82
*671 FILLER_11_131
*672 FILLER_11_138
*673 FILLER_11_145
*674 FILLER_11_152
*675 FILLER_11_159
*676 FILLER_11_166
*677 FILLER_11_173
*678 FILLER_11_180
*679 FILLER_11_187
*680 FILLER_11_194
*681 FILLER_11_198
*682 FILLER_11_27
*683 FILLER_11_32
*684 FILLER_11_36
*685 FILLER_11_4
*686 FILLER_11_41
*687 FILLER_11_79
*688 FILLER_12_118
*689 FILLER_12_12
*690 FILLER_12_125
*691 FILLER_12_132
*692 FILLER_12_139
*693 FILLER_12_146
*694 FILLER_12_153
*695 FILLER_12_160
*696 FILLER_12_167
*697 FILLER_12_174
*698 FILLER_12_181
*699 FILLER_12_188
*700 FILLER_12_195
*701 FILLER_12_199
*702 FILLER_12_30
*703 FILLER_12_32
*704 FILLER_12_54
*705 FILLER_12_70
*706 FILLER_12_78
*707 FILLER_12_8
*708 FILLER_13_106
*709 FILLER_13_137
*710 FILLER_13_144
*711 FILLER_13_151
*712 FILLER_13_158
*713 FILLER_13_165
*714 FILLER_13_172
*715 FILLER_13_179
*716 FILLER_13_186
*717 FILLER_13_193
*718 FILLER_13_200
*719 FILLER_13_92
*720 FILLER_14_0
*721 FILLER_14_143
*722 FILLER_14_150
*723 FILLER_14_157
*724 FILLER_14_164
*725 FILLER_14_171
*726 FILLER_14_178
*727 FILLER_14_185
*728 FILLER_14_192
*729 FILLER_14_199
*730 FILLER_14_2
*731 FILLER_14_20
*732 FILLER_14_203
*733 FILLER_14_27
*734 FILLER_14_97
*735 FILLER_15_0
*736 FILLER_15_106
*737 FILLER_15_149
*738 FILLER_15_156
*739 FILLER_15_163
*740 FILLER_15_170
*741 FILLER_15_177
*742 FILLER_15_184
*743 FILLER_15_191
*744 FILLER_15_198
*745 FILLER_15_40
*746 FILLER_15_83
*747 FILLER_16_0
*748 FILLER_16_140
*749 FILLER_16_147
*750 FILLER_16_154
*751 FILLER_16_161
*752 FILLER_16_168
*753 FILLER_16_175
*754 FILLER_16_182
*755 FILLER_16_189
*756 FILLER_16_196
*757 FILLER_16_200
*758 FILLER_16_35
*759 FILLER_16_37
*760 FILLER_16_42
*761 FILLER_16_84
*762 FILLER_17_104
*763 FILLER_17_106
*764 FILLER_17_124
*765 FILLER_17_126
*766 FILLER_17_144
*767 FILLER_17_151
*768 FILLER_17_158
*769 FILLER_17_165
*770 FILLER_17_172
*771 FILLER_17_179
*772 FILLER_17_186
*773 FILLER_17_193
*774 FILLER_17_200
*775 FILLER_17_47
*776 FILLER_17_49
*777 FILLER_17_8
*778 FILLER_18_114
*779 FILLER_18_122
*780 FILLER_18_144
*781 FILLER_18_152
*782 FILLER_18_156
*783 FILLER_18_161
*784 FILLER_18_168
*785 FILLER_18_175
*786 FILLER_18_182
*787 FILLER_18_189
*788 FILLER_18_196
*789 FILLER_18_200
*790 FILLER_18_23
*791 FILLER_18_30
*792 FILLER_18_4
*793 FILLER_18_53
*794 FILLER_18_91
*795 FILLER_19_100
*796 FILLER_19_104
*797 FILLER_19_11
*798 FILLER_19_15
*799 FILLER_19_157
*800 FILLER_19_164
*801 FILLER_19_171
*802 FILLER_19_178
*803 FILLER_19_185
*804 FILLER_19_192
*805 FILLER_19_199
*806 FILLER_19_4
*807 FILLER_19_54
*808 FILLER_19_61
*809 FILLER_19_65
*810 FILLER_19_87
*811 FILLER_19_93
*812 FILLER_1_0
*813 FILLER_1_105
*814 FILLER_1_112
*815 FILLER_1_119
*816 FILLER_1_126
*817 FILLER_1_133
*818 FILLER_1_14
*819 FILLER_1_140
*820 FILLER_1_147
*821 FILLER_1_154
*822 FILLER_1_161
*823 FILLER_1_168
*824 FILLER_1_175
*825 FILLER_1_182
*826 FILLER_1_189
*827 FILLER_1_193
*828 FILLER_1_21
*829 FILLER_1_28
*830 FILLER_1_35
*831 FILLER_1_42
*832 FILLER_1_49
*833 FILLER_1_56
*834 FILLER_1_63
*835 FILLER_1_7
*836 FILLER_1_70
*837 FILLER_1_77
*838 FILLER_1_84
*839 FILLER_1_91
*840 FILLER_1_98
*841 FILLER_20_102
*842 FILLER_20_106
*843 FILLER_20_111
*844 FILLER_20_118
*845 FILLER_20_125
*846 FILLER_20_129
*847 FILLER_20_147
*848 FILLER_20_154
*849 FILLER_20_161
*850 FILLER_20_168
*851 FILLER_20_175
*852 FILLER_20_182
*853 FILLER_20_189
*854 FILLER_20_196
*855 FILLER_20_21
*856 FILLER_20_38
*857 FILLER_20_56
*858 FILLER_20_63
*859 FILLER_20_70
*860 FILLER_20_72
*861 FILLER_20_94
*862 FILLER_21_100
*863 FILLER_21_107
*864 FILLER_21_109
*865 FILLER_21_11
*866 FILLER_21_152
*867 FILLER_21_159
*868 FILLER_21_166
*869 FILLER_21_173
*870 FILLER_21_180
*871 FILLER_21_187
*872 FILLER_21_194
*873 FILLER_21_201
*874 FILLER_21_203
*875 FILLER_21_4
*876 FILLER_21_40
*877 FILLER_21_58
*878 FILLER_21_65
*879 FILLER_21_72
*880 FILLER_21_79
*881 FILLER_21_86
*882 FILLER_21_93
*883 FILLER_22_108
*884 FILLER_22_112
*885 FILLER_22_140
*886 FILLER_22_147
*887 FILLER_22_154
*888 FILLER_22_156
*889 FILLER_22_161
*890 FILLER_22_168
*891 FILLER_22_175
*892 FILLER_22_182
*893 FILLER_22_189
*894 FILLER_22_196
*895 FILLER_22_203
*896 FILLER_22_24
*897 FILLER_22_4
*898 FILLER_22_6
*899 FILLER_22_82
*900 FILLER_22_86
*901 FILLER_23_106
*902 FILLER_23_113
*903 FILLER_23_142
*904 FILLER_23_149
*905 FILLER_23_156
*906 FILLER_23_163
*907 FILLER_23_170
*908 FILLER_23_177
*909 FILLER_23_184
*910 FILLER_23_191
*911 FILLER_23_198
*912 FILLER_23_202
*913 FILLER_23_21
*914 FILLER_23_23
*915 FILLER_23_58
*916 FILLER_24_0
*917 FILLER_24_115
*918 FILLER_24_122
*919 FILLER_24_155
*920 FILLER_24_162
*921 FILLER_24_169
*922 FILLER_24_176
*923 FILLER_24_18
*924 FILLER_24_183
*925 FILLER_24_190
*926 FILLER_24_197
*927 FILLER_24_199
*928 FILLER_24_39
*929 FILLER_24_61
*930 FILLER_24_63
*931 FILLER_25_11
*932 FILLER_25_113
*933 FILLER_25_117
*934 FILLER_25_148
*935 FILLER_25_155
*936 FILLER_25_162
*937 FILLER_25_169
*938 FILLER_25_176
*939 FILLER_25_183
*940 FILLER_25_190
*941 FILLER_25_197
*942 FILLER_25_28
*943 FILLER_25_4
*944 FILLER_25_6
*945 FILLER_25_62
*946 FILLER_26_145
*947 FILLER_26_15
*948 FILLER_26_152
*949 FILLER_26_159
*950 FILLER_26_166
*951 FILLER_26_173
*952 FILLER_26_180
*953 FILLER_26_187
*954 FILLER_26_194
*955 FILLER_26_201
*956 FILLER_26_203
*957 FILLER_26_33
*958 FILLER_26_35
*959 FILLER_26_4
*960 FILLER_26_40
*961 FILLER_26_46
*962 FILLER_26_53
*963 FILLER_26_57
*964 FILLER_26_6
*965 FILLER_26_75
*966 FILLER_26_98
*967 FILLER_27_0
*968 FILLER_27_153
*969 FILLER_27_160
*970 FILLER_27_167
*971 FILLER_27_174
*972 FILLER_27_181
*973 FILLER_27_188
*974 FILLER_27_195
*975 FILLER_27_202
*976 FILLER_27_39
*977 FILLER_27_57
*978 FILLER_27_59
*979 FILLER_28_101
*980 FILLER_28_108
*981 FILLER_28_113
*982 FILLER_28_120
*983 FILLER_28_158
*984 FILLER_28_165
*985 FILLER_28_172
*986 FILLER_28_179
*987 FILLER_28_186
*988 FILLER_28_193
*989 FILLER_28_200
*990 FILLER_28_4
*991 FILLER_28_47
*992 FILLER_28_51
*993 FILLER_28_73
*994 FILLER_28_75
*995 FILLER_29_100
*996 FILLER_29_105
*997 FILLER_29_11
*998 FILLER_29_112
*999 FILLER_29_146
*1000 FILLER_29_153
*1001 FILLER_29_160
*1002 FILLER_29_167
*1003 FILLER_29_174
*1004 FILLER_29_181
*1005 FILLER_29_188
*1006 FILLER_29_195
*1007 FILLER_29_202
*1008 FILLER_29_34
*1009 FILLER_29_4
*1010 FILLER_29_6
*1011 FILLER_29_62
*1012 FILLER_29_69
*1013 FILLER_29_75
*1014 FILLER_29_96
*1015 FILLER_2_0
*1016 FILLER_2_105
*1017 FILLER_2_112
*1018 FILLER_2_119
*1019 FILLER_2_126
*1020 FILLER_2_133
*1021 FILLER_2_14
*1022 FILLER_2_140
*1023 FILLER_2_147
*1024 FILLER_2_154
*1025 FILLER_2_161
*1026 FILLER_2_168
*1027 FILLER_2_175
*1028 FILLER_2_182
*1029 FILLER_2_189
*1030 FILLER_2_196
*1031 FILLER_2_21
*1032 FILLER_2_28
*1033 FILLER_2_35
*1034 FILLER_2_42
*1035 FILLER_2_49
*1036 FILLER_2_56
*1037 FILLER_2_63
*1038 FILLER_2_7
*1039 FILLER_2_70
*1040 FILLER_2_77
*1041 FILLER_2_84
*1042 FILLER_2_91
*1043 FILLER_2_98
*1044 FILLER_30_0
*1045 FILLER_30_134
*1046 FILLER_30_139
*1047 FILLER_30_146
*1048 FILLER_30_153
*1049 FILLER_30_160
*1050 FILLER_30_167
*1051 FILLER_30_174
*1052 FILLER_30_181
*1053 FILLER_30_188
*1054 FILLER_30_195
*1055 FILLER_30_202
*1056 FILLER_30_23
*1057 FILLER_30_4
*1058 FILLER_30_64
*1059 FILLER_30_71
*1060 FILLER_30_78
*1061 FILLER_30_82
*1062 FILLER_31_118
*1063 FILLER_31_135
*1064 FILLER_31_142
*1065 FILLER_31_149
*1066 FILLER_31_156
*1067 FILLER_31_163
*1068 FILLER_31_170
*1069 FILLER_31_177
*1070 FILLER_31_184
*1071 FILLER_31_191
*1072 FILLER_31_198
*1073 FILLER_31_202
*1074 FILLER_31_36
*1075 FILLER_31_4
*1076 FILLER_31_43
*1077 FILLER_31_6
*1078 FILLER_31_74
*1079 FILLER_32_0
*1080 FILLER_32_101
*1081 FILLER_32_103
*1082 FILLER_32_125
*1083 FILLER_32_132
*1084 FILLER_32_139
*1085 FILLER_32_146
*1086 FILLER_32_153
*1087 FILLER_32_160
*1088 FILLER_32_167
*1089 FILLER_32_174
*1090 FILLER_32_18
*1091 FILLER_32_181
*1092 FILLER_32_188
*1093 FILLER_32_195
*1094 FILLER_32_202
*1095 FILLER_32_22
*1096 FILLER_32_44
*1097 FILLER_33_10
*1098 FILLER_33_133
*1099 FILLER_33_140
*1100 FILLER_33_147
*1101 FILLER_33_154
*1102 FILLER_33_161
*1103 FILLER_33_168
*1104 FILLER_33_175
*1105 FILLER_33_182
*1106 FILLER_33_189
*1107 FILLER_33_196
*1108 FILLER_33_203
*1109 FILLER_33_32
*1110 FILLER_33_34
*1111 FILLER_33_39
*1112 FILLER_33_8
*1113 FILLER_33_87
*1114 FILLER_33_94
*1115 FILLER_34_0
*1116 FILLER_34_108
*1117 FILLER_34_122
*1118 FILLER_34_128
*1119 FILLER_34_135
*1120 FILLER_34_142
*1121 FILLER_34_149
*1122 FILLER_34_156
*1123 FILLER_34_163
*1124 FILLER_34_170
*1125 FILLER_34_177
*1126 FILLER_34_18
*1127 FILLER_34_184
*1128 FILLER_34_191
*1129 FILLER_34_198
*1130 FILLER_34_202
*1131 FILLER_34_65
*1132 FILLER_34_67
*1133 FILLER_34_85
*1134 FILLER_35_120
*1135 FILLER_35_127
*1136 FILLER_35_134
*1137 FILLER_35_141
*1138 FILLER_35_148
*1139 FILLER_35_155
*1140 FILLER_35_162
*1141 FILLER_35_169
*1142 FILLER_35_176
*1143 FILLER_35_183
*1144 FILLER_35_190
*1145 FILLER_35_197
*1146 FILLER_35_46
*1147 FILLER_35_48
*1148 FILLER_36_101
*1149 FILLER_36_130
*1150 FILLER_36_137
*1151 FILLER_36_144
*1152 FILLER_36_151
*1153 FILLER_36_158
*1154 FILLER_36_165
*1155 FILLER_36_172
*1156 FILLER_36_179
*1157 FILLER_36_186
*1158 FILLER_36_193
*1159 FILLER_36_4
*1160 FILLER_36_76
*1161 FILLER_36_78
*1162 FILLER_36_83
*1163 FILLER_37_11
*1164 FILLER_37_145
*1165 FILLER_37_152
*1166 FILLER_37_159
*1167 FILLER_37_166
*1168 FILLER_37_173
*1169 FILLER_37_18
*1170 FILLER_37_180
*1171 FILLER_37_187
*1172 FILLER_37_194
*1173 FILLER_37_201
*1174 FILLER_37_203
*1175 FILLER_37_4
*1176 FILLER_37_40
*1177 FILLER_37_45
*1178 FILLER_37_52
*1179 FILLER_37_96
*1180 FILLER_38_0
*1181 FILLER_38_109
*1182 FILLER_38_114
*1183 FILLER_38_116
*1184 FILLER_38_130
*1185 FILLER_38_137
*1186 FILLER_38_14
*1187 FILLER_38_144
*1188 FILLER_38_151
*1189 FILLER_38_158
*1190 FILLER_38_165
*1191 FILLER_38_172
*1192 FILLER_38_179
*1193 FILLER_38_186
*1194 FILLER_38_193
*1195 FILLER_38_200
*1196 FILLER_38_21
*1197 FILLER_38_28
*1198 FILLER_38_35
*1199 FILLER_38_42
*1200 FILLER_38_7
*1201 FILLER_38_73
*1202 FILLER_39_105
*1203 FILLER_39_11
*1204 FILLER_39_112
*1205 FILLER_39_114
*1206 FILLER_39_132
*1207 FILLER_39_139
*1208 FILLER_39_146
*1209 FILLER_39_153
*1210 FILLER_39_160
*1211 FILLER_39_167
*1212 FILLER_39_174
*1213 FILLER_39_18
*1214 FILLER_39_181
*1215 FILLER_39_188
*1216 FILLER_39_195
*1217 FILLER_39_202
*1218 FILLER_39_25
*1219 FILLER_39_32
*1220 FILLER_39_39
*1221 FILLER_39_4
*1222 FILLER_39_46
*1223 FILLER_39_64
*1224 FILLER_39_66
*1225 FILLER_39_84
*1226 FILLER_39_86
*1227 FILLER_39_91
*1228 FILLER_39_98
*1229 FILLER_3_102
*1230 FILLER_3_109
*1231 FILLER_3_116
*1232 FILLER_3_12
*1233 FILLER_3_123
*1234 FILLER_3_130
*1235 FILLER_3_137
*1236 FILLER_3_144
*1237 FILLER_3_151
*1238 FILLER_3_158
*1239 FILLER_3_165
*1240 FILLER_3_172
*1241 FILLER_3_179
*1242 FILLER_3_186
*1243 FILLER_3_19
*1244 FILLER_3_193
*1245 FILLER_3_200
*1246 FILLER_3_26
*1247 FILLER_3_33
*1248 FILLER_3_40
*1249 FILLER_3_47
*1250 FILLER_3_5
*1251 FILLER_3_54
*1252 FILLER_3_61
*1253 FILLER_3_68
*1254 FILLER_3_75
*1255 FILLER_3_82
*1256 FILLER_3_89
*1257 FILLER_3_95
*1258 FILLER_40_105
*1259 FILLER_40_112
*1260 FILLER_40_119
*1261 FILLER_40_12
*1262 FILLER_40_126
*1263 FILLER_40_133
*1264 FILLER_40_140
*1265 FILLER_40_147
*1266 FILLER_40_154
*1267 FILLER_40_161
*1268 FILLER_40_168
*1269 FILLER_40_175
*1270 FILLER_40_182
*1271 FILLER_40_189
*1272 FILLER_40_19
*1273 FILLER_40_196
*1274 FILLER_40_26
*1275 FILLER_40_33
*1276 FILLER_40_40
*1277 FILLER_40_47
*1278 FILLER_40_5
*1279 FILLER_40_51
*1280 FILLER_40_57
*1281 FILLER_40_64
*1282 FILLER_40_71
*1283 FILLER_40_77
*1284 FILLER_40_84
*1285 FILLER_40_91
*1286 FILLER_40_98
*1287 FILLER_41_112
*1288 FILLER_41_119
*1289 FILLER_41_12
*1290 FILLER_41_123
*1291 FILLER_41_137
*1292 FILLER_41_144
*1293 FILLER_41_151
*1294 FILLER_41_158
*1295 FILLER_41_165
*1296 FILLER_41_172
*1297 FILLER_41_179
*1298 FILLER_41_186
*1299 FILLER_41_19
*1300 FILLER_41_193
*1301 FILLER_41_200
*1302 FILLER_41_26
*1303 FILLER_41_33
*1304 FILLER_41_40
*1305 FILLER_41_47
*1306 FILLER_41_5
*1307 FILLER_41_54
*1308 FILLER_41_61
*1309 FILLER_41_68
*1310 FILLER_41_75
*1311 FILLER_41_82
*1312 FILLER_41_89
*1313 FILLER_41_96
*1314 FILLER_41_98
*1315 FILLER_42_0
*1316 FILLER_42_105
*1317 FILLER_42_112
*1318 FILLER_42_119
*1319 FILLER_42_126
*1320 FILLER_42_133
*1321 FILLER_42_14
*1322 FILLER_42_140
*1323 FILLER_42_147
*1324 FILLER_42_154
*1325 FILLER_42_161
*1326 FILLER_42_168
*1327 FILLER_42_175
*1328 FILLER_42_182
*1329 FILLER_42_189
*1330 FILLER_42_196
*1331 FILLER_42_203
*1332 FILLER_42_21
*1333 FILLER_42_28
*1334 FILLER_42_35
*1335 FILLER_42_42
*1336 FILLER_42_49
*1337 FILLER_42_56
*1338 FILLER_42_63
*1339 FILLER_42_7
*1340 FILLER_42_70
*1341 FILLER_42_77
*1342 FILLER_42_84
*1343 FILLER_42_91
*1344 FILLER_42_98
*1345 FILLER_43_103
*1346 FILLER_43_110
*1347 FILLER_43_117
*1348 FILLER_43_12
*1349 FILLER_43_124
*1350 FILLER_43_131
*1351 FILLER_43_138
*1352 FILLER_43_145
*1353 FILLER_43_152
*1354 FILLER_43_159
*1355 FILLER_43_166
*1356 FILLER_43_173
*1357 FILLER_43_180
*1358 FILLER_43_187
*1359 FILLER_43_19
*1360 FILLER_43_194
*1361 FILLER_43_201
*1362 FILLER_43_203
*1363 FILLER_43_26
*1364 FILLER_43_33
*1365 FILLER_43_40
*1366 FILLER_43_47
*1367 FILLER_43_5
*1368 FILLER_43_54
*1369 FILLER_43_61
*1370 FILLER_43_68
*1371 FILLER_43_75
*1372 FILLER_43_82
*1373 FILLER_43_89
*1374 FILLER_43_96
*1375 FILLER_44_103
*1376 FILLER_44_110
*1377 FILLER_44_117
*1378 FILLER_44_12
*1379 FILLER_44_124
*1380 FILLER_44_131
*1381 FILLER_44_138
*1382 FILLER_44_145
*1383 FILLER_44_152
*1384 FILLER_44_159
*1385 FILLER_44_166
*1386 FILLER_44_173
*1387 FILLER_44_180
*1388 FILLER_44_187
*1389 FILLER_44_19
*1390 FILLER_44_194
*1391 FILLER_44_198
*1392 FILLER_44_26
*1393 FILLER_44_33
*1394 FILLER_44_40
*1395 FILLER_44_47
*1396 FILLER_44_5
*1397 FILLER_44_54
*1398 FILLER_44_61
*1399 FILLER_44_68
*1400 FILLER_44_75
*1401 FILLER_44_82
*1402 FILLER_44_89
*1403 FILLER_44_96
*1404 FILLER_45_103
*1405 FILLER_45_110
*1406 FILLER_45_117
*1407 FILLER_45_12
*1408 FILLER_45_124
*1409 FILLER_45_131
*1410 FILLER_45_138
*1411 FILLER_45_145
*1412 FILLER_45_152
*1413 FILLER_45_159
*1414 FILLER_45_166
*1415 FILLER_45_173
*1416 FILLER_45_180
*1417 FILLER_45_187
*1418 FILLER_45_19
*1419 FILLER_45_194
*1420 FILLER_45_201
*1421 FILLER_45_203
*1422 FILLER_45_26
*1423 FILLER_45_33
*1424 FILLER_45_40
*1425 FILLER_45_47
*1426 FILLER_45_5
*1427 FILLER_45_54
*1428 FILLER_45_61
*1429 FILLER_45_68
*1430 FILLER_45_75
*1431 FILLER_45_82
*1432 FILLER_45_89
*1433 FILLER_45_96
*1434 FILLER_46_0
*1435 FILLER_46_105
*1436 FILLER_46_112
*1437 FILLER_46_119
*1438 FILLER_46_126
*1439 FILLER_46_133
*1440 FILLER_46_14
*1441 FILLER_46_140
*1442 FILLER_46_147
*1443 FILLER_46_154
*1444 FILLER_46_161
*1445 FILLER_46_168
*1446 FILLER_46_175
*1447 FILLER_46_182
*1448 FILLER_46_189
*1449 FILLER_46_196
*1450 FILLER_46_203
*1451 FILLER_46_21
*1452 FILLER_46_28
*1453 FILLER_46_35
*1454 FILLER_46_42
*1455 FILLER_46_49
*1456 FILLER_46_56
*1457 FILLER_46_63
*1458 FILLER_46_7
*1459 FILLER_46_70
*1460 FILLER_46_77
*1461 FILLER_46_84
*1462 FILLER_46_91
*1463 FILLER_46_98
*1464 FILLER_47_103
*1465 FILLER_47_110
*1466 FILLER_47_117
*1467 FILLER_47_12
*1468 FILLER_47_124
*1469 FILLER_47_131
*1470 FILLER_47_138
*1471 FILLER_47_145
*1472 FILLER_47_152
*1473 FILLER_47_159
*1474 FILLER_47_166
*1475 FILLER_47_173
*1476 FILLER_47_180
*1477 FILLER_47_187
*1478 FILLER_47_19
*1479 FILLER_47_194
*1480 FILLER_47_201
*1481 FILLER_47_203
*1482 FILLER_47_26
*1483 FILLER_47_33
*1484 FILLER_47_40
*1485 FILLER_47_47
*1486 FILLER_47_5
*1487 FILLER_47_54
*1488 FILLER_47_61
*1489 FILLER_47_68
*1490 FILLER_47_75
*1491 FILLER_47_82
*1492 FILLER_47_89
*1493 FILLER_47_96
*1494 FILLER_48_103
*1495 FILLER_48_110
*1496 FILLER_48_117
*1497 FILLER_48_12
*1498 FILLER_48_124
*1499 FILLER_48_131
*1500 FILLER_48_138
*1501 FILLER_48_145
*1502 FILLER_48_152
*1503 FILLER_48_159
*1504 FILLER_48_166
*1505 FILLER_48_173
*1506 FILLER_48_180
*1507 FILLER_48_187
*1508 FILLER_48_19
*1509 FILLER_48_194
*1510 FILLER_48_198
*1511 FILLER_48_26
*1512 FILLER_48_33
*1513 FILLER_48_40
*1514 FILLER_48_47
*1515 FILLER_48_5
*1516 FILLER_48_54
*1517 FILLER_48_61
*1518 FILLER_48_68
*1519 FILLER_48_75
*1520 FILLER_48_82
*1521 FILLER_48_89
*1522 FILLER_48_96
*1523 FILLER_49_103
*1524 FILLER_49_110
*1525 FILLER_49_117
*1526 FILLER_49_12
*1527 FILLER_49_124
*1528 FILLER_49_131
*1529 FILLER_49_138
*1530 FILLER_49_145
*1531 FILLER_49_152
*1532 FILLER_49_159
*1533 FILLER_49_166
*1534 FILLER_49_173
*1535 FILLER_49_180
*1536 FILLER_49_187
*1537 FILLER_49_19
*1538 FILLER_49_194
*1539 FILLER_49_201
*1540 FILLER_49_203
*1541 FILLER_49_26
*1542 FILLER_49_33
*1543 FILLER_49_40
*1544 FILLER_49_47
*1545 FILLER_49_5
*1546 FILLER_49_54
*1547 FILLER_49_61
*1548 FILLER_49_68
*1549 FILLER_49_75
*1550 FILLER_49_82
*1551 FILLER_49_89
*1552 FILLER_49_96
*1553 FILLER_4_105
*1554 FILLER_4_11
*1555 FILLER_4_112
*1556 FILLER_4_119
*1557 FILLER_4_126
*1558 FILLER_4_133
*1559 FILLER_4_140
*1560 FILLER_4_147
*1561 FILLER_4_154
*1562 FILLER_4_161
*1563 FILLER_4_168
*1564 FILLER_4_175
*1565 FILLER_4_18
*1566 FILLER_4_182
*1567 FILLER_4_189
*1568 FILLER_4_196
*1569 FILLER_4_200
*1570 FILLER_4_25
*1571 FILLER_4_32
*1572 FILLER_4_4
*1573 FILLER_4_40
*1574 FILLER_4_47
*1575 FILLER_4_51
*1576 FILLER_4_56
*1577 FILLER_4_63
*1578 FILLER_4_70
*1579 FILLER_4_77
*1580 FILLER_4_84
*1581 FILLER_4_91
*1582 FILLER_4_98
*1583 FILLER_50_0
*1584 FILLER_50_105
*1585 FILLER_50_112
*1586 FILLER_50_119
*1587 FILLER_50_126
*1588 FILLER_50_133
*1589 FILLER_50_14
*1590 FILLER_50_140
*1591 FILLER_50_147
*1592 FILLER_50_154
*1593 FILLER_50_161
*1594 FILLER_50_168
*1595 FILLER_50_175
*1596 FILLER_50_182
*1597 FILLER_50_189
*1598 FILLER_50_196
*1599 FILLER_50_203
*1600 FILLER_50_21
*1601 FILLER_50_28
*1602 FILLER_50_35
*1603 FILLER_50_42
*1604 FILLER_50_49
*1605 FILLER_50_56
*1606 FILLER_50_63
*1607 FILLER_50_7
*1608 FILLER_50_70
*1609 FILLER_50_77
*1610 FILLER_50_84
*1611 FILLER_50_91
*1612 FILLER_50_98
*1613 FILLER_51_103
*1614 FILLER_51_110
*1615 FILLER_51_117
*1616 FILLER_51_12
*1617 FILLER_51_124
*1618 FILLER_51_131
*1619 FILLER_51_138
*1620 FILLER_51_145
*1621 FILLER_51_152
*1622 FILLER_51_159
*1623 FILLER_51_166
*1624 FILLER_51_173
*1625 FILLER_51_180
*1626 FILLER_51_187
*1627 FILLER_51_19
*1628 FILLER_51_194
*1629 FILLER_51_201
*1630 FILLER_51_203
*1631 FILLER_51_26
*1632 FILLER_51_33
*1633 FILLER_51_40
*1634 FILLER_51_47
*1635 FILLER_51_5
*1636 FILLER_51_54
*1637 FILLER_51_61
*1638 FILLER_51_68
*1639 FILLER_51_75
*1640 FILLER_51_82
*1641 FILLER_51_89
*1642 FILLER_51_96
*1643 FILLER_52_103
*1644 FILLER_52_110
*1645 FILLER_52_117
*1646 FILLER_52_12
*1647 FILLER_52_124
*1648 FILLER_52_131
*1649 FILLER_52_138
*1650 FILLER_52_145
*1651 FILLER_52_152
*1652 FILLER_52_159
*1653 FILLER_52_166
*1654 FILLER_52_173
*1655 FILLER_52_180
*1656 FILLER_52_187
*1657 FILLER_52_19
*1658 FILLER_52_194
*1659 FILLER_52_26
*1660 FILLER_52_33
*1661 FILLER_52_40
*1662 FILLER_52_47
*1663 FILLER_52_5
*1664 FILLER_52_54
*1665 FILLER_52_61
*1666 FILLER_52_68
*1667 FILLER_52_75
*1668 FILLER_52_82
*1669 FILLER_52_89
*1670 FILLER_52_96
*1671 FILLER_53_0
*1672 FILLER_53_101
*1673 FILLER_53_108
*1674 FILLER_53_123
*1675 FILLER_53_130
*1676 FILLER_53_137
*1677 FILLER_53_14
*1678 FILLER_53_143
*1679 FILLER_53_149
*1680 FILLER_53_155
*1681 FILLER_53_161
*1682 FILLER_53_165
*1683 FILLER_53_174
*1684 FILLER_53_179
*1685 FILLER_53_186
*1686 FILLER_53_207
*1687 FILLER_53_21
*1688 FILLER_53_28
*1689 FILLER_53_35
*1690 FILLER_53_42
*1691 FILLER_53_49
*1692 FILLER_53_56
*1693 FILLER_53_63
*1694 FILLER_53_7
*1695 FILLER_53_70
*1696 FILLER_53_77
*1697 FILLER_53_84
*1698 FILLER_53_95
*1699 FILLER_54_0
*1700 FILLER_54_103
*1701 FILLER_54_109
*1702 FILLER_54_113
*1703 FILLER_54_119
*1704 FILLER_54_123
*1705 FILLER_54_129
*1706 FILLER_54_13
*1707 FILLER_54_133
*1708 FILLER_54_139
*1709 FILLER_54_143
*1710 FILLER_54_149
*1711 FILLER_54_153
*1712 FILLER_54_159
*1713 FILLER_54_163
*1714 FILLER_54_169
*1715 FILLER_54_173
*1716 FILLER_54_179
*1717 FILLER_54_189
*1718 FILLER_54_19
*1719 FILLER_54_199
*1720 FILLER_54_23
*1721 FILLER_54_29
*1722 FILLER_54_33
*1723 FILLER_54_39
*1724 FILLER_54_4
*1725 FILLER_54_43
*1726 FILLER_54_49
*1727 FILLER_54_53
*1728 FILLER_54_59
*1729 FILLER_54_63
*1730 FILLER_54_69
*1731 FILLER_54_73
*1732 FILLER_54_79
*1733 FILLER_54_83
*1734 FILLER_54_89
*1735 FILLER_54_9
*1736 FILLER_54_93
*1737 FILLER_54_99
*1738 FILLER_5_102
*1739 FILLER_5_109
*1740 FILLER_5_11
*1741 FILLER_5_111
*1742 FILLER_5_116
*1743 FILLER_5_123
*1744 FILLER_5_130
*1745 FILLER_5_137
*1746 FILLER_5_144
*1747 FILLER_5_151
*1748 FILLER_5_158
*1749 FILLER_5_165
*1750 FILLER_5_172
*1751 FILLER_5_179
*1752 FILLER_5_18
*1753 FILLER_5_186
*1754 FILLER_5_193
*1755 FILLER_5_200
*1756 FILLER_5_25
*1757 FILLER_5_32
*1758 FILLER_5_39
*1759 FILLER_5_4
*1760 FILLER_5_46
*1761 FILLER_5_53
*1762 FILLER_5_60
*1763 FILLER_5_67
*1764 FILLER_5_74
*1765 FILLER_5_81
*1766 FILLER_5_88
*1767 FILLER_5_95
*1768 FILLER_6_0
*1769 FILLER_6_105
*1770 FILLER_6_112
*1771 FILLER_6_119
*1772 FILLER_6_126
*1773 FILLER_6_133
*1774 FILLER_6_14
*1775 FILLER_6_140
*1776 FILLER_6_147
*1777 FILLER_6_154
*1778 FILLER_6_161
*1779 FILLER_6_168
*1780 FILLER_6_175
*1781 FILLER_6_18
*1782 FILLER_6_182
*1783 FILLER_6_189
*1784 FILLER_6_196
*1785 FILLER_6_200
*1786 FILLER_6_50
*1787 FILLER_6_57
*1788 FILLER_6_7
*1789 FILLER_6_84
*1790 FILLER_6_91
*1791 FILLER_6_98
*1792 FILLER_7_112
*1793 FILLER_7_119
*1794 FILLER_7_12
*1795 FILLER_7_121
*1796 FILLER_7_126
*1797 FILLER_7_133
*1798 FILLER_7_140
*1799 FILLER_7_147
*1800 FILLER_7_154
*1801 FILLER_7_161
*1802 FILLER_7_168
*1803 FILLER_7_175
*1804 FILLER_7_182
*1805 FILLER_7_189
*1806 FILLER_7_19
*1807 FILLER_7_196
*1808 FILLER_7_200
*1809 FILLER_7_26
*1810 FILLER_7_30
*1811 FILLER_7_49
*1812 FILLER_7_5
*1813 FILLER_7_56
*1814 FILLER_7_60
*1815 FILLER_7_82
*1816 FILLER_7_89
*1817 FILLER_7_93
*1818 FILLER_8_109
*1819 FILLER_8_116
*1820 FILLER_8_123
*1821 FILLER_8_130
*1822 FILLER_8_136
*1823 FILLER_8_143
*1824 FILLER_8_150
*1825 FILLER_8_157
*1826 FILLER_8_164
*1827 FILLER_8_171
*1828 FILLER_8_178
*1829 FILLER_8_185
*1830 FILLER_8_192
*1831 FILLER_8_206
*1832 FILLER_8_4
*1833 FILLER_8_42
*1834 FILLER_8_46
*1835 FILLER_8_65
*1836 FILLER_9_112
*1837 FILLER_9_119
*1838 FILLER_9_126
*1839 FILLER_9_133
*1840 FILLER_9_140
*1841 FILLER_9_147
*1842 FILLER_9_154
*1843 FILLER_9_161
*1844 FILLER_9_168
*1845 FILLER_9_175
*1846 FILLER_9_182
*1847 FILLER_9_189
*1848 FILLER_9_196
*1849 FILLER_9_203
*1850 FILLER_9_4
*1851 FILLER_9_6
*1852 FILLER_9_74
*1853 FILLER_9_88
*1854 _051_
*1855 _052_
*1856 _053_
*1857 _054_
*1858 _055_
*1859 _056_
*1860 _057_
*1861 _058_
*1862 _059_
*1863 _060_
*1864 _061_
*1865 _062_
*1866 _063_
*1867 _064_
*1868 _065_
*1869 _066_
*1870 _067_
*1871 _068_
*1872 _069_
*1873 _070_
*1874 _071_
*1875 _072_
*1876 _073_
*1877 _074_
*1878 _075_
*1879 _076_
*1880 _077_
*1881 _078_
*1882 _079_
*1883 _080_
*1884 _081_
*1885 _082_
*1886 _083_
*1887 _084_
*1888 _085_
*1889 _086_
*1890 _087_
*1891 _088_
*1892 _089_
*1893 _090_
*1894 _091_
*1895 _092_
*1896 _093_
*1897 _094_
*1898 _095_
*1899 _096_
*1900 _097_
*1901 _098_
*1902 _099_
*1903 _100_
*1904 _101_
*1905 _102_
*1906 _103_
*1907 _104_
*1908 _105_
*1909 _106_
*1910 _107_
*1911 _108_
*1912 _109_
*1913 _110_
*1914 _111_
*1915 _112_
*1916 _113_
*1917 _114_
*1918 _115_
*1919 _116_
*1920 _117_
*1921 _118_
*1922 _119_
*1923 _120_
*1924 _121_
*1925 _122_
*1926 _123_
*1927 _124_
*1928 _125_
*1929 _126_
*1930 _127_
*1931 _128_
*1932 _129_
*1933 _130_
*1934 _131_
*1935 _132_
*1936 _133_
*1937 _134_
*1938 _135_
*1939 _136_
*1940 _137_
*1941 _138_
*1942 _139_
*1943 _140_
*1944 _141_
*1945 _142_
*1946 _143_
*1947 _144_
*1948 _145_
*1949 _146_
*1950 _147_
*1951 _148_
*1952 _149_
*1953 _150_
*1954 _151_
*1955 _152_
*1956 _153_
*1957 _154_
*1958 _155_
*1959 _156_
*1960 _157_
*1961 _158_
*1962 _159_
*1963 _160_
*1964 _161_
*1965 _162_
*1966 _163_
*1967 _164_
*1968 _165_
*1969 _166_
*1970 _167_
*1971 _168_
*1972 _169_
*1973 _170_
*1974 _171_
*1975 _172_
*1976 _173_
*1977 _174_
*1978 _175_
*1979 _176_
*1980 _177_
*1981 _178_
*1982 _179_
*1983 _180_
*1984 _181_
*1985 _182_
*1986 _183_
*1987 _184_
*1988 _185_
*1989 _186_
*1990 _187_
*1991 _188_
*1992 _189_
*1993 _190_
*1994 _191_
*1995 _192_
*1996 _193_
*1997 _194_
*1998 _195_
*1999 _196_
*2000 _197_
*2001 _198_
*2002 _199_
*2003 _200_
*2004 _201_
*2005 _202_
*2006 _203_
*2007 _204_
*2008 _205_
*2009 _206_
*2010 _207_
*2011 _208_
*2012 _209_
*2013 _210_
*2014 _211_
*2015 _212_
*2016 _213_
*2017 _214_
*2018 _215_
*2019 _216_
*2020 _217_
*2021 _218_
*2022 _219_
*2023 _220_
*2024 _221_
*2025 _222_
*2026 _223_
*2027 _224_
*2028 _225_
*2029 _226_
*2030 _227_
*2031 _228_
*2032 _229_
*2033 _230_
*2034 _231_
*2035 _232_
*2036 _233_
*2037 _234_
*2038 _235_
*2039 _236_
*2040 _237_
*2041 _238_
*2042 _239_
*2043 _240_
*2044 _241_
*2045 _242_
*2046 _243_
*2047 _244_
*2048 _245_
*2049 _246_
*2050 _247_
*2051 _248_
*2052 _249_
*2053 _250_
*2054 _251_
*2055 _252_
*2056 _253_
*2057 _254_
*2058 _255_
*2059 _256_
*2060 _257_
*2061 _258_
*2062 _258__189
*2063 _259_
*2064 _259__190
*2065 _262_
*2066 _263_
*2067 _264_
*2068 _265_
*2069 _266_
*2070 _267_
*2071 _268_
*2072 _269_
*2073 _270_
*2074 _271_
*2075 _272_
*2076 _273_
*2077 _274_
*2078 _275_
*2079 _276_
*2080 _277_
*2081 _278_
*2082 _279_
*2083 _280_
*2084 _281_
*2085 _282_
*2086 _283_
*2087 _284_
*2088 _285_
*2089 _286_
*2090 _287_
*2091 _288_
*2092 _289_
*2093 _290_
*2094 _291_
*2095 _292_
*2096 _293_
*2097 _294_
*2098 _295_
*2099 _296_
*2100 _297_
*2101 _298_
*2102 _299_
*2103 _300_
*2104 _301_
*2105 _302_
*2106 _303_
*2107 _304_
*2108 _305_
*2109 _306_
*2110 _307_
*2111 _308_
*2112 _309_
*2113 _310_
*2114 _311_
*2115 _312_
*2116 _313_
*2117 _314_
*2118 _315_
*2119 _316_
*2120 _317_
*2121 _318_
*2122 _319_
*2123 _320_
*2124 _321_
*2125 _322_
*2126 _323_
*2127 _324_
*2128 _325_
*2129 _326_
*2130 _327_
*2131 _328_
*2132 _329_
*2133 _330_
*2134 _331_
*2135 _332_
*2136 _333_
*2137 _334_
*2138 _335_
*2139 _336_
*2140 _337_
*2141 _338_
*2142 _339_
*2143 _340_
*2144 _341_
*2145 _342_
*2146 _343_
*2147 _344_
*2148 _345_
*2149 _346_
*2150 _347_
*2151 _348_
*2152 _349_
*2153 _350_
*2154 _351_
*2155 _352_
*2156 _353_
*2157 _354_
*2158 _355_
*2159 _356_
*2160 _357_
*2161 _358_
*2162 _359_
*2163 _360_
*2164 _361_
*2165 _362_
*2166 clkbuf_0_UserCLK
*2167 clkbuf_0_UserCLK_regs
*2168 clkbuf_1_0__f_UserCLK
*2169 clkbuf_1_0__f_UserCLK_regs
*2170 clkbuf_1_1__f_UserCLK_regs
*2171 clkbuf_regs_0_UserCLK
*2172 fanout38
*2173 fanout39
*2174 fanout40
*2175 fanout41
*2176 fanout42
*2177 fanout43
*2178 fanout44
*2179 fanout45
*2180 fanout46
*2181 fanout47
*2182 fanout48
*2183 fanout49
*2184 fanout50
*2185 fanout51
*2186 fanout52
*2187 fanout53
*2188 fanout54
*2189 fanout55
*2190 input1
*2191 input10
*2192 input11
*2193 input12
*2194 input13
*2195 input14
*2196 input15
*2197 input16
*2198 input17
*2199 input18
*2200 input19
*2201 input2
*2202 input20
*2203 input21
*2204 input22
*2205 input23
*2206 input24
*2207 input25
*2208 input26
*2209 input27
*2210 input28
*2211 input29
*2212 input3
*2213 input30
*2214 input31
*2215 input32
*2216 input33
*2217 input34
*2218 input35
*2219 input36
*2220 input37
*2221 input38
*2222 input39
*2223 input4
*2224 input40
*2225 input41
*2226 input42
*2227 input43
*2228 input44
*2229 input45
*2230 input46
*2231 input47
*2232 input48
*2233 input49
*2234 input5
*2235 input50
*2236 input51
*2237 input52
*2238 input53
*2239 input54
*2240 input55
*2241 input56
*2242 input57
*2243 input58
*2244 input59
*2245 input6
*2246 input60
*2247 input61
*2248 input62
*2249 input63
*2250 input64
*2251 input65
*2252 input66
*2253 input67
*2254 input68
*2255 input69
*2256 input7
*2257 input70
*2258 input71
*2259 input72
*2260 input73
*2261 input74
*2262 input75
*2263 input76
*2264 input77
*2265 input78
*2266 input79
*2267 input8
*2268 input80
*2269 input81
*2270 input82
*2271 input83
*2272 input9
*2273 output100
*2274 output101
*2275 output102
*2276 output103
*2277 output104
*2278 output105
*2279 output106
*2280 output107
*2281 output108
*2282 output109
*2283 output110
*2284 output111
*2285 output112
*2286 output113
*2287 output114
*2288 output115
*2289 output116
*2290 output117
*2291 output118
*2292 output119
*2293 output120
*2294 output121
*2295 output122
*2296 output123
*2297 output124
*2298 output125
*2299 output126
*2300 output127
*2301 output128
*2302 output129
*2303 output130
*2304 output131
*2305 output132
*2306 output133
*2307 output134
*2308 output135
*2309 output136
*2310 output137
*2311 output138
*2312 output139
*2313 output140
*2314 output141
*2315 output142
*2316 output143
*2317 output144
*2318 output145
*2319 output146
*2320 output147
*2321 output148
*2322 output149
*2323 output150
*2324 output151
*2325 output152
*2326 output153
*2327 output154
*2328 output155
*2329 output156
*2330 output157
*2331 output158
*2332 output159
*2333 output160
*2334 output161
*2335 output162
*2336 output163
*2337 output164
*2338 output165
*2339 output166
*2340 output167
*2341 output168
*2342 output169
*2343 output170
*2344 output171
*2345 output172
*2346 output173
*2347 output174
*2348 output175
*2349 output176
*2350 output177
*2351 output178
*2352 output179
*2353 output180
*2354 output181
*2355 output182
*2356 output183
*2357 output184
*2358 output185
*2359 output186
*2360 output187
*2361 output188
*2362 output84
*2363 output85
*2364 output86
*2365 output87
*2366 output88
*2367 output89
*2368 output90
*2369 output91
*2370 output92
*2371 output93
*2372 output94
*2373 output95
*2374 output96
*2375 output97
*2376 output98
*2377 output99

*PORTS
A_I_top O
A_O_top I
A_T_top O
B_I_top O
B_O_top I
B_T_top O
E1BEG[0] O
E1BEG[1] O
E1BEG[2] O
E1BEG[3] O
E2BEG[0] O
E2BEG[1] O
E2BEG[2] O
E2BEG[3] O
E2BEG[4] O
E2BEG[5] O
E2BEG[6] O
E2BEG[7] O
E2BEGb[0] O
E2BEGb[1] O
E2BEGb[2] O
E2BEGb[3] O
E2BEGb[4] O
E2BEGb[5] O
E2BEGb[6] O
E2BEGb[7] O
E6BEG[0] O
E6BEG[10] O
E6BEG[11] O
E6BEG[1] O
E6BEG[2] O
E6BEG[3] O
E6BEG[4] O
E6BEG[5] O
E6BEG[6] O
E6BEG[7] O
E6BEG[8] O
E6BEG[9] O
EE4BEG[0] O
EE4BEG[10] O
EE4BEG[11] O
EE4BEG[12] O
EE4BEG[13] O
EE4BEG[14] O
EE4BEG[15] O
EE4BEG[1] O
EE4BEG[2] O
EE4BEG[3] O
EE4BEG[4] O
EE4BEG[5] O
EE4BEG[6] O
EE4BEG[7] O
EE4BEG[8] O
EE4BEG[9] O
FrameData[0] I
FrameData[10] I
FrameData[11] I
FrameData[12] I
FrameData[13] I
FrameData[14] I
FrameData[15] I
FrameData[16] I
FrameData[17] I
FrameData[18] I
FrameData[19] I
FrameData[1] I
FrameData[20] I
FrameData[21] I
FrameData[22] I
FrameData[23] I
FrameData[24] I
FrameData[25] I
FrameData[26] I
FrameData[27] I
FrameData[28] I
FrameData[29] I
FrameData[2] I
FrameData[30] I
FrameData[31] I
FrameData[3] I
FrameData[4] I
FrameData[5] I
FrameData[6] I
FrameData[7] I
FrameData[8] I
FrameData[9] I
FrameData_O[0] O
FrameData_O[10] O
FrameData_O[11] O
FrameData_O[12] O
FrameData_O[13] O
FrameData_O[14] O
FrameData_O[15] O
FrameData_O[16] O
FrameData_O[17] O
FrameData_O[18] O
FrameData_O[19] O
FrameData_O[1] O
FrameData_O[20] O
FrameData_O[21] O
FrameData_O[22] O
FrameData_O[23] O
FrameData_O[24] O
FrameData_O[25] O
FrameData_O[26] O
FrameData_O[27] O
FrameData_O[28] O
FrameData_O[29] O
FrameData_O[2] O
FrameData_O[30] O
FrameData_O[31] O
FrameData_O[3] O
FrameData_O[4] O
FrameData_O[5] O
FrameData_O[6] O
FrameData_O[7] O
FrameData_O[8] O
FrameData_O[9] O
FrameStrobe[0] I
FrameStrobe[10] I
FrameStrobe[11] I
FrameStrobe[12] I
FrameStrobe[13] I
FrameStrobe[14] I
FrameStrobe[15] I
FrameStrobe[16] I
FrameStrobe[17] I
FrameStrobe[18] I
FrameStrobe[19] I
FrameStrobe[1] I
FrameStrobe[2] I
FrameStrobe[3] I
FrameStrobe[4] I
FrameStrobe[5] I
FrameStrobe[6] I
FrameStrobe[7] I
FrameStrobe[8] I
FrameStrobe[9] I
FrameStrobe_O[0] O
FrameStrobe_O[10] O
FrameStrobe_O[11] O
FrameStrobe_O[12] O
FrameStrobe_O[13] O
FrameStrobe_O[14] O
FrameStrobe_O[15] O
FrameStrobe_O[16] O
FrameStrobe_O[17] O
FrameStrobe_O[18] O
FrameStrobe_O[19] O
FrameStrobe_O[1] O
FrameStrobe_O[2] O
FrameStrobe_O[3] O
FrameStrobe_O[4] O
FrameStrobe_O[5] O
FrameStrobe_O[6] O
FrameStrobe_O[7] O
FrameStrobe_O[8] O
FrameStrobe_O[9] O
UserCLK I
UserCLKo O
W1END[0] I
W1END[1] I
W1END[2] I
W1END[3] I
W2END[0] I
W2END[1] I
W2END[2] I
W2END[3] I
W2END[4] I
W2END[5] I
W2END[6] I
W2END[7] I
W2MID[0] I
W2MID[1] I
W2MID[2] I
W2MID[3] I
W2MID[4] I
W2MID[5] I
W2MID[6] I
W2MID[7] I
W6END[0] I
W6END[10] I
W6END[11] I
W6END[1] I
W6END[2] I
W6END[3] I
W6END[4] I
W6END[5] I
W6END[6] I
W6END[7] I
W6END[8] I
W6END[9] I
WW4END[0] I
WW4END[10] I
WW4END[11] I
WW4END[12] I
WW4END[13] I
WW4END[14] I
WW4END[15] I
WW4END[1] I
WW4END[2] I
WW4END[3] I
WW4END[4] I
WW4END[5] I
WW4END[6] I
WW4END[7] I
WW4END[8] I
WW4END[9] I

*D_NET *1 0.000392773
*CONN
*P A_I_top O
*I *2362:X O *D sg13g2_buf_1
*CAP
1 A_I_top 0.000196386
2 *2362:X 0.000196386
3 A_I_top *422:10 0
*RES
1 *2362:X A_I_top 42.2145 
*END

*D_NET *2 0.000603407
*CONN
*P A_O_top I
*I *2190:A I *D sg13g2_buf_2
*CAP
1 A_O_top 0.000301704
2 *2190:A 0.000301704
3 *2190:A *422:10 0
*RES
1 A_O_top *2190:A 43.5123 
*END

*D_NET *3 0.000256378
*CONN
*P A_T_top O
*I *2363:X O *D sg13g2_buf_1
*CAP
1 A_T_top 0.000128189
2 *2363:X 0.000128189
*RES
1 *2363:X A_T_top 41.6789 
*END

*D_NET *4 0.000453589
*CONN
*P B_I_top O
*I *2364:X O *D sg13g2_buf_1
*CAP
1 B_I_top 0.000187071
2 *2364:X 0.000187071
3 B_I_top *426:26 7.94462e-05
*RES
1 *2364:X B_I_top 42.2145 
*END

*D_NET *5 0.000852537
*CONN
*P B_O_top I
*I *2201:A I *D sg13g2_buf_2
*CAP
1 B_O_top 0.000288933
2 *2201:A 0.000288933
3 *2201:A *426:26 0.00027467
*RES
1 B_O_top *2201:A 43.5123 
*END

*D_NET *6 0.000256378
*CONN
*P B_T_top O
*I *2365:X O *D sg13g2_buf_1
*CAP
1 B_T_top 0.000128189
2 *2365:X 0.000128189
*RES
1 *2365:X B_T_top 41.6789 
*END

*D_NET *7 0.000976566
*CONN
*P E1BEG[0] O
*I *2366:X O *D sg13g2_buf_1
*CAP
1 E1BEG[0] 0.000322816
2 *2366:X 0.000322816
3 E1BEG[0] E1BEG[1] 0
4 E1BEG[0] E1BEG[2] 0
5 E1BEG[0] *2243:A 0
6 E1BEG[0] *2366:A 0
7 E1BEG[0] *606:24 4.77425e-05
8 E1BEG[0] *606:30 0
9 E1BEG[0] *618:24 0.000283191
*RES
1 *2366:X E1BEG[0] 43.2033 
*END

*D_NET *8 0.000471347
*CONN
*P E1BEG[1] O
*I *2367:X O *D sg13g2_buf_1
*CAP
1 E1BEG[1] 0.000235674
2 *2367:X 0.000235674
3 E1BEG[1] *2367:A 0
4 E1BEG[1] *611:12 0
5 E1BEG[0] E1BEG[1] 0
*RES
1 *2367:X E1BEG[1] 42.2145 
*END

*D_NET *9 0.000633397
*CONN
*P E1BEG[2] O
*I *2368:X O *D sg13g2_buf_1
*CAP
1 E1BEG[2] 0.000253651
2 *2368:X 0.000253651
3 E1BEG[2] E1BEG[3] 0
4 E1BEG[2] *431:18 0.000126096
5 E1BEG[2] *442:26 0
6 E1BEG[0] E1BEG[2] 0
*RES
1 *2368:X E1BEG[2] 42.6677 
*END

*D_NET *10 0.000345118
*CONN
*P E1BEG[3] O
*I *2369:X O *D sg13g2_buf_1
*CAP
1 E1BEG[3] 0.000172559
2 *2369:X 0.000172559
3 E1BEG[3] *442:26 0
4 E1BEG[2] E1BEG[3] 0
*RES
1 *2369:X E1BEG[3] 41.6789 
*END

*D_NET *11 0.000969005
*CONN
*P E2BEG[0] O
*I *2370:X O *D sg13g2_buf_1
*CAP
1 E2BEG[0] 0.000199379
2 *2370:X 0.000199379
3 E2BEG[0] E2BEG[1] 0
4 E2BEG[0] E2BEG[2] 0
5 E2BEG[0] *436:20 0.000125014
6 E2BEG[0] *441:18 0
7 E2BEG[0] *442:26 0.000445232
*RES
1 *2370:X E2BEG[0] 42.6677 
*END

*D_NET *12 0.000329898
*CONN
*P E2BEG[1] O
*I *2371:X O *D sg13g2_buf_1
*CAP
1 E2BEG[1] 0.000164949
2 *2371:X 0.000164949
3 E2BEG[1] E2BEG[2] 0
4 E2BEG[0] E2BEG[1] 0
*RES
1 *2371:X E2BEG[1] 41.6789 
*END

*D_NET *13 0.0006938
*CONN
*P E2BEG[2] O
*I *2372:X O *D sg13g2_buf_1
*CAP
1 E2BEG[2] 0.0003469
2 *2372:X 0.0003469
3 E2BEG[2] *439:12 0
4 E2BEG[2] *441:18 0
5 E2BEG[2] *510:14 0
6 E2BEG[0] E2BEG[2] 0
7 E2BEG[1] E2BEG[2] 0
*RES
1 *2372:X E2BEG[2] 42.987 
*END

*D_NET *14 0.00142734
*CONN
*P E2BEG[3] O
*I *2373:X O *D sg13g2_buf_1
*CAP
1 E2BEG[3] 0.000545288
2 *2373:X 0.000545288
3 E2BEG[3] E2BEG[4] 0
4 E2BEG[3] E2BEG[5] 0
5 E2BEG[3] *2375:A 0
6 E2BEG[3] *437:16 0.000128956
7 E2BEG[3] *440:16 0
8 E2BEG[3] *442:26 0
9 E2BEG[3] *510:14 0
10 E2BEG[3] *613:10 0.000207809
*RES
1 *2373:X E2BEG[3] 45.0573 
*END

*D_NET *15 0.000481408
*CONN
*P E2BEG[4] O
*I *2374:X O *D sg13g2_buf_1
*CAP
1 E2BEG[4] 0.000240704
2 *2374:X 0.000240704
3 E2BEG[4] *441:18 0
4 E2BEG[4] *611:12 0
5 E2BEG[3] E2BEG[4] 0
*RES
1 *2374:X E2BEG[4] 42.2145 
*END

*D_NET *16 0.000821888
*CONN
*P E2BEG[5] O
*I *2375:X O *D sg13g2_buf_1
*CAP
1 E2BEG[5] 0.000330646
2 *2375:X 0.000330646
3 E2BEG[5] E2BEG[6] 0
4 E2BEG[5] E2BEG[7] 0
5 E2BEG[5] *433:22 8.02267e-05
6 E2BEG[5] *442:26 8.03692e-05
7 E2BEG[3] E2BEG[5] 0
*RES
1 *2375:X E2BEG[5] 43.2033 
*END

*D_NET *17 0.000413547
*CONN
*P E2BEG[6] O
*I *2376:X O *D sg13g2_buf_1
*CAP
1 E2BEG[6] 0.000206774
2 *2376:X 0.000206774
3 E2BEG[6] *433:22 0
4 E2BEG[6] *611:12 0
5 E2BEG[5] E2BEG[6] 0
*RES
1 *2376:X E2BEG[6] 41.9982 
*END

*D_NET *18 0.000657324
*CONN
*P E2BEG[7] O
*I *2377:X O *D sg13g2_buf_1
*CAP
1 E2BEG[7] 0.000265407
2 *2377:X 0.000265407
3 E2BEG[7] E2BEGb[1] 0
4 E2BEG[7] *443:34 0.00012651
5 E2BEG[5] E2BEG[7] 0
*RES
1 *2377:X E2BEG[7] 42.6677 
*END

*D_NET *19 0.000567506
*CONN
*P E2BEGb[0] O
*I *2273:X O *D sg13g2_buf_1
*CAP
1 E2BEGb[0] 0.000283753
2 *2273:X 0.000283753
3 E2BEGb[0] *507:22 0
4 E2BEGb[0] *611:12 0
*RES
1 *2273:X E2BEGb[0] 42.6471 
*END

*D_NET *20 0.000544863
*CONN
*P E2BEGb[1] O
*I *2274:X O *D sg13g2_buf_1
*CAP
1 E2BEGb[1] 0.000272432
2 *2274:X 0.000272432
3 E2BEGb[1] E2BEGb[2] 0
4 E2BEGb[1] E2BEGb[3] 0
5 E2BEGb[1] *2275:A 0
6 E2BEGb[1] *433:22 0
7 E2BEG[7] E2BEGb[1] 0
*RES
1 *2274:X E2BEGb[1] 42.6677 
*END

*D_NET *21 0.000336095
*CONN
*P E2BEGb[2] O
*I *2275:X O *D sg13g2_buf_1
*CAP
1 E2BEGb[2] 0.000168048
2 *2275:X 0.000168048
3 E2BEGb[2] E2BEGb[3] 0
4 E2BEGb[1] E2BEGb[2] 0
*RES
1 *2275:X E2BEGb[2] 41.6789 
*END

*D_NET *22 0.000677761
*CONN
*P E2BEGb[3] O
*I *2276:X O *D sg13g2_buf_1
*CAP
1 E2BEGb[3] 0.000275239
2 *2276:X 0.000275239
3 E2BEGb[3] E2BEGb[4] 0
4 E2BEGb[3] E2BEGb[5] 0
5 E2BEGb[3] *2275:A 0.000127282
6 E2BEGb[3] *448:20 0
7 E2BEGb[1] E2BEGb[3] 0
8 E2BEGb[2] E2BEGb[3] 0
*RES
1 *2276:X E2BEGb[3] 42.987 
*END

*D_NET *23 0.00046315
*CONN
*P E2BEGb[4] O
*I *2277:X O *D sg13g2_buf_1
*CAP
1 E2BEGb[4] 0.000231575
2 *2277:X 0.000231575
3 E2BEGb[4] *448:20 0
4 E2BEGb[4] *507:22 0
5 E2BEGb[4] *611:12 0
6 E2BEGb[3] E2BEGb[4] 0
*RES
1 *2277:X E2BEGb[4] 42.2145 
*END

*D_NET *24 0.00100052
*CONN
*P E2BEGb[5] O
*I *2278:X O *D sg13g2_buf_1
*CAP
1 E2BEGb[5] 0.000289368
2 *2278:X 0.000289368
3 E2BEGb[5] E2BEGb[6] 0
4 E2BEGb[5] *448:20 0
5 E2BEGb[5] *507:22 7.93968e-05
6 E2BEGb[5] *611:16 0.000342386
7 E2BEGb[3] E2BEGb[5] 0
*RES
1 *2278:X E2BEGb[5] 43.2033 
*END

*D_NET *25 0.000443728
*CONN
*P E2BEGb[6] O
*I *2279:X O *D sg13g2_buf_1
*CAP
1 E2BEGb[6] 0.000221864
2 *2279:X 0.000221864
3 E2BEGb[6] E2BEGb[7] 0
4 E2BEGb[6] *507:22 0
5 E2BEGb[6] *512:26 0
6 E2BEGb[6] *611:16 0
7 E2BEGb[5] E2BEGb[6] 0
*RES
1 *2279:X E2BEGb[6] 42.2145 
*END

*D_NET *26 0.000660988
*CONN
*P E2BEGb[7] O
*I *2280:X O *D sg13g2_buf_1
*CAP
1 E2BEGb[7] 0.000274638
2 *2280:X 0.000274638
3 E2BEGb[7] *512:26 0.000111712
4 E2BEGb[7] *515:24 0
5 E2BEGb[6] E2BEGb[7] 0
*RES
1 *2280:X E2BEGb[7] 42.4308 
*END

*D_NET *27 0.00106572
*CONN
*P E6BEG[0] O
*I *2281:X O *D sg13g2_buf_1
*CAP
1 E6BEG[0] 0.000453046
2 *2281:X 0.000453046
3 E6BEG[0] EE4BEG[15] 0
4 E6BEG[0] *2281:A 7.97219e-05
5 E6BEG[0] *2298:A 7.99037e-05
6 E6BEG[0] *463:8 0
7 E6BEG[0] *469:18 0
*RES
1 *2281:X E6BEG[0] 44.1921 
*END

*D_NET *28 0.0013905
*CONN
*P E6BEG[10] O
*I *2282:X O *D sg13g2_buf_1
*CAP
1 E6BEG[10] 0.00025847
2 *2282:X 0.00025847
3 E6BEG[10] *2331:A 0.000112528
4 E6BEG[10] *454:10 0
5 E6BEG[10] *463:16 0.000287256
6 E6BEG[10] *510:26 0.00047378
*RES
1 *2282:X E6BEG[10] 43.4196 
*END

*D_NET *29 0.000871376
*CONN
*P E6BEG[11] O
*I *2283:X O *D sg13g2_buf_1
*CAP
1 E6BEG[11] 0.00038786
2 *2283:X 0.00038786
3 E6BEG[11] FrameData_O[0] 0
4 E6BEG[11] FrameData_O[1] 1.54556e-05
5 E6BEG[11] *2283:A 0
6 E6BEG[11] *2291:A 0
7 E6BEG[11] *454:18 8.01995e-05
8 E6BEG[11] *510:26 0
9 E6BEG[11] *515:46 0
*RES
1 *2283:X E6BEG[11] 43.6153 
*END

*D_NET *30 0.000847407
*CONN
*P E6BEG[1] O
*I *2284:X O *D sg13g2_buf_1
*CAP
1 E6BEG[1] 0.000367453
2 *2284:X 0.000367453
3 E6BEG[1] E6BEG[2] 0
4 E6BEG[1] EE4BEG[15] 0
5 E6BEG[1] *2331:A 0.000112501
6 E6BEG[1] *463:8 0
7 E6BEG[1] *472:22 0
*RES
1 *2284:X E6BEG[1] 43.4196 
*END

*D_NET *31 0.000764674
*CONN
*P E6BEG[2] O
*I *2285:X O *D sg13g2_buf_1
*CAP
1 E6BEG[2] 0.000374609
2 *2285:X 0.000374609
3 E6BEG[2] E6BEG[3] 0
4 E6BEG[2] E6BEG[4] 1.54556e-05
5 E6BEG[2] *2285:A 0
6 E6BEG[2] *2331:A 0
7 E6BEG[2] *463:16 0
8 E6BEG[2] *472:22 0
9 E6BEG[1] E6BEG[2] 0
*RES
1 *2285:X E6BEG[2] 43.6153 
*END

*D_NET *32 0.00100746
*CONN
*P E6BEG[3] O
*I *2286:X O *D sg13g2_buf_1
*CAP
1 E6BEG[3] 0.000343586
2 *2286:X 0.000343586
3 E6BEG[3] E6BEG[4] 0
4 E6BEG[3] *2285:A 0
5 E6BEG[3] *2331:A 0.00014417
6 E6BEG[3] *457:18 0.000128576
7 E6BEG[3] *461:16 4.75442e-05
8 E6BEG[2] E6BEG[3] 0
*RES
1 *2286:X E6BEG[3] 43.6359 
*END

*D_NET *33 0.000849824
*CONN
*P E6BEG[4] O
*I *2287:X O *D sg13g2_buf_1
*CAP
1 E6BEG[4] 0.000393245
2 *2287:X 0.000393245
3 E6BEG[4] E6BEG[6] 4.78772e-05
4 E6BEG[4] *2285:A 0
5 E6BEG[4] *461:16 0
6 E6BEG[4] *463:16 0
7 E6BEG[2] E6BEG[4] 1.54556e-05
8 E6BEG[3] E6BEG[4] 0
*RES
1 *2287:X E6BEG[4] 43.8316 
*END

*D_NET *34 0.00105955
*CONN
*P E6BEG[5] O
*I *2288:X O *D sg13g2_buf_1
*CAP
1 E6BEG[5] 0.000352403
2 *2288:X 0.000352403
3 E6BEG[5] E6BEG[7] 0
4 E6BEG[5] *2331:A 0.000177442
5 E6BEG[5] *459:28 0
6 E6BEG[5] *461:16 0.0001773
*RES
1 *2288:X E6BEG[5] 43.8522 
*END

*D_NET *35 0.00113019
*CONN
*P E6BEG[6] O
*I *2289:X O *D sg13g2_buf_1
*CAP
1 E6BEG[6] 0.000371444
2 *2289:X 0.000371444
3 E6BEG[6] E6BEG[8] 0
4 E6BEG[6] *461:16 0
5 E6BEG[6] *463:16 0.000339421
6 E6BEG[4] E6BEG[6] 4.78772e-05
*RES
1 *2289:X E6BEG[6] 44.0479 
*END

*D_NET *36 0.00124695
*CONN
*P E6BEG[7] O
*I *2290:X O *D sg13g2_buf_1
*CAP
1 E6BEG[7] 0.000349536
2 *2290:X 0.000349536
3 E6BEG[7] E6BEG[8] 0
4 E6BEG[7] E6BEG[9] 0
5 E6BEG[7] *2331:A 0.000209871
6 E6BEG[7] *459:28 0.000128248
7 E6BEG[7] *461:16 0.000209756
8 E6BEG[5] E6BEG[7] 0
*RES
1 *2290:X E6BEG[7] 44.0685 
*END

*D_NET *37 0.00115323
*CONN
*P E6BEG[8] O
*I *2291:X O *D sg13g2_buf_1
*CAP
1 E6BEG[8] 0.000504827
2 *2291:X 0.000504827
3 E6BEG[8] E6BEG[9] 0
4 E6BEG[8] *2291:A 0.000143571
5 E6BEG[8] *454:18 0
6 E6BEG[8] *461:16 0
7 E6BEG[8] *463:16 0
8 E6BEG[6] E6BEG[8] 0
9 E6BEG[7] E6BEG[8] 0
*RES
1 *2291:X E6BEG[8] 44.6618 
*END

*D_NET *38 0.00112473
*CONN
*P E6BEG[9] O
*I *2292:X O *D sg13g2_buf_1
*CAP
1 E6BEG[9] 0.000418473
2 *2292:X 0.000418473
3 E6BEG[9] *2337:A 7.97574e-05
4 E6BEG[9] *453:16 7.99037e-05
5 E6BEG[9] *454:10 0
6 E6BEG[9] *462:16 0.000128126
7 E6BEG[9] *463:16 0
8 E6BEG[7] E6BEG[9] 0
9 E6BEG[8] E6BEG[9] 0
*RES
1 *2292:X E6BEG[9] 44.1921 
*END

*D_NET *39 0.000730445
*CONN
*P EE4BEG[0] O
*I *2293:X O *D sg13g2_buf_1
*CAP
1 EE4BEG[0] 0.000302045
2 *2293:X 0.000302045
3 EE4BEG[0] EE4BEG[1] 0
4 EE4BEG[0] *451:24 0.000126354
5 EE4BEG[0] *465:26 0
6 EE4BEG[0] *515:24 0
*RES
1 *2293:X EE4BEG[0] 42.6677 
*END

*D_NET *40 0.00102043
*CONN
*P EE4BEG[10] O
*I *2294:X O *D sg13g2_buf_1
*CAP
1 EE4BEG[10] 0.000366088
2 *2294:X 0.000366088
3 EE4BEG[10] EE4BEG[8] 0
4 EE4BEG[10] *2308:A 0.000144055
5 EE4BEG[10] *2331:A 0.000144197
6 EE4BEG[10] *482:8 0
*RES
1 *2294:X EE4BEG[10] 43.6359 
*END

*D_NET *41 0.00107439
*CONN
*P EE4BEG[11] O
*I *2295:X O *D sg13g2_buf_1
*CAP
1 EE4BEG[11] 0.000389769
2 *2295:X 0.000389769
3 EE4BEG[11] EE4BEG[13] 4.78772e-05
4 EE4BEG[11] EE4BEG[9] 1.54285e-05
5 EE4BEG[11] *465:16 2.20966e-05
6 EE4BEG[11] *468:34 0.000209454
7 EE4BEG[11] *510:16 0
8 EE4BEG[11] *512:26 0
*RES
1 *2295:X EE4BEG[11] 43.8316 
*END

*D_NET *42 0.00114606
*CONN
*P EE4BEG[12] O
*I *2296:X O *D sg13g2_buf_1
*CAP
1 EE4BEG[12] 0.000374396
2 *2296:X 0.000374396
3 EE4BEG[12] EE4BEG[14] 0
4 EE4BEG[12] *2297:A 0.000144843
5 EE4BEG[12] *2331:A 0.000177212
6 EE4BEG[12] *468:34 0
7 EE4BEG[12] *470:12 7.52158e-05
*RES
1 *2296:X EE4BEG[12] 43.8522 
*END

*D_NET *43 0.000905835
*CONN
*P EE4BEG[13] O
*I *2297:X O *D sg13g2_buf_1
*CAP
1 EE4BEG[13] 0.000428979
2 *2297:X 0.000428979
3 EE4BEG[13] EE4BEG[15] 0
4 EE4BEG[13] *2297:A 0
5 EE4BEG[13] *510:16 0
6 EE4BEG[13] *512:26 0
7 EE4BEG[11] EE4BEG[13] 4.78772e-05
*RES
1 *2297:X EE4BEG[13] 44.0479 
*END

*D_NET *44 0.00121827
*CONN
*P EE4BEG[14] O
*I *2298:X O *D sg13g2_buf_1
*CAP
1 EE4BEG[14] 0.000399305
2 *2298:X 0.000399305
3 EE4BEG[14] *2297:A 0.000209756
4 EE4BEG[14] *2331:A 0.000209899
5 EE4BEG[14] *512:32 0
6 EE4BEG[12] EE4BEG[14] 0
*RES
1 *2298:X EE4BEG[14] 44.0685 
*END

*D_NET *45 0.00105965
*CONN
*P EE4BEG[15] O
*I *2299:X O *D sg13g2_buf_1
*CAP
1 EE4BEG[15] 0.000529826
2 *2299:X 0.000529826
3 EE4BEG[15] *2297:A 0
4 EE4BEG[15] *2331:A 0
5 EE4BEG[15] *463:16 0
6 EE4BEG[15] *510:16 0
7 EE4BEG[15] *512:32 0
8 E6BEG[0] EE4BEG[15] 0
9 E6BEG[1] EE4BEG[15] 0
10 EE4BEG[13] EE4BEG[15] 0
*RES
1 *2299:X EE4BEG[15] 44.2922 
*END

*D_NET *46 0.000664657
*CONN
*P EE4BEG[1] O
*I *2300:X O *D sg13g2_buf_1
*CAP
1 EE4BEG[1] 0.000260244
2 *2300:X 0.000260244
3 EE4BEG[1] EE4BEG[2] 0
4 EE4BEG[1] *465:26 0
5 EE4BEG[1] *510:16 0
6 EE4BEG[1] *512:26 0.000144169
7 EE4BEG[0] EE4BEG[1] 0
*RES
1 *2300:X EE4BEG[1] 42.6471 
*END

*D_NET *47 0.000791804
*CONN
*P EE4BEG[2] O
*I *2301:X O *D sg13g2_buf_1
*CAP
1 EE4BEG[2] 0.000226035
2 *2301:X 0.000226035
3 EE4BEG[2] EE4BEG[3] 0
4 EE4BEG[2] *465:26 0.000339735
5 EE4BEG[2] *473:16 0
6 EE4BEG[2] *515:34 0
7 EE4BEG[1] EE4BEG[2] 0
*RES
1 *2301:X EE4BEG[2] 42.6677 
*END

*D_NET *48 0.00100289
*CONN
*P EE4BEG[3] O
*I *2302:X O *D sg13g2_buf_1
*CAP
1 EE4BEG[3] 0.000267246
2 *2302:X 0.000267246
3 EE4BEG[3] EE4BEG[4] 0
4 EE4BEG[3] *465:26 0.000143379
5 EE4BEG[3] *512:26 0.000143407
6 EE4BEG[3] *515:34 0.000181608
7 EE4BEG[2] EE4BEG[3] 0
*RES
1 *2302:X EE4BEG[3] 43.0694 
*END

*D_NET *49 0.000696865
*CONN
*P EE4BEG[4] O
*I *2303:X O *D sg13g2_buf_1
*CAP
1 EE4BEG[4] 0.000348433
2 *2303:X 0.000348433
3 EE4BEG[4] EE4BEG[5] 0
4 EE4BEG[4] *468:24 0
5 EE4BEG[4] *475:12 0
6 EE4BEG[4] *515:34 0
7 EE4BEG[3] EE4BEG[4] 0
*RES
1 *2303:X EE4BEG[4] 42.987 
*END

*D_NET *50 0.00101137
*CONN
*P EE4BEG[5] O
*I *2304:X O *D sg13g2_buf_1
*CAP
1 EE4BEG[5] 0.000297357
2 *2304:X 0.000297357
3 EE4BEG[5] EE4BEG[6] 0
4 EE4BEG[5] *465:26 0.000208255
5 EE4BEG[5] *468:24 0
6 EE4BEG[5] *512:26 0.000208397
7 EE4BEG[4] EE4BEG[5] 0
*RES
1 *2304:X EE4BEG[5] 43.0797 
*END

*D_NET *51 0.000803296
*CONN
*P EE4BEG[6] O
*I *2305:X O *D sg13g2_buf_1
*CAP
1 EE4BEG[6] 0.000361555
2 *2305:X 0.000361555
3 EE4BEG[6] EE4BEG[8] 0
4 EE4BEG[6] *2331:A 8.0185e-05
5 EE4BEG[6] *468:24 0
6 EE4BEG[6] *477:46 0
7 EE4BEG[6] *512:26 0
8 EE4BEG[5] EE4BEG[6] 0
*RES
1 *2305:X EE4BEG[6] 43.2033 
*END

*D_NET *52 0.00108973
*CONN
*P EE4BEG[7] O
*I *2306:X O *D sg13g2_buf_1
*CAP
1 EE4BEG[7] 0.000303385
2 *2306:X 0.000303385
3 EE4BEG[7] *465:26 0.000241398
4 EE4BEG[7] *512:26 0.000241567
*RES
1 *2306:X EE4BEG[7] 43.296 
*END

*D_NET *53 0.000846445
*CONN
*P EE4BEG[8] O
*I *2307:X O *D sg13g2_buf_1
*CAP
1 EE4BEG[8] 0.000359329
2 *2307:X 0.000359329
3 EE4BEG[8] *2308:A 1.54008e-05
4 EE4BEG[8] *2331:A 0.000112386
5 EE4BEG[8] *477:46 0
6 EE4BEG[8] *482:8 0
7 EE4BEG[8] *512:26 0
8 EE4BEG[10] EE4BEG[8] 0
9 EE4BEG[6] EE4BEG[8] 0
*RES
1 *2307:X EE4BEG[8] 43.4196 
*END

*D_NET *54 0.00110969
*CONN
*P EE4BEG[9] O
*I *2308:X O *D sg13g2_buf_1
*CAP
1 EE4BEG[9] 0.000337883
2 *2308:X 0.000337883
3 EE4BEG[9] *465:26 0.000177156
4 EE4BEG[9] *512:26 0.000241337
5 EE4BEG[11] EE4BEG[9] 1.54285e-05
*RES
1 *2308:X EE4BEG[9] 43.6153 
*END

*D_NET *55 0.000583326
*CONN
*P FrameData[0] I
*I *2212:A I *D sg13g2_buf_1
*CAP
1 FrameData[0] 0.000291663
2 *2212:A 0.000291663
3 *2212:A *2364:A 0
*RES
1 FrameData[0] *2212:A 43.296 
*END

*D_NET *56 0.000887188
*CONN
*P FrameData[10] I
*I *2223:A I *D sg13g2_buf_1
*CAP
1 FrameData[10] 0.000266657
2 *2223:A 0.000266657
3 *2223:A *2049:D 0.000176508
4 *2223:A *553:48 0.000177367
5 *2223:A *564:8 0
*RES
1 FrameData[10] *2223:A 42.8634 
*END

*D_NET *57 0.000341784
*CONN
*P FrameData[11] I
*I *2234:A I *D sg13g2_buf_1
*CAP
1 FrameData[11] 0.000170892
2 *2234:A 0.000170892
3 *2234:A *434:16 0
*RES
1 FrameData[11] *2234:A 41.9982 
*END

*D_NET *58 0.000357008
*CONN
*P FrameData[12] I
*I *2245:A I *D sg13g2_buf_1
*CAP
1 FrameData[12] 0.000178504
2 *2245:A 0.000178504
3 *2245:A *434:16 0
4 *2245:A *546:20 0
*RES
1 FrameData[12] *2245:A 41.9982 
*END

*D_NET *59 0.000729843
*CONN
*P FrameData[13] I
*I *2256:A I *D sg13g2_buf_1
*CAP
1 FrameData[13] 0.000276513
2 *2256:A 0.000276513
3 *2256:A *467:40 0.000176817
4 *2256:A *546:20 0
5 *2256:A *553:48 0
*RES
1 FrameData[13] *2256:A 42.8634 
*END

*D_NET *60 0.00048285
*CONN
*P FrameData[14] I
*I *2267:A I *D sg13g2_buf_1
*CAP
1 FrameData[14] 0.000177137
2 *2267:A 0.000177137
3 *2267:A *553:48 0.000128576
4 *2267:A *608:8 0
*RES
1 FrameData[14] *2267:A 41.9982 
*END

*D_NET *61 0.000859161
*CONN
*P FrameData[15] I
*I *2272:A I *D sg13g2_buf_1
*CAP
1 FrameData[15] 0.000324703
2 *2272:A 0.000324703
3 *2272:A *467:40 0.000209756
4 *2272:A *511:16 0
5 *2272:A *546:16 0
*RES
1 FrameData[15] *2272:A 43.502 
*END

*D_NET *62 0.00123836
*CONN
*P FrameData[16] I
*I *2191:A I *D sg13g2_buf_1
*CAP
1 FrameData[16] 0.000398447
2 *2191:A 0
3 *62:11 0.000398447
4 *62:11 *445:16 0.000441469
5 *62:11 *500:24 0
*RES
1 FrameData[16] *62:11 44.5938 
2 *62:11 *2191:A 40 
*END

*D_NET *63 0.000967169
*CONN
*P FrameData[17] I
*I *2192:A I *D sg13g2_buf_1
*CAP
1 FrameData[17] 0.000235045
2 *2192:A 0.000235045
3 *2192:A *434:8 0.00049708
4 *2192:A *489:16 0
*RES
1 FrameData[17] *2192:A 42.987 
*END

*D_NET *64 0.000875195
*CONN
*P FrameData[18] I
*I *2193:A I *D sg13g2_buf_1
*CAP
1 FrameData[18] 0.000316505
2 *2193:A 0.000316505
3 *2193:A *489:8 0.000242186
4 *2193:A *546:16 0
*RES
1 FrameData[18] *2193:A 43.296 
*END

*D_NET *65 0.000857617
*CONN
*P FrameData[19] I
*I *2194:A I *D sg13g2_buf_1
*CAP
1 FrameData[19] 0.000251601
2 *2194:A 0.000251601
3 *2194:A *489:8 0.000176817
4 *2194:A *550:12 0.000177597
*RES
1 FrameData[19] *2194:A 42.8634 
*END

*D_NET *66 0.000858769
*CONN
*P FrameData[1] I
*I *2195:A I *D sg13g2_buf_1
*CAP
1 FrameData[1] 0.000340976
2 *2195:A 0.000340976
3 *2195:A *2364:A 0.000176817
4 *2195:A *552:14 0
*RES
1 FrameData[1] *2195:A 43.8522 
*END

*D_NET *67 0.000360319
*CONN
*P FrameData[20] I
*I *2196:A I *D sg13g2_buf_1
*CAP
1 FrameData[20] 0.00018016
2 *2196:A 0.00018016
*RES
1 FrameData[20] *2196:A 41.9982 
*END

*D_NET *68 0.00100678
*CONN
*P FrameData[21] I
*I *2197:A I *D sg13g2_buf_1
*CAP
1 FrameData[21] 0.000285786
2 *2197:A 0.000285786
3 *2197:A *489:8 0.0001773
4 *2197:A *549:12 1.54282e-05
5 *2197:A *550:12 0.000242483
*RES
1 FrameData[21] *2197:A 43.296 
*END

*D_NET *69 0.00077023
*CONN
*P FrameData[22] I
*I *2198:A I *D sg13g2_buf_2
*CAP
1 FrameData[22] 0.000240507
2 *2198:A 0.000240507
3 *2198:A *549:12 0.000144217
4 *2198:A *550:12 0.000144998
*RES
1 FrameData[22] *2198:A 42.6471 
*END

*D_NET *70 0.000576559
*CONN
*P FrameData[23] I
*I *2199:A I *D sg13g2_buf_2
*CAP
1 FrameData[23] 0.000208195
2 *2199:A 0.000208195
3 *2199:A *549:12 8.00842e-05
4 *2199:A *550:12 8.00842e-05
*RES
1 FrameData[23] *2199:A 42.2145 
*END

*D_NET *71 0.00112107
*CONN
*P FrameData[24] I
*I *2200:A I *D sg13g2_buf_2
*CAP
1 FrameData[24] 0.000285718
2 *2200:A 0.000285718
3 *2200:A *549:12 0.00027467
4 *2200:A *550:12 0.000274968
*RES
1 FrameData[24] *2200:A 43.5123 
*END

*D_NET *72 0.000728864
*CONN
*P FrameData[25] I
*I *2202:A I *D sg13g2_buf_2
*CAP
1 FrameData[25] 0.000219682
2 *2202:A 0.000219682
3 *2202:A *549:12 0.00014436
4 *2202:A *550:12 0.00014514
*RES
1 FrameData[25] *2202:A 42.6471 
*END

*D_NET *73 0.000529463
*CONN
*P FrameData[26] I
*I *2203:A I *D sg13g2_buf_2
*CAP
1 FrameData[26] 0.000184504
2 *2203:A 0.000184504
3 *2203:A *549:12 8.02269e-05
4 *2203:A *550:12 8.02269e-05
*RES
1 FrameData[26] *2203:A 42.2145 
*END

*D_NET *74 0.00112011
*CONN
*P FrameData[27] I
*I *2204:A I *D sg13g2_buf_2
*CAP
1 FrameData[27] 0.000285236
2 *2204:A 0.000285236
3 *2204:A *549:12 0.00027467
4 *2204:A *550:12 0.000274968
*RES
1 FrameData[27] *2204:A 43.5123 
*END

*D_NET *75 0.000735954
*CONN
*P FrameData[28] I
*I *2205:A I *D sg13g2_buf_2
*CAP
1 FrameData[28] 0.000223369
2 *2205:A 0.000223369
3 *2205:A *549:12 0.000144217
4 *2205:A *550:12 0.000144998
*RES
1 FrameData[28] *2205:A 42.6471 
*END

*D_NET *76 0.000521169
*CONN
*P FrameData[29] I
*I *2206:A I *D sg13g2_buf_2
*CAP
1 FrameData[29] 0.000180357
2 *2206:A 0.000180357
3 *2206:A *549:12 8.02269e-05
4 *2206:A *550:12 8.02269e-05
*RES
1 FrameData[29] *2206:A 42.2145 
*END

*D_NET *77 0.000786353
*CONN
*P FrameData[2] I
*I *2207:A I *D sg13g2_buf_1
*CAP
1 FrameData[2] 0.00027207
2 *2207:A 0.00027207
3 *2207:A *548:14 0
4 *2207:A *553:10 0.000242213
*RES
1 FrameData[2] *2207:A 43.296 
*END

*D_NET *78 0.00111085
*CONN
*P FrameData[30] I
*I *2208:A I *D sg13g2_buf_2
*CAP
1 FrameData[30] 0.000280607
2 *2208:A 0.000280607
3 *2208:A *549:12 0.00027467
4 *2208:A *550:12 0.000274968
*RES
1 FrameData[30] *2208:A 43.5123 
*END

*D_NET *79 0.000585992
*CONN
*P FrameData[31] I
*I *2209:A I *D sg13g2_buf_2
*CAP
1 FrameData[31] 0.000220816
2 *2209:A 0.000220816
3 *2209:A *550:10 0.00014436
*RES
1 FrameData[31] *2209:A 42.6471 
*END

*D_NET *80 0.0028834
*CONN
*P FrameData[3] I
*I *2210:A I *D sg13g2_buf_1
*CAP
1 FrameData[3] 0.000866293
2 *2210:A 0.000866293
3 *2210:A *2049:D 0
4 *2210:A *548:14 0
5 *2210:A *548:18 0.00115081
6 *2210:A *553:30 0
*RES
1 FrameData[3] *2210:A 49.4554 
*END

*D_NET *81 0.00180819
*CONN
*P FrameData[4] I
*I *2211:A I *D sg13g2_buf_1
*CAP
1 FrameData[4] 0.000468381
2 *2211:A 0.000468381
3 *2211:A *2033:D 0
4 *2211:A *428:16 0
5 *2211:A *467:19 0.000435713
6 *2211:A *553:30 0.000435713
*RES
1 FrameData[4] *2211:A 45.5826 
*END

*D_NET *82 0.000332545
*CONN
*P FrameData[5] I
*I *2213:A I *D sg13g2_buf_1
*CAP
1 FrameData[5] 0.000166272
2 *2213:A 0.000166272
3 *2213:A *2034:D 0
*RES
1 FrameData[5] *2213:A 41.9982 
*END

*D_NET *83 0.000808664
*CONN
*P FrameData[6] I
*I *2214:A I *D sg13g2_buf_1
*CAP
1 FrameData[6] 0.000299396
2 *2214:A 0.000299396
3 *2214:A *2049:D 0.000209871
4 *2214:A *548:18 0
*RES
1 FrameData[6] *2214:A 43.399 
*END

*D_NET *84 0.000740024
*CONN
*P FrameData[7] I
*I *2215:A I *D sg13g2_buf_1
*CAP
1 FrameData[7] 0.000257834
2 *2215:A 0.000257834
3 *2215:A *2049:D 0.000176587
4 *2215:A *548:18 0
5 *2215:A *553:48 4.77702e-05
*RES
1 FrameData[7] *2215:A 42.8634 
*END

*D_NET *85 0.000421153
*CONN
*P FrameData[8] I
*I *2216:A I *D sg13g2_buf_1
*CAP
1 FrameData[8] 0.000146496
2 *2216:A 0.000146496
3 *2216:A *548:22 0.00012816
*RES
1 FrameData[8] *2216:A 41.9982 
*END

*D_NET *86 0.000323287
*CONN
*P FrameData[9] I
*I *2217:A I *D sg13g2_buf_1
*CAP
1 FrameData[9] 0.000161643
2 *2217:A 0.000161643
3 *2217:A *564:8 0
*RES
1 FrameData[9] *2217:A 41.9982 
*END

*D_NET *87 0.00109995
*CONN
*P FrameData_O[0] O
*I *2309:X O *D sg13g2_buf_1
*CAP
1 FrameData_O[0] 0.000314465
2 *2309:X 0.000314465
3 FrameData_O[0] FrameData_O[1] 0
4 FrameData_O[0] *2331:A 0.000144985
5 FrameData_O[0] *454:18 0.000181192
6 FrameData_O[0] *510:26 0.000144843
7 E6BEG[11] FrameData_O[0] 0
*RES
1 *2309:X FrameData_O[0] 43.6359 
*END

*D_NET *88 0.000820269
*CONN
*P FrameData_O[10] O
*I *2310:X O *D sg13g2_buf_1
*CAP
1 FrameData_O[10] 0.000378468
2 *2310:X 0.000378468
3 FrameData_O[10] FrameData_O[11] 0
4 FrameData_O[10] FrameData_O[12] 4.78772e-05
5 FrameData_O[10] FrameData_O[8] 1.54556e-05
6 FrameData_O[10] FrameData_O[9] 0
7 FrameData_O[10] *2310:A 0
*RES
1 *2310:X FrameData_O[10] 43.8316 
*END

*D_NET *89 0.000731888
*CONN
*P FrameData_O[11] O
*I *2311:X O *D sg13g2_buf_1
*CAP
1 FrameData_O[11] 0.000365944
2 *2311:X 0.000365944
3 FrameData_O[11] FrameData_O[12] 0
4 FrameData_O[11] FrameData_O[13] 0
5 FrameData_O[11] FrameData_O[9] 0
6 FrameData_O[11] *2310:A 0
7 FrameData_O[11] *2327:A 0
8 FrameData_O[10] FrameData_O[11] 0
*RES
1 *2311:X FrameData_O[11] 43.8522 
*END

*D_NET *90 0.000795706
*CONN
*P FrameData_O[12] O
*I *2312:X O *D sg13g2_buf_1
*CAP
1 FrameData_O[12] 0.000373914
2 *2312:X 0.000373914
3 FrameData_O[12] FrameData_O[13] 0
4 FrameData_O[12] FrameData_O[14] 0
5 FrameData_O[12] *2310:A 0
6 FrameData_O[10] FrameData_O[12] 4.78772e-05
7 FrameData_O[11] FrameData_O[12] 0
*RES
1 *2312:X FrameData_O[12] 44.0479 
*END

*D_NET *91 0.000795438
*CONN
*P FrameData_O[13] O
*I *2313:X O *D sg13g2_buf_1
*CAP
1 FrameData_O[13] 0.000397719
2 *2313:X 0.000397719
3 FrameData_O[13] FrameData_O[14] 0
4 FrameData_O[13] FrameData_O[15] 0
5 FrameData_O[13] *487:20 0
6 FrameData_O[13] *488:10 0
7 FrameData_O[11] FrameData_O[13] 0
8 FrameData_O[12] FrameData_O[13] 0
*RES
1 *2313:X FrameData_O[13] 44.0685 
*END

*D_NET *92 0.000983355
*CONN
*P FrameData_O[14] O
*I *2314:X O *D sg13g2_buf_1
*CAP
1 FrameData_O[14] 0.000491677
2 *2314:X 0.000491677
3 FrameData_O[14] FrameData_O[15] 0
4 FrameData_O[14] *2314:A 0
5 FrameData_O[12] FrameData_O[14] 0
6 FrameData_O[13] FrameData_O[14] 0
*RES
1 *2314:X FrameData_O[14] 44.7586 
*END

*D_NET *93 0.00134386
*CONN
*P FrameData_O[15] O
*I *2315:X O *D sg13g2_buf_1
*CAP
1 FrameData_O[15] 0.000317754
2 *2315:X 0.000317754
3 FrameData_O[15] FrameData_O[16] 0
4 FrameData_O[15] *2327:A 8.005e-05
5 FrameData_O[15] *486:38 0.000340669
6 FrameData_O[15] *488:10 0.000287637
7 FrameData_O[13] FrameData_O[15] 0
8 FrameData_O[14] FrameData_O[15] 0
*RES
1 *2315:X FrameData_O[15] 44.1921 
*END

*D_NET *94 0.000753531
*CONN
*P FrameData_O[16] O
*I *2316:X O *D sg13g2_buf_1
*CAP
1 FrameData_O[16] 0.000320852
2 *2316:X 0.000320852
3 FrameData_O[16] FrameData_O[17] 0
4 FrameData_O[16] *2314:A 0.000111828
5 FrameData_O[16] *2327:A 0
6 FrameData_O[16] *486:38 0
7 FrameData_O[15] FrameData_O[16] 0
*RES
1 *2316:X FrameData_O[16] 43.4196 
*END

*D_NET *95 0.000714767
*CONN
*P FrameData_O[17] O
*I *2317:X O *D sg13g2_buf_1
*CAP
1 FrameData_O[17] 0.000349656
2 *2317:X 0.000349656
3 FrameData_O[17] FrameData_O[18] 0
4 FrameData_O[17] FrameData_O[19] 1.54556e-05
5 FrameData_O[17] *2314:A 0
6 FrameData_O[17] *2317:A 0
7 FrameData_O[16] FrameData_O[17] 0
*RES
1 *2317:X FrameData_O[17] 43.6153 
*END

*D_NET *96 0.000807042
*CONN
*P FrameData_O[18] O
*I *2318:X O *D sg13g2_buf_1
*CAP
1 FrameData_O[18] 0.00033919
2 *2318:X 0.00033919
3 FrameData_O[18] FrameData_O[19] 0
4 FrameData_O[18] *2317:A 0
5 FrameData_O[18] *2327:A 0
6 FrameData_O[18] *492:18 0.000128662
7 FrameData_O[17] FrameData_O[18] 0
*RES
1 *2318:X FrameData_O[18] 43.6359 
*END

*D_NET *97 0.00077205
*CONN
*P FrameData_O[19] O
*I *2319:X O *D sg13g2_buf_1
*CAP
1 FrameData_O[19] 0.000354359
2 *2319:X 0.000354359
3 FrameData_O[19] FrameData_O[20] 0
4 FrameData_O[19] FrameData_O[21] 4.78772e-05
5 FrameData_O[19] *2317:A 0
6 FrameData_O[17] FrameData_O[19] 1.54556e-05
7 FrameData_O[18] FrameData_O[19] 0
*RES
1 *2319:X FrameData_O[19] 43.8316 
*END

*D_NET *98 0.000845788
*CONN
*P FrameData_O[1] O
*I *2320:X O *D sg13g2_buf_1
*CAP
1 FrameData_O[1] 0.000391228
2 *2320:X 0.000391228
3 FrameData_O[1] FrameData_O[2] 0
4 FrameData_O[1] FrameData_O[3] 4.78772e-05
5 FrameData_O[1] *2283:A 0
6 FrameData_O[1] *510:26 0
7 FrameData_O[1] *515:46 0
8 E6BEG[11] FrameData_O[1] 1.54556e-05
9 FrameData_O[0] FrameData_O[1] 0
*RES
1 *2320:X FrameData_O[1] 43.8316 
*END

*D_NET *99 0.000718082
*CONN
*P FrameData_O[20] O
*I *2321:X O *D sg13g2_buf_1
*CAP
1 FrameData_O[20] 0.000359041
2 *2321:X 0.000359041
3 FrameData_O[20] FrameData_O[21] 0
4 FrameData_O[20] FrameData_O[22] 0
5 FrameData_O[20] *2327:A 0
6 FrameData_O[20] *494:16 0
7 FrameData_O[19] FrameData_O[20] 0
*RES
1 *2321:X FrameData_O[20] 43.6674 
*END

*D_NET *100 0.000805097
*CONN
*P FrameData_O[21] O
*I *2322:X O *D sg13g2_buf_1
*CAP
1 FrameData_O[21] 0.00037861
2 *2322:X 0.00037861
3 FrameData_O[21] FrameData_O[22] 0
4 FrameData_O[21] FrameData_O[23] 0
5 FrameData_O[21] *2321:A 0
6 FrameData_O[21] *2324:A 0
7 FrameData_O[19] FrameData_O[21] 4.78772e-05
8 FrameData_O[20] FrameData_O[21] 0
*RES
1 *2322:X FrameData_O[21] 44.0479 
*END

*D_NET *101 0.00107793
*CONN
*P FrameData_O[22] O
*I *2323:X O *D sg13g2_buf_1
*CAP
1 FrameData_O[22] 0.000348125
2 *2323:X 0.000348125
3 FrameData_O[22] FrameData_O[23] 0
4 FrameData_O[22] FrameData_O[24] 0
5 FrameData_O[22] *2324:A 0.0001773
6 FrameData_O[22] *2327:A 0
7 FrameData_O[22] *494:16 0.000129163
8 FrameData_O[22] *499:18 7.52158e-05
9 FrameData_O[20] FrameData_O[22] 0
10 FrameData_O[21] FrameData_O[22] 0
*RES
1 *2323:X FrameData_O[22] 44.0685 
*END

*D_NET *102 0.00100759
*CONN
*P FrameData_O[23] O
*I *2324:X O *D sg13g2_buf_1
*CAP
1 FrameData_O[23] 0.000503797
2 *2324:X 0.000503797
3 FrameData_O[23] FrameData_O[24] 0
4 FrameData_O[23] FrameData_O[25] 0
5 FrameData_O[23] *2324:A 0
6 FrameData_O[21] FrameData_O[23] 0
7 FrameData_O[22] FrameData_O[23] 0
*RES
1 *2324:X FrameData_O[23] 44.7586 
*END

*D_NET *103 0.00123118
*CONN
*P FrameData_O[24] O
*I *2325:X O *D sg13g2_buf_1
*CAP
1 FrameData_O[24] 0.000333354
2 *2325:X 0.000333354
3 FrameData_O[24] FrameData_O[25] 0
4 FrameData_O[24] *2327:A 8.00842e-05
5 FrameData_O[24] *110:8 0
6 FrameData_O[24] *127:17 1.54008e-05
7 FrameData_O[24] *497:18 0.000340669
8 FrameData_O[24] *498:32 0.000128315
9 FrameData_O[24] *499:18 0
10 FrameData_O[22] FrameData_O[24] 0
11 FrameData_O[23] FrameData_O[24] 0
*RES
1 *2325:X FrameData_O[24] 44.1921 
*END

*D_NET *104 0.0012836
*CONN
*P FrameData_O[25] O
*I *2326:X O *D sg13g2_buf_1
*CAP
1 FrameData_O[25] 0.000435002
2 *2326:X 0.000435002
3 FrameData_O[25] FrameData_O[26] 0
4 FrameData_O[25] FrameData_O[30] 0.000338381
5 FrameData_O[25] *2324:A 0
6 FrameData_O[25] *110:8 7.52149e-05
7 FrameData_O[23] FrameData_O[25] 0
8 FrameData_O[24] FrameData_O[25] 0
*RES
1 *2326:X FrameData_O[25] 44.5835 
*END

*D_NET *105 0.00100985
*CONN
*P FrameData_O[26] O
*I *2327:X O *D sg13g2_buf_1
*CAP
1 FrameData_O[26] 0.000457083
2 *2327:X 0.000457083
3 FrameData_O[26] FrameData_O[27] 0
4 FrameData_O[26] *2324:A 4.77702e-05
5 FrameData_O[26] *2327:A 0
6 FrameData_O[26] *110:8 0
7 FrameData_O[26] *129:25 4.79124e-05
8 FrameData_O[25] FrameData_O[26] 0
*RES
1 *2327:X FrameData_O[26] 44.5011 
*END

*D_NET *106 0.0014156
*CONN
*P FrameData_O[27] O
*I *2328:X O *D sg13g2_buf_1
*CAP
1 FrameData_O[27] 0.000676474
2 *2328:X 0.000676474
3 FrameData_O[27] FrameData_O[28] 4.72663e-05
4 FrameData_O[27] *2328:A 1.53846e-05
5 FrameData_O[27] *110:8 0
6 FrameData_O[27] *129:25 0
7 FrameData_O[26] FrameData_O[27] 0
*RES
1 *2328:X FrameData_O[27] 46.9525 
*END

*D_NET *107 0.00194044
*CONN
*P FrameData_O[28] O
*I *2329:X O *D sg13g2_buf_1
*CAP
1 FrameData_O[28] 0.000655187
2 *2329:X 0.000655187
3 FrameData_O[28] FrameData_O[29] 0
4 FrameData_O[28] *2328:A 0
5 FrameData_O[28] *2350:A 0.000111334
6 FrameData_O[28] *502:24 7.56308e-05
7 FrameData_O[28] *527:12 0.00039583
8 FrameData_O[27] FrameData_O[28] 4.72663e-05
*RES
1 *2329:X FrameData_O[28] 47.1585 
*END

*D_NET *108 0.0017573
*CONN
*P FrameData_O[29] O
*I *2330:X O *D sg13g2_buf_1
*CAP
1 FrameData_O[29] 0.000878649
2 *2330:X 0.000878649
3 FrameData_O[29] FrameData_O[30] 0
4 FrameData_O[29] FrameData_O[31] 0
5 FrameData_O[29] *2349:A 0
6 FrameData_O[29] *502:24 0
7 FrameData_O[29] *506:14 0
8 FrameData_O[28] FrameData_O[29] 0
*RES
1 *2330:X FrameData_O[29] 49.4245 
*END

*D_NET *109 0.00105413
*CONN
*P FrameData_O[2] O
*I *2331:X O *D sg13g2_buf_1
*CAP
1 FrameData_O[2] 0.000349692
2 *2331:X 0.000349692
3 FrameData_O[2] FrameData_O[3] 0
4 FrameData_O[2] FrameData_O[4] 0
5 FrameData_O[2] *2331:A 0.000177442
6 FrameData_O[2] *495:26 0
7 FrameData_O[2] *510:26 0.0001773
8 FrameData_O[1] FrameData_O[2] 0
*RES
1 *2331:X FrameData_O[2] 43.8522 
*END

*D_NET *110 0.00267757
*CONN
*P FrameData_O[30] O
*I *2332:X O *D sg13g2_buf_1
*CAP
1 FrameData_O[30] 0.00054932
2 *2332:X 0.00029441
3 *110:8 0.000843729
4 FrameData_O[30] FrameData_O[31] 0
5 FrameData_O[30] FrameStrobe_O[19] 0
6 FrameData_O[30] *2326:A 0
7 *110:8 *127:17 0.000182216
8 *110:8 *129:25 0.000394295
9 *110:8 *497:18 0
10 FrameData_O[24] *110:8 0
11 FrameData_O[25] FrameData_O[30] 0.000338381
12 FrameData_O[25] *110:8 7.52149e-05
13 FrameData_O[26] *110:8 0
14 FrameData_O[27] *110:8 0
15 FrameData_O[29] FrameData_O[30] 0
*RES
1 *2332:X *110:8 43.5638 
2 *110:8 FrameData_O[30] 45.8298 
*END

*D_NET *111 0.00185562
*CONN
*P FrameData_O[31] O
*I *2333:X O *D sg13g2_buf_1
*CAP
1 FrameData_O[31] 0.000553734
2 *2333:X 0.000374076
3 *111:8 0.00092781
4 *111:8 FrameStrobe_O[18] 0
5 *111:8 *2328:A 0
6 *111:8 *2349:A 0
7 FrameData_O[29] FrameData_O[31] 0
8 FrameData_O[30] FrameData_O[31] 0
*RES
1 *2333:X *111:8 43.5638 
2 *111:8 FrameData_O[31] 6.8701 
*END

*D_NET *112 0.00112615
*CONN
*P FrameData_O[3] O
*I *2334:X O *D sg13g2_buf_1
*CAP
1 FrameData_O[3] 0.000369426
2 *2334:X 0.000369426
3 FrameData_O[3] FrameData_O[4] 0
4 FrameData_O[3] FrameData_O[5] 0
5 FrameData_O[3] *510:26 0
6 FrameData_O[3] *515:46 0.000339421
7 FrameData_O[1] FrameData_O[3] 4.78772e-05
8 FrameData_O[2] FrameData_O[3] 0
*RES
1 *2334:X FrameData_O[3] 44.0479 
*END

*D_NET *113 0.00121832
*CONN
*P FrameData_O[4] O
*I *2335:X O *D sg13g2_buf_1
*CAP
1 FrameData_O[4] 0.000351506
2 *2335:X 0.000351506
3 FrameData_O[4] FrameData_O[5] 0
4 FrameData_O[4] FrameData_O[6] 0
5 FrameData_O[4] *2339:A 0.0001773
6 FrameData_O[4] *495:26 0.000128248
7 FrameData_O[4] *510:26 0.000209756
8 FrameData_O[2] FrameData_O[4] 0
9 FrameData_O[3] FrameData_O[4] 0
*RES
1 *2335:X FrameData_O[4] 44.0685 
*END

*D_NET *114 0.00102693
*CONN
*P FrameData_O[5] O
*I *2336:X O *D sg13g2_buf_1
*CAP
1 FrameData_O[5] 0.000513466
2 *2336:X 0.000513466
3 FrameData_O[5] FrameData_O[6] 0
4 FrameData_O[5] *2310:A 0
5 FrameData_O[5] *510:26 0
6 FrameData_O[5] *515:46 0
7 FrameData_O[3] FrameData_O[5] 0
8 FrameData_O[4] FrameData_O[5] 0
*RES
1 *2336:X FrameData_O[5] 44.477 
*END

*D_NET *115 0.00140846
*CONN
*P FrameData_O[6] O
*I *2337:X O *D sg13g2_buf_1
*CAP
1 FrameData_O[6] 0.000321278
2 *2337:X 0.000321278
3 FrameData_O[6] FrameData_O[7] 0
4 FrameData_O[6] *2337:A 7.97219e-05
5 FrameData_O[6] *484:10 0
6 FrameData_O[6] *512:38 0.000606278
7 FrameData_O[6] *516:22 0
8 FrameData_O[6] *517:28 7.99037e-05
9 FrameData_O[4] FrameData_O[6] 0
10 FrameData_O[5] FrameData_O[6] 0
*RES
1 *2337:X FrameData_O[6] 44.1921 
*END

*D_NET *116 0.00123579
*CONN
*P FrameData_O[7] O
*I *2338:X O *D sg13g2_buf_1
*CAP
1 FrameData_O[7] 0.000272025
2 *2338:X 0.000272025
3 FrameData_O[7] FrameData_O[8] 0
4 FrameData_O[7] *2310:A 0.00011123
5 FrameData_O[7] *2339:A 0.00011123
6 FrameData_O[7] *484:10 7.51285e-05
7 FrameData_O[7] *512:38 0
8 FrameData_O[7] *515:54 0.000394151
9 FrameData_O[6] FrameData_O[7] 0
*RES
1 *2338:X FrameData_O[7] 43.4196 
*END

*D_NET *117 0.000852219
*CONN
*P FrameData_O[8] O
*I *2339:X O *D sg13g2_buf_1
*CAP
1 FrameData_O[8] 0.000329776
2 *2339:X 0.000329776
3 FrameData_O[8] FrameData_O[9] 0
4 FrameData_O[8] *2310:A 0.000177212
5 FrameData_O[8] *515:54 0
6 FrameData_O[10] FrameData_O[8] 1.54556e-05
7 FrameData_O[7] FrameData_O[8] 0
*RES
1 *2339:X FrameData_O[8] 43.6153 
*END

*D_NET *118 0.000817159
*CONN
*P FrameData_O[9] O
*I *2340:X O *D sg13g2_buf_1
*CAP
1 FrameData_O[9] 0.000336087
2 *2340:X 0.000336087
3 FrameData_O[9] *2310:A 0
4 FrameData_O[9] *2339:A 0.000144985
5 FrameData_O[9] *513:30 0
6 FrameData_O[10] FrameData_O[9] 0
7 FrameData_O[11] FrameData_O[9] 0
8 FrameData_O[8] FrameData_O[9] 0
*RES
1 *2340:X FrameData_O[9] 43.6359 
*END

*D_NET *119 0.0199717
*CONN
*P FrameStrobe[0] I
*I *2189:A I *D sg13g2_buf_2
*CAP
1 FrameStrobe[0] 0.00176424
2 *2189:A 0
3 *119:17 0
4 *119:13 0.00455432
5 *119:11 0.00455432
6 *119:9 0.00176424
7 *119:9 *159:9 0.00626974
8 *119:9 *583:20 0
9 *119:13 *136:13 0
10 *119:13 *159:13 0
11 *119:13 *498:28 0
12 *119:13 *499:14 0.00106484
*RES
1 FrameStrobe[0] *119:9 49.4065 
2 *119:9 *119:11 20 
3 *119:11 *119:13 45.3097 
4 *119:13 *119:17 40 
5 *119:17 *2189:A 20 
*END

*D_NET *120 0.0212545
*CONN
*P FrameStrobe[10] I
*I *2133:A I *D sg13g2_buf_1
*CAP
1 FrameStrobe[10] 0.00105247
2 *2133:A 0
3 *120:17 0
4 *120:13 0.00850028
5 *120:11 0.00850028
6 *120:9 0.00105247
7 *120:9 *121:11 0.00124542
8 *120:9 *123:11 0
9 *120:9 *136:9 0
10 *120:9 *138:11 0
11 *120:9 *559:14 0.00034245
12 *120:9 *561:12 0
13 *120:9 *561:18 0
14 *120:9 *582:12 0.000449257
15 *120:9 *583:20 0.000111876
16 *120:13 *121:13 0
17 *120:13 *123:13 0
*RES
1 FrameStrobe[10] *120:9 32.2879 
2 *120:9 *120:11 20 
3 *120:11 *120:13 103.494 
4 *120:13 *120:17 40 
5 *120:17 *2133:A 20 
*END

*D_NET *121 0.020386
*CONN
*P FrameStrobe[11] I
*I *2134:A I *D sg13g2_buf_1
*CAP
1 FrameStrobe[11] 0.000686364
2 *2134:A 0
3 *121:17 0
4 *121:13 0.00873737
5 *121:11 0.00942374
6 *121:11 *122:11 0
7 *121:11 *123:11 0.00018091
8 *121:11 *134:9 0
9 *121:11 *561:18 0.000112228
10 *121:13 *430:14 0
11 *121:13 *536:14 0
12 *120:9 *121:11 0.00124542
13 *120:13 *121:13 0
*RES
1 FrameStrobe[11] *121:11 48.549 
2 *121:11 *121:13 102.081 
3 *121:13 *121:17 40 
4 *121:17 *2134:A 20 
*END

*D_NET *122 0.0274672
*CONN
*P FrameStrobe[12] I
*I *2135:A I *D sg13g2_buf_1
*CAP
1 FrameStrobe[12] 0.000678803
2 *2135:A 0.00238787
3 *122:25 0.00648096
4 *122:21 0.00417339
5 *122:13 0.00438281
6 *122:11 0.00498132
7 *2135:A *487:14 0
8 *2135:A *492:14 0
9 *2135:A *494:12 0
10 *2135:A *517:20 0
11 *122:11 *123:11 0.000287291
12 *122:11 *134:9 0
13 *122:11 *536:10 0
14 *122:11 *593:14 0
15 *122:13 *2006:D 0
16 *122:13 *2155:A 8.00842e-05
17 *122:13 *440:12 0
18 *122:13 *451:12 0
19 *122:13 *558:33 0
20 *122:13 *582:14 0
21 *122:21 *447:12 0
22 *122:21 *451:12 7.52149e-05
23 *122:21 *606:30 0
24 *122:25 *1932:A1 4.77425e-05
25 *122:25 *348:10 8.01116e-05
26 *122:25 *440:12 0
27 *122:25 *451:12 4.77425e-05
28 *122:25 *451:20 0
29 *122:25 *454:6 0.00376386
30 *122:25 *458:20 0
31 *122:25 *462:8 0
32 *122:25 *462:12 0
33 *122:25 *487:14 0
34 *122:25 *517:16 0
35 *122:25 *517:20 0
36 *122:25 *558:33 0
37 *121:11 *122:11 0
*RES
1 FrameStrobe[12] *122:11 47.004 
2 *122:11 *122:13 21.2689 
3 *122:13 *122:21 41.1021 
4 *122:21 *122:25 40.9013 
5 *122:25 *2135:A 44.0196 
*END

*D_NET *123 0.0189449
*CONN
*P FrameStrobe[13] I
*I *2136:A I *D sg13g2_buf_1
*CAP
1 FrameStrobe[13] 0.000584025
2 *2136:A 0
3 *123:17 0
4 *123:13 0.00845415
5 *123:11 0.00903817
6 *123:11 *124:11 0.000287911
7 *123:11 *536:10 0
8 *123:11 *582:12 0
9 *123:11 *582:14 0.000112426
10 *120:9 *123:11 0
11 *120:13 *123:13 0
12 *121:11 *123:11 0.00018091
13 *122:11 *123:11 0.000287291
*RES
1 FrameStrobe[13] *123:11 46.7877 
2 *123:11 *123:13 103.062 
3 *123:13 *123:17 40 
4 *123:17 *2136:A 20 
*END

*D_NET *124 0.0251397
*CONN
*P FrameStrobe[14] I
*I *2137:A I *D sg13g2_buf_1
*CAP
1 FrameStrobe[14] 0.000783909
2 *2137:A 0
3 *124:13 0.0107414
4 *124:11 0.0115253
5 *124:11 *125:5 0
6 *124:11 *128:11 0.000233491
7 *124:11 *536:10 0
8 *124:11 *582:12 0
9 *124:13 *126:5 0
10 *124:13 *127:7 0
11 *124:13 *502:24 0.00156776
12 *124:13 *506:14 0
13 *124:13 *509:12 0
14 *124:13 *516:22 0
15 *123:11 *124:11 0.000287911
*RES
1 FrameStrobe[14] *124:11 48.9816 
2 *124:11 *124:13 102.845 
3 *124:13 *2137:A 20 
*END

*D_NET *125 0.0279889
*CONN
*P FrameStrobe[15] I
*I *2138:A I *D sg13g2_buf_1
*CAP
1 FrameStrobe[15] 0.00861255
2 *2138:A 0.00218774
3 *125:5 0.0108003
4 *2138:A *2139:A 9.08521e-05
5 *2138:A *126:5 0
6 *2138:A *502:12 0.00169846
7 *125:5 *126:5 0
8 *125:5 *431:18 0
9 *125:5 *436:16 0.00459897
10 *125:5 *437:12 0
11 *125:5 *457:12 0
12 *125:5 *458:26 0
13 *125:5 *476:14 0
14 *125:5 *492:14 0
15 *125:5 *502:12 0
16 *124:11 *125:5 0
*RES
1 FrameStrobe[15] *125:5 84.3055 
2 *125:5 *2138:A 43.9166 
*END

*D_NET *126 0.0240937
*CONN
*P FrameStrobe[16] I
*I *2139:A I *D sg13g2_buf_1
*CAP
1 FrameStrobe[16] 0.0117795
2 *2139:A 0.000221934
3 *126:5 0.0120014
4 *2139:A FrameStrobe_O[16] 0
5 *2139:A *2347:A 0
6 *126:5 *127:7 0
7 *126:5 *457:12 0
8 *126:5 *472:14 0
9 *126:5 *502:12 0
10 *126:5 *502:24 0
11 *2138:A *2139:A 9.08521e-05
12 *2138:A *126:5 0
13 *124:13 *126:5 0
14 *125:5 *126:5 0
*RES
1 FrameStrobe[16] *126:5 106.368 
2 *126:5 *2139:A 22.9252 
*END

*D_NET *127 0.0280865
*CONN
*P FrameStrobe[17] I
*I *2140:A I *D sg13g2_buf_1
*CAP
1 FrameStrobe[17] 0.00042212
2 *2140:A 0
3 *127:17 0.000434507
4 *127:9 0.0113492
5 *127:7 0.0113368
6 *127:7 *2221:A 0
7 *127:7 *582:8 0
8 *127:9 *2219:A 0
9 *127:9 *459:28 0
10 *127:9 *504:12 0
11 *127:9 *505:18 0
12 *127:9 *506:14 0
13 *127:9 *560:10 0
14 *127:9 *595:12 0
15 *127:9 *614:16 0.00363374
16 *127:17 *2327:A 0
17 *127:17 *128:21 0
18 *127:17 *129:25 0
19 *127:17 *497:18 0.00071254
20 FrameData_O[24] *127:17 1.54008e-05
21 *110:8 *127:17 0.000182216
22 *124:13 *127:7 0
23 *126:5 *127:7 0
*RES
1 FrameStrobe[17] *127:7 4.5011 
2 *127:7 *127:9 101.027 
3 *127:9 *127:17 44.9337 
4 *127:17 *2140:A 20 
*END

*D_NET *128 0.0243781
*CONN
*P FrameStrobe[18] I
*I *2141:A I *D sg13g2_buf_1
*CAP
1 FrameStrobe[18] 0.000735877
2 *2141:A 0
3 *128:21 0.000776387
4 *128:13 0.0111443
5 *128:11 0.0111038
6 *128:11 *2220:A 0.000272246
7 *128:11 *536:10 0
8 *128:11 *561:8 0.000111908
9 *128:11 *561:12 0
10 *128:11 *582:12 0
11 *128:13 *129:17 0
12 *128:21 *2328:A 0
13 *128:21 *129:25 0
14 *128:21 *509:18 0
15 *128:21 *526:8 0
16 *128:21 *527:12 0
17 *124:11 *128:11 0.000233491
18 *127:17 *128:21 0
*RES
1 FrameStrobe[18] *128:11 48.2709 
2 *128:11 *128:13 102.413 
3 *128:13 *128:21 46.7877 
4 *128:21 *2141:A 20 
*END

*D_NET *129 0.0276362
*CONN
*P FrameStrobe[19] I
*I *2142:A I *D sg13g2_buf_1
*CAP
1 FrameStrobe[19] 0.00141106
2 *2142:A 0
3 *129:25 0.000957365
4 *129:17 0.0109946
5 *129:15 0.0100373
6 *129:13 0.00141106
7 *129:13 *2232:A 0.000144771
8 *129:13 *2235:A 0
9 *129:13 *2236:A 7.53209e-05
10 *129:13 *134:9 0
11 *129:13 *163:13 0
12 *129:13 *593:10 0
13 *129:13 *594:8 0
14 *129:13 *595:8 0
15 *129:13 *596:12 0
16 *129:17 *447:18 0.00198577
17 *129:25 *2324:A 0
18 *129:25 *2327:A 0.000176741
19 *129:25 *497:18 0
20 FrameData_O[26] *129:25 4.79124e-05
21 FrameData_O[27] *129:25 0
22 *110:8 *129:25 0.000394295
23 *127:17 *129:25 0
24 *128:13 *129:17 0
25 *128:21 *129:25 0
*RES
1 FrameStrobe[19] *129:13 34.4715 
2 *129:13 *129:15 20 
3 *129:15 *129:17 98.9521 
4 *129:17 *129:25 48.7035 
5 *129:25 *2142:A 20 
*END

*D_NET *130 0.0124332
*CONN
*P FrameStrobe[1] I
*I *2183:A I *D sg13g2_buf_2
*I *2180:A I *D sg13g2_buf_8
*CAP
1 FrameStrobe[1] 0.00175742
2 *2183:A 0.0002442
3 *2180:A 2.18381e-05
4 *130:21 0.000683911
5 *130:13 0.00385763
6 *130:11 0.00343976
7 *130:9 0.00175742
8 *2183:A *449:16 0
9 *2183:A *562:28 0
10 *130:9 *2120:A 0
11 *130:9 *131:11 0
12 *130:9 *328:16 0
13 *130:9 *328:22 0.0001814
14 *130:9 *506:8 0
15 *130:9 *549:86 0
16 *130:13 *550:46 0
17 *130:13 *611:39 0
18 *130:21 *2041:D 0
19 *130:21 *2042:D 0
20 *130:21 *449:16 0
21 *130:21 *507:8 7.61838e-05
22 *130:21 *562:28 0
23 *130:21 *571:10 0.000236294
24 *130:21 *575:10 0.000177127
*RES
1 FrameStrobe[1] *130:9 38.4988 
2 *130:9 *130:11 20 
3 *130:11 *130:13 34.0621 
4 *130:13 *130:21 43.5497 
5 *130:21 *2180:A 20.3502 
6 *130:21 *2183:A 22.6368 
*END

*D_NET *131 0.0226864
*CONN
*P FrameStrobe[2] I
*I *2178:A I *D sg13g2_buf_1
*CAP
1 FrameStrobe[2] 0.000743088
2 *2178:A 0
3 *131:25 0.00444557
4 *131:23 0.00444557
5 *131:21 0.00238784
6 *131:11 0.00313092
7 *131:11 *2218:A 0
8 *131:21 *2002:D 0
9 *131:21 *2050:D 0.000825494
10 *131:21 *2120:A 0
11 *131:21 *422:10 0
12 *131:21 *426:26 0
13 *131:21 *427:14 0
14 *131:21 *533:20 0
15 *131:21 *554:29 0
16 *131:21 *587:63 0
17 *131:25 *1970:D 6.48261e-05
18 *131:25 *2034:D 0
19 *131:25 *2111:A 4.77702e-05
20 *131:25 *456:14 0
21 *131:25 *467:19 0
22 *131:25 *478:28 0
23 *131:25 *483:12 0
24 *131:25 *489:16 0.000890063
25 *131:25 *489:24 0.000371925
26 *131:25 *489:36 0.000565908
27 *131:25 *489:38 0.000824033
28 *131:25 *489:46 0.000242071
29 *131:25 *495:16 4.79124e-05
30 *131:25 *496:12 0.000824273
31 *131:25 *496:18 0
32 *131:25 *496:22 0.000177555
33 *131:25 *497:8 0.000112501
34 *131:25 *546:33 0
35 *131:25 *546:43 0
36 *131:25 *546:51 0
37 *131:25 *547:16 0
38 *131:25 *552:8 0.000242186
39 *131:25 *552:14 0.000954878
40 *131:25 *553:52 4.3635e-05
41 *131:25 *553:69 8.44769e-05
42 *131:25 *554:29 0.00121386
43 *131:25 *565:22 0
44 *131:25 *587:67 0
45 *130:9 *131:11 0
*RES
1 FrameStrobe[2] *131:11 48.7344 
2 *131:11 *131:21 45.8427 
3 *131:21 *131:23 20 
4 *131:23 *131:25 45.526 
5 *131:25 *2178:A 20 
*END

*D_NET *132 0.000564231
*CONN
*P FrameStrobe[3] I
*I *2218:A I *D sg13g2_buf_2
*CAP
1 FrameStrobe[3] 0.000282116
2 *2218:A 0.000282116
3 *2218:A *133:9 0
4 *131:11 *2218:A 0
*RES
1 FrameStrobe[3] *2218:A 23.1106 
*END

*D_NET *133 0.0260388
*CONN
*P FrameStrobe[4] I
*I *2127:A I *D sg13g2_buf_1
*CAP
1 FrameStrobe[4] 0.000296046
2 *2127:A 0
3 *133:37 0.000786453
4 *133:31 0.0048616
5 *133:21 0.00458044
6 *133:11 0.00573911
7 *133:9 0.00552986
8 *133:9 *134:7 0
9 *133:11 *224:40 8.09323e-05
10 *133:11 *227:18 0
11 *133:11 *279:22 0
12 *133:11 *282:12 0
13 *133:11 *409:12 0
14 *133:11 *474:16 0
15 *133:11 *532:12 0
16 *133:11 *562:50 0
17 *133:11 *590:41 0
18 *133:11 *590:49 0
19 *133:11 *590:74 0.00151901
20 *133:21 *1906:S1 0.000235217
21 *133:21 *474:18 0.000445467
22 *133:21 *493:18 0.000498715
23 *133:21 *497:12 0
24 *133:21 *627:34 0
25 *133:31 *1913:S0 4.77699e-05
26 *133:31 *1913:A0 0
27 *133:31 *2011:D 4.77425e-05
28 *133:31 *2105:A 0
29 *133:31 *2355:A 0
30 *133:31 *283:10 0.000726431
31 *133:31 *460:44 0
32 *133:31 *488:6 0
33 *133:31 *493:20 0
34 *133:31 *620:63 0.000144998
35 *133:31 *627:34 1.54008e-05
36 *133:31 *627:49 0.000483621
37 *133:37 *535:8 0
38 *133:37 *537:10 0
39 *133:37 *538:8 0
40 *2218:A *133:9 0
*RES
1 FrameStrobe[4] *133:9 43.193 
2 *133:9 *133:11 60.667 
3 *133:11 *133:21 45.7783 
4 *133:21 *133:31 40.7474 
5 *133:31 *133:37 47.519 
6 *133:37 *2127:A 20 
*END

*D_NET *134 0.0093737
*CONN
*P FrameStrobe[5] I
*I *2128:A I *D sg13g2_buf_8
*CAP
1 FrameStrobe[5] 0.000456349
2 *2128:A 0
3 *134:9 0.00251444
4 *134:7 0.00297078
5 *134:7 *135:11 0
6 *134:9 *135:11 0
7 *134:9 *136:9 0
8 *134:9 *138:11 0
9 *134:9 *559:14 0
10 *134:9 *593:14 0.00343213
11 *134:9 *596:12 0
12 *121:11 *134:9 0
13 *122:11 *134:9 0
14 *129:13 *134:9 0
15 *133:9 *134:7 0
*RES
1 FrameStrobe[5] *134:7 24.9234 
2 *134:7 *134:9 33.7222 
3 *134:9 *2128:A 40 
*END

*D_NET *135 0.0293246
*CONN
*P FrameStrobe[6] I
*I *2129:A I *D sg13g2_buf_1
*CAP
1 FrameStrobe[6] 0.000783623
2 *2129:A 0
3 *135:17 0
4 *135:13 0.00849237
5 *135:11 0.00927599
6 *135:11 *136:9 0.000822643
7 *135:11 *559:14 0
8 *135:13 *422:31 0.00139006
9 *135:13 *471:10 0
10 *135:13 *479:10 0.0043691
11 *135:13 *539:24 0
12 *135:13 *545:88 0
13 *135:13 *582:26 0
14 *135:13 *585:74 0
15 *135:13 *588:26 0.000377316
16 *135:13 *596:16 0
17 *135:13 *612:38 0
18 *135:13 *617:16 0
19 *135:13 *623:46 0.00381354
20 *134:7 *135:11 0
21 *134:9 *135:11 0
*RES
1 FrameStrobe[6] *135:11 49.476 
2 *135:11 *135:13 102.845 
3 *135:13 *135:17 40 
4 *135:17 *2129:A 20 
*END

*D_NET *136 0.0270005
*CONN
*P FrameStrobe[7] I
*I *2130:A I *D sg13g2_buf_1
*CAP
1 FrameStrobe[7] 0.000701398
2 *2130:A 0
3 *136:17 0
4 *136:13 0.0102147
5 *136:11 0.0102147
6 *136:9 0.000701398
7 *136:9 *137:7 0
8 *136:9 *138:11 0.000715749
9 *136:9 *559:14 0.00194287
10 *136:13 *138:13 0
11 *136:13 *443:20 0.00168695
12 *136:13 *498:28 0
13 *136:13 *627:20 0
14 *119:13 *136:13 0
15 *120:9 *136:9 0
16 *134:9 *136:9 0
17 *135:11 *136:9 0.000822643
*RES
1 FrameStrobe[7] *136:9 32.2261 
2 *136:9 *136:11 20 
3 *136:11 *136:13 86.7994 
4 *136:13 *136:17 40 
5 *136:17 *2130:A 20 
*END

*D_NET *137 0.0102457
*CONN
*P FrameStrobe[8] I
*I *2131:A I *D sg13g2_buf_2
*CAP
1 FrameStrobe[8] 0.00152396
2 *2131:A 0
3 *137:13 0.0034623
4 *137:7 0.00498626
5 *137:7 *2150:A 0
6 *137:7 *138:11 0
7 *137:7 *587:16 0
8 *137:7 *601:12 0
9 *137:13 *427:14 0
10 *137:13 *436:12 0
11 *137:13 *457:10 0
12 *137:13 *506:10 0
13 *137:13 *560:10 0
14 *137:13 *588:12 0.000273151
15 *137:13 *623:18 0
16 *136:9 *137:7 0
*RES
1 FrameStrobe[8] *137:7 35.3058 
2 *137:7 *137:13 49.6846 
3 *137:13 *2131:A 20 
*END

*D_NET *138 0.0216781
*CONN
*P FrameStrobe[9] I
*I *2132:A I *D sg13g2_buf_1
*CAP
1 FrameStrobe[9] 0.000506402
2 *2132:A 0
3 *138:17 0
4 *138:13 0.00875751
5 *138:11 0.00926391
6 *138:11 *583:20 0
7 *138:13 *444:18 0
8 *138:13 *556:55 0
9 *138:13 *584:79 0
10 *138:13 *612:38 0
11 *138:13 *627:20 0.00243453
12 *120:9 *138:11 0
13 *134:9 *138:11 0
14 *136:9 *138:11 0.000715749
15 *136:13 *138:13 0
16 *137:7 *138:11 0
*RES
1 FrameStrobe[9] *138:11 46.5096 
2 *138:11 *138:13 102.845 
3 *138:13 *138:17 40 
4 *138:17 *2132:A 20 
*END

*D_NET *139 0.000454247
*CONN
*P FrameStrobe_O[0] O
*I *2341:X O *D sg13g2_buf_1
*CAP
1 FrameStrobe_O[0] 0.000227123
2 *2341:X 0.000227123
3 FrameStrobe_O[0] FrameStrobe_O[1] 0
4 FrameStrobe_O[0] UserCLKo 0
*RES
1 *2341:X FrameStrobe_O[0] 22.678 
*END

*D_NET *140 0.000454247
*CONN
*P FrameStrobe_O[10] O
*I *2342:X O *D sg13g2_buf_1
*CAP
1 FrameStrobe_O[10] 0.000227123
2 *2342:X 0.000227123
3 FrameStrobe_O[10] FrameStrobe_O[11] 0
4 FrameStrobe_O[10] FrameStrobe_O[9] 0
*RES
1 *2342:X FrameStrobe_O[10] 22.678 
*END

*D_NET *141 0.000454247
*CONN
*P FrameStrobe_O[11] O
*I *2343:X O *D sg13g2_buf_1
*CAP
1 FrameStrobe_O[11] 0.000227123
2 *2343:X 0.000227123
3 FrameStrobe_O[11] FrameStrobe_O[12] 0
4 FrameStrobe_O[10] FrameStrobe_O[11] 0
*RES
1 *2343:X FrameStrobe_O[11] 22.678 
*END

*D_NET *142 0.000454247
*CONN
*P FrameStrobe_O[12] O
*I *2344:X O *D sg13g2_buf_1
*CAP
1 FrameStrobe_O[12] 0.000227123
2 *2344:X 0.000227123
3 FrameStrobe_O[12] FrameStrobe_O[13] 0
4 FrameStrobe_O[11] FrameStrobe_O[12] 0
*RES
1 *2344:X FrameStrobe_O[12] 22.678 
*END

*D_NET *143 0.000454247
*CONN
*P FrameStrobe_O[13] O
*I *2345:X O *D sg13g2_buf_1
*CAP
1 FrameStrobe_O[13] 0.000227123
2 *2345:X 0.000227123
3 FrameStrobe_O[13] FrameStrobe_O[14] 0
4 FrameStrobe_O[12] FrameStrobe_O[13] 0
*RES
1 *2345:X FrameStrobe_O[13] 22.678 
*END

*D_NET *144 0.000454247
*CONN
*P FrameStrobe_O[14] O
*I *2346:X O *D sg13g2_buf_1
*CAP
1 FrameStrobe_O[14] 0.000227123
2 *2346:X 0.000227123
3 FrameStrobe_O[14] FrameStrobe_O[15] 0
4 FrameStrobe_O[13] FrameStrobe_O[14] 0
*RES
1 *2346:X FrameStrobe_O[14] 22.678 
*END

*D_NET *145 0.000454247
*CONN
*P FrameStrobe_O[15] O
*I *2347:X O *D sg13g2_buf_1
*CAP
1 FrameStrobe_O[15] 0.000227123
2 *2347:X 0.000227123
3 FrameStrobe_O[15] FrameStrobe_O[16] 0
4 FrameStrobe_O[14] FrameStrobe_O[15] 0
*RES
1 *2347:X FrameStrobe_O[15] 22.678 
*END

*D_NET *146 0.000454247
*CONN
*P FrameStrobe_O[16] O
*I *2348:X O *D sg13g2_buf_1
*CAP
1 FrameStrobe_O[16] 0.000227123
2 *2348:X 0.000227123
3 FrameStrobe_O[16] FrameStrobe_O[17] 0
4 FrameStrobe_O[15] FrameStrobe_O[16] 0
5 *2139:A FrameStrobe_O[16] 0
*RES
1 *2348:X FrameStrobe_O[16] 22.678 
*END

*D_NET *147 0.000622889
*CONN
*P FrameStrobe_O[17] O
*I *2349:X O *D sg13g2_buf_1
*CAP
1 FrameStrobe_O[17] 0.000311444
2 *2349:X 0.000311444
3 FrameStrobe_O[16] FrameStrobe_O[17] 0
*RES
1 *2349:X FrameStrobe_O[17] 23.8728 
*END

*D_NET *148 0.000493945
*CONN
*P FrameStrobe_O[18] O
*I *2350:X O *D sg13g2_buf_1
*CAP
1 FrameStrobe_O[18] 0.000246973
2 *2350:X 0.000246973
3 FrameStrobe_O[18] FrameStrobe_O[19] 0
4 *111:8 FrameStrobe_O[18] 0
*RES
1 *2350:X FrameStrobe_O[18] 22.678 
*END

*D_NET *149 0.000545091
*CONN
*P FrameStrobe_O[19] O
*I *2351:X O *D sg13g2_buf_1
*CAP
1 FrameStrobe_O[19] 0.000272545
2 *2351:X 0.000272545
3 FrameStrobe_O[19] *2351:A 0
4 FrameData_O[30] FrameStrobe_O[19] 0
5 FrameStrobe_O[18] FrameStrobe_O[19] 0
*RES
1 *2351:X FrameStrobe_O[19] 22.9252 
*END

*D_NET *150 0.000464309
*CONN
*P FrameStrobe_O[1] O
*I *2352:X O *D sg13g2_buf_1
*CAP
1 FrameStrobe_O[1] 0.000232154
2 *2352:X 0.000232154
3 FrameStrobe_O[0] FrameStrobe_O[1] 0
*RES
1 *2352:X FrameStrobe_O[1] 22.678 
*END

*D_NET *151 0.000461712
*CONN
*P FrameStrobe_O[2] O
*I *2353:X O *D sg13g2_buf_1
*CAP
1 FrameStrobe_O[2] 0.000230856
2 *2353:X 0.000230856
3 FrameStrobe_O[2] FrameStrobe_O[3] 0
*RES
1 *2353:X FrameStrobe_O[2] 22.678 
*END

*D_NET *152 0.000464309
*CONN
*P FrameStrobe_O[3] O
*I *2354:X O *D sg13g2_buf_1
*CAP
1 FrameStrobe_O[3] 0.000232154
2 *2354:X 0.000232154
3 FrameStrobe_O[2] FrameStrobe_O[3] 0
*RES
1 *2354:X FrameStrobe_O[3] 22.678 
*END

*D_NET *153 0.000461712
*CONN
*P FrameStrobe_O[4] O
*I *2355:X O *D sg13g2_buf_1
*CAP
1 FrameStrobe_O[4] 0.000230856
2 *2355:X 0.000230856
3 FrameStrobe_O[4] FrameStrobe_O[5] 0
*RES
1 *2355:X FrameStrobe_O[4] 22.678 
*END

*D_NET *154 0.000454247
*CONN
*P FrameStrobe_O[5] O
*I *2356:X O *D sg13g2_buf_1
*CAP
1 FrameStrobe_O[5] 0.000227123
2 *2356:X 0.000227123
3 FrameStrobe_O[5] FrameStrobe_O[6] 0
4 FrameStrobe_O[4] FrameStrobe_O[5] 0
*RES
1 *2356:X FrameStrobe_O[5] 22.678 
*END

*D_NET *155 0.000454247
*CONN
*P FrameStrobe_O[6] O
*I *2357:X O *D sg13g2_buf_1
*CAP
1 FrameStrobe_O[6] 0.000227123
2 *2357:X 0.000227123
3 FrameStrobe_O[6] FrameStrobe_O[7] 0
4 FrameStrobe_O[5] FrameStrobe_O[6] 0
*RES
1 *2357:X FrameStrobe_O[6] 22.678 
*END

*D_NET *156 0.000454247
*CONN
*P FrameStrobe_O[7] O
*I *2358:X O *D sg13g2_buf_1
*CAP
1 FrameStrobe_O[7] 0.000227123
2 *2358:X 0.000227123
3 FrameStrobe_O[7] FrameStrobe_O[8] 0
4 FrameStrobe_O[6] FrameStrobe_O[7] 0
*RES
1 *2358:X FrameStrobe_O[7] 22.678 
*END

*D_NET *157 0.000454247
*CONN
*P FrameStrobe_O[8] O
*I *2359:X O *D sg13g2_buf_1
*CAP
1 FrameStrobe_O[8] 0.000227123
2 *2359:X 0.000227123
3 FrameStrobe_O[8] FrameStrobe_O[9] 0
4 FrameStrobe_O[7] FrameStrobe_O[8] 0
*RES
1 *2359:X FrameStrobe_O[8] 22.678 
*END

*D_NET *158 0.000454247
*CONN
*P FrameStrobe_O[9] O
*I *2360:X O *D sg13g2_buf_1
*CAP
1 FrameStrobe_O[9] 0.000227123
2 *2360:X 0.000227123
3 FrameStrobe_O[10] FrameStrobe_O[9] 0
4 FrameStrobe_O[8] FrameStrobe_O[9] 0
*RES
1 *2360:X FrameStrobe_O[9] 22.678 
*END

*D_NET *159 0.0310203
*CONN
*P UserCLK I
*I *2171:A I *D sg13g2_buf_8
*I *2166:A I *D sg13g2_buf_8
*CAP
1 UserCLK 1.78586e-05
2 *2171:A 0
3 *2166:A 0.000505566
4 *159:15 0.000505566
5 *159:13 0.00693693
6 *159:11 0.00693693
7 *159:9 0.00196409
8 *159:7 0.00198195
9 *2166:A *2169:A 0
10 *2166:A *2170:A 0
11 *2166:A *421:10 0.000144684
12 *2166:A *455:24 0.00023158
13 *2166:A *461:8 0
14 *2166:A *461:16 0
15 *2166:A *534:16 0
16 *159:9 *583:20 0
17 *159:13 *243:18 0
18 *159:13 *430:14 0
19 *159:13 *499:14 0.00552537
20 *119:9 *159:9 0.00626974
21 *119:13 *159:13 0
*RES
1 UserCLK *159:7 20.1648 
2 *159:7 *159:9 31.9918 
3 *159:9 *159:11 20 
4 *159:11 *159:13 74.9428 
5 *159:13 *159:15 20 
6 *159:15 *2166:A 45.0882 
7 *159:15 *2171:A 40 
*END

*D_NET *160 0.000454247
*CONN
*P UserCLKo O
*I *2361:X O *D sg13g2_buf_1
*CAP
1 UserCLKo 0.000227123
2 *2361:X 0.000227123
3 FrameStrobe_O[0] UserCLKo 0
*RES
1 *2361:X UserCLKo 22.678 
*END

*D_NET *163 0.00205054
*CONN
*P W1END[0] I
*I *2219:A I *D sg13g2_buf_1
*CAP
1 W1END[0] 0.000671944
2 *2219:A 0.0002276
3 *163:13 0.000899543
4 *2219:A *2220:A 0
5 *2219:A *583:12 4.77079e-05
6 *2219:A *593:10 0
7 *163:13 *2220:A 0
8 *163:13 *2221:A 0
9 *163:13 *2222:A 0.000128777
10 *163:13 *583:12 7.49633e-05
11 *127:9 *2219:A 0
12 *129:13 *163:13 0
*RES
1 W1END[0] *163:13 47.205 
2 *163:13 *2219:A 42.266 
*END

*D_NET *164 0.00163466
*CONN
*P W1END[1] I
*I *2220:A I *D sg13g2_buf_2
*CAP
1 W1END[1] 0.000681207
2 *2220:A 0.000681207
3 *2220:A *2221:A 0
4 *2219:A *2220:A 0
5 *128:11 *2220:A 0.000272246
6 *163:13 *2220:A 0
*RES
1 W1END[1] *2220:A 47.2203 
*END

*D_NET *165 0.00178632
*CONN
*P W1END[2] I
*I *2221:A I *D sg13g2_buf_2
*CAP
1 W1END[2] 0.000775712
2 *2221:A 0.000775712
3 *2221:A *2222:A 0
4 *2221:A *561:8 0
5 *2221:A *582:8 0
6 *2221:A *583:20 0.0002349
7 *2220:A *2221:A 0
8 *127:7 *2221:A 0
9 *163:13 *2221:A 0
*RES
1 W1END[2] *2221:A 48.2297 
*END

*D_NET *166 0.000863692
*CONN
*P W1END[3] I
*I *2222:A I *D sg13g2_buf_2
*CAP
1 W1END[3] 0.000367457
2 *2222:A 0.000367457
3 *2222:A *2232:A 0
4 *2222:A *536:10 0
5 *2221:A *2222:A 0
6 *163:13 *2222:A 0.000128777
*RES
1 W1END[3] *2222:A 44.1509 
*END

*D_NET *167 0.000330349
*CONN
*P W2END[0] I
*I *2224:A I *D sg13g2_buf_2
*CAP
1 W2END[0] 0.000165174
2 *2224:A 0.000165174
3 *2224:A *2225:A 0
4 *2224:A *2240:A 0
*RES
1 W2END[0] *2224:A 41.6789 
*END

*D_NET *168 0.00103245
*CONN
*P W2END[1] I
*I *2225:A I *D sg13g2_buf_2
*CAP
1 W2END[1] 0.000411743
2 *2225:A 0.000411743
3 *2225:A *2226:A 0
4 *2225:A *599:10 0
5 *2225:A *600:10 0.000208968
6 *2224:A *2225:A 0
*RES
1 W2END[1] *2225:A 44.3157 
*END

*D_NET *169 0.00057078
*CONN
*P W2END[2] I
*I *2226:A I *D sg13g2_buf_2
*CAP
1 W2END[2] 0.000205092
2 *2226:A 0.000205092
3 *2226:A *2227:A 0
4 *2226:A *594:8 8.03692e-05
5 *2226:A *598:12 8.02269e-05
6 *2225:A *2226:A 0
*RES
1 W2END[2] *2226:A 42.2145 
*END

*D_NET *170 0.00103069
*CONN
*P W2END[3] I
*I *2227:A I *D sg13g2_buf_2
*CAP
1 W2END[3] 0.000410467
2 *2227:A 0.000410467
3 *2227:A *2228:A 0
4 *2227:A *588:12 0
5 *2227:A *600:10 0.000209756
6 *2226:A *2227:A 0
*RES
1 W2END[3] *2227:A 44.3157 
*END

*D_NET *171 0.00057078
*CONN
*P W2END[4] I
*I *2228:A I *D sg13g2_buf_2
*CAP
1 W2END[4] 0.000205092
2 *2228:A 0.000205092
3 *2228:A *2229:A 0
4 *2228:A *594:8 8.03692e-05
5 *2228:A *598:12 8.02269e-05
6 *2227:A *2228:A 0
*RES
1 W2END[4] *2228:A 42.2145 
*END

*D_NET *172 0.00119134
*CONN
*P W2END[5] I
*I *2229:A I *D sg13g2_buf_2
*CAP
1 W2END[5] 0.00045852
2 *2229:A 0.00045852
3 *2229:A *2230:A 0
4 *2229:A *588:12 0
5 *2229:A *600:10 0.000274297
6 *2228:A *2229:A 0
*RES
1 W2END[5] *2229:A 44.7483 
*END

*D_NET *173 0.00077003
*CONN
*P W2END[6] I
*I *2230:A I *D sg13g2_buf_2
*CAP
1 W2END[6] 0.000240076
2 *2230:A 0.000240076
3 *2230:A *2231:A 0
4 *2230:A *594:8 0.000145105
5 *2230:A *598:12 0.000144772
6 *2229:A *2230:A 0
*RES
1 W2END[6] *2230:A 42.6471 
*END

*D_NET *174 0.00264271
*CONN
*P W2END[7] I
*I *2231:A I *D sg13g2_buf_1
*CAP
1 W2END[7] 0.000654951
2 *2231:A 0.000654951
3 *2231:A *2254:A 0
4 *2231:A *560:10 0.00030488
5 *2231:A *622:22 0.00102793
6 *2231:A *623:18 0
7 *2230:A *2231:A 0
*RES
1 W2END[7] *2231:A 47.4366 
*END

*D_NET *175 0.000984853
*CONN
*P W2MID[0] I
*I *2232:A I *D sg13g2_buf_2
*CAP
1 W2MID[0] 0.000347489
2 *2232:A 0.000347489
3 *2232:A *2233:A 0
4 *2232:A *2235:A 0
5 *2232:A *593:10 0.000145105
6 *2222:A *2232:A 0
7 *129:13 *2232:A 0.000144771
*RES
1 W2MID[0] *2232:A 43.8831 
*END

*D_NET *176 0.000918668
*CONN
*P W2MID[1] I
*I *2233:A I *D sg13g2_buf_2
*CAP
1 W2MID[1] 0.000322393
2 *2233:A 0.000322393
3 *2233:A *2235:A 0
4 *2233:A *594:8 0.000273882
5 *2232:A *2233:A 0
*RES
1 W2MID[1] *2233:A 43.5123 
*END

*D_NET *177 0.00110836
*CONN
*P W2MID[2] I
*I *2235:A I *D sg13g2_buf_2
*CAP
1 W2MID[2] 0.000554179
2 *2235:A 0.000554179
3 *2235:A *2236:A 0
4 *2235:A *560:10 0
5 *2235:A *593:14 0
6 *2232:A *2235:A 0
7 *2233:A *2235:A 0
8 *129:13 *2235:A 0
*RES
1 W2MID[2] *2235:A 45.7577 
*END

*D_NET *178 0.000717134
*CONN
*P W2MID[3] I
*I *2236:A I *D sg13g2_buf_2
*CAP
1 W2MID[3] 0.000320907
2 *2236:A 0.000320907
3 *2236:A *2237:A 0
4 *2236:A *2238:A 0
5 *2236:A *594:8 0
6 *2236:A *598:8 0
7 *2235:A *2236:A 0
8 *129:13 *2236:A 7.53209e-05
*RES
1 W2MID[3] *2236:A 43.1777 
*END

*D_NET *179 0.000568061
*CONN
*P W2MID[4] I
*I *2237:A I *D sg13g2_buf_2
*CAP
1 W2MID[4] 0.000203875
2 *2237:A 0.000203875
3 *2237:A *2238:A 0
4 *2237:A *594:8 8.02269e-05
5 *2237:A *598:12 8.00842e-05
6 *2236:A *2237:A 0
*RES
1 W2MID[4] *2237:A 42.2145 
*END

*D_NET *180 0.000722029
*CONN
*P W2MID[5] I
*I *2238:A I *D sg13g2_buf_2
*CAP
1 W2MID[5] 0.000353287
2 *2238:A 0.000353287
3 *2238:A *2239:A 0
4 *2238:A *2240:A 0
5 *2238:A *594:8 0
6 *2238:A *598:8 0
7 *2238:A *600:10 1.54556e-05
8 *2236:A *2238:A 0
9 *2237:A *2238:A 0
*RES
1 W2MID[5] *2238:A 43.8831 
*END

*D_NET *181 0.000312816
*CONN
*P W2MID[6] I
*I *2239:A I *D sg13g2_buf_2
*CAP
1 W2MID[6] 0.000156408
2 *2239:A 0.000156408
3 *2239:A *2240:A 0
4 *2238:A *2239:A 0
*RES
1 W2MID[6] *2239:A 41.6789 
*END

*D_NET *182 0.00120577
*CONN
*P W2MID[7] I
*I *2240:A I *D sg13g2_buf_2
*CAP
1 W2MID[7] 0.000306912
2 *2240:A 0.000306912
3 *2240:A *599:10 0.000447782
4 *2240:A *600:10 0.000144168
5 *2224:A *2240:A 0
6 *2238:A *2240:A 0
7 *2239:A *2240:A 0
*RES
1 W2MID[7] *2240:A 43.8831 
*END

*D_NET *183 0.000895609
*CONN
*P W6END[0] I
*I *2241:A I *D sg13g2_buf_2
*CAP
1 W6END[0] 0.000432376
2 *2241:A 0.000432376
3 *2241:A *2261:A 0
4 *2241:A *594:20 0
5 *2241:A *598:18 0
6 *2241:A *602:14 1.54285e-05
7 *2241:A *605:14 1.54285e-05
8 *2241:A *616:10 0
*RES
1 W6END[0] *2241:A 43.8831 
*END

*D_NET *184 0.00172239
*CONN
*P W6END[10] I
*I *2242:A I *D sg13g2_buf_1
*CAP
1 W6END[10] 0.000583376
2 *2242:A 0.000583376
3 *2242:A *2243:A 0
4 *2242:A *2253:A 0
5 *2242:A *515:18 0
6 *2242:A *560:10 0
7 *2242:A *602:22 0
8 *2242:A *604:8 7.51811e-05
9 *2242:A *613:10 0.000240231
10 *2242:A *614:12 0.000240231
*RES
1 W6END[10] *2242:A 45.9122 
*END

*D_NET *185 0.00101238
*CONN
*P W6END[11] I
*I *2243:A I *D sg13g2_buf_1
*CAP
1 W6END[11] 0.000265228
2 *2243:A 0.000265228
3 *2243:A *515:18 0.00012816
4 *2243:A *606:24 0.000177183
5 *2243:A *618:12 0.000176585
6 E1BEG[0] *2243:A 0
7 *2242:A *2243:A 0
*RES
1 W6END[11] *2243:A 42.8634 
*END

*D_NET *186 0.000526078
*CONN
*P W6END[1] I
*I *2244:A I *D sg13g2_buf_2
*CAP
1 W6END[1] 0.000145884
2 *2244:A 0.000145884
3 *2244:A *2246:A 0
4 *2244:A *599:32 0.000234311
*RES
1 W6END[1] *2244:A 41.6789 
*END

*D_NET *187 0.000997082
*CONN
*P W6END[2] I
*I *2246:A I *D sg13g2_buf_2
*CAP
1 W6END[2] 0.000353812
2 *2246:A 0.000353812
3 *2246:A *2247:A 0
4 *2246:A *2248:A 0
5 *2246:A *599:32 0
6 *2246:A *602:14 0.000145099
7 *2246:A *605:14 0.00014436
8 *2244:A *2246:A 0
*RES
1 W6END[2] *2246:A 43.8831 
*END

*D_NET *188 0.000339178
*CONN
*P W6END[3] I
*I *2247:A I *D sg13g2_buf_2
*CAP
1 W6END[3] 0.000169589
2 *2247:A 0.000169589
3 *2247:A *2248:A 0
4 *2246:A *2247:A 0
*RES
1 W6END[3] *2247:A 41.6789 
*END

*D_NET *189 0.00143623
*CONN
*P W6END[4] I
*I *2248:A I *D sg13g2_buf_2
*CAP
1 W6END[4] 0.000362206
2 *2248:A 0.000362206
3 *2248:A *2249:A 0
4 *2248:A *602:14 0.000143456
5 *2248:A *602:20 4.77702e-05
6 *2248:A *605:14 0.00011101
7 *2248:A *609:14 1.54285e-05
8 *2248:A *624:22 0.000394151
9 *2246:A *2248:A 0
10 *2247:A *2248:A 0
*RES
1 W6END[4] *2248:A 44.3157 
*END

*D_NET *190 0.000588759
*CONN
*P W6END[5] I
*I *2249:A I *D sg13g2_buf_2
*CAP
1 W6END[5] 0.000214082
2 *2249:A 0.000214082
3 *2249:A *2250:A 0
4 *2249:A *606:24 8.03692e-05
5 *2249:A *618:12 8.02269e-05
6 *2249:A *624:22 0
7 *2248:A *2249:A 0
*RES
1 W6END[5] *2249:A 42.2145 
*END

*D_NET *191 0.00141596
*CONN
*P W6END[6] I
*I *2250:A I *D sg13g2_buf_2
*CAP
1 W6END[6] 0.000409336
2 *2250:A 0.000409336
3 *2250:A *2251:A 0
4 *2250:A *602:20 0.000208035
5 *2250:A *609:14 0.000208062
6 *2250:A *610:18 0.000181192
7 *2249:A *2250:A 0
*RES
1 W6END[6] *2250:A 44.3157 
*END

*D_NET *192 0.000782285
*CONN
*P W6END[7] I
*I *2251:A I *D sg13g2_buf_2
*CAP
1 W6END[7] 0.000193517
2 *2251:A 0.000193517
3 *2251:A *2252:A 0
4 *2251:A *442:16 0.000235055
5 *2251:A *606:24 8.01116e-05
6 *2251:A *618:12 8.00842e-05
7 *2250:A *2251:A 0
*RES
1 W6END[7] *2251:A 42.2145 
*END

*D_NET *193 0.00142221
*CONN
*P W6END[8] I
*I *2252:A I *D sg13g2_buf_1
*CAP
1 W6END[8] 0.000540977
2 *2252:A 0.000540977
3 *2252:A *2253:A 0
4 *2252:A *442:16 0
5 *2252:A *480:16 0.000340253
6 *2252:A *560:10 0
7 *2252:A *609:14 0
8 *2252:A *611:8 0
9 *2251:A *2252:A 0
*RES
1 W6END[8] *2252:A 45.2736 
*END

*D_NET *194 0.000926174
*CONN
*P W6END[9] I
*I *2253:A I *D sg13g2_buf_1
*CAP
1 W6END[9] 0.00035049
2 *2253:A 0.00035049
3 *2253:A *480:16 0
4 *2253:A *607:10 0.00011243
5 *2253:A *609:14 0.000112763
6 *2242:A *2253:A 0
7 *2252:A *2253:A 0
*RES
1 W6END[9] *2253:A 43.4196 
*END

*D_NET *195 0.00153775
*CONN
*P WW4END[0] I
*I *2254:A I *D sg13g2_buf_1
*CAP
1 WW4END[0] 0.000571617
2 *2254:A 0.000571617
3 *2254:A *2262:A 0
4 *2254:A *2263:A 0
5 *2254:A *539:10 0
6 *2254:A *590:16 0
7 *2254:A *594:14 0
8 *2254:A *600:12 0.000394519
9 *2254:A *622:22 0
10 *2231:A *2254:A 0
*RES
1 WW4END[0] *2254:A 45.7886 
*END

*D_NET *196 0.00065924
*CONN
*P WW4END[10] I
*I *2255:A I *D sg13g2_buf_1
*CAP
1 WW4END[10] 0.00032962
2 *2255:A 0.00032962
3 *2255:A *2257:A 0
4 *2255:A *2271:A 0
5 *2255:A *512:16 0
6 *2255:A *617:10 0
7 *2255:A *622:14 0
*RES
1 WW4END[10] *2255:A 42.987 
*END

*D_NET *197 0.000797911
*CONN
*P WW4END[11] I
*I *2257:A I *D sg13g2_buf_1
*CAP
1 WW4END[11] 0.00022659
2 *2257:A 0.00022659
3 *2257:A *2258:A 0
4 *2257:A *589:26 0
5 *2257:A *598:12 0.000112314
6 *2257:A *622:14 0.000232418
7 *2255:A *2257:A 0
*RES
1 WW4END[11] *2257:A 42.4308 
*END

*D_NET *198 0.000662795
*CONN
*P WW4END[12] I
*I *2258:A I *D sg13g2_buf_1
*CAP
1 WW4END[12] 0.000294693
2 *2258:A 0.000294693
3 *2258:A *2259:A 0
4 *2258:A *2260:A 0
5 *2258:A *584:18 7.34081e-05
6 *2258:A *620:8 0
7 *2258:A *622:14 0
8 *2257:A *2258:A 0
*RES
1 WW4END[12] *2258:A 42.987 
*END

*D_NET *199 0.000591642
*CONN
*P WW4END[13] I
*I *2259:A I *D sg13g2_buf_1
*CAP
1 WW4END[13] 0.000239493
2 *2259:A 0.000239493
3 *2259:A *598:12 0.000112656
4 *2259:A *622:14 0
5 *2258:A *2259:A 0
*RES
1 WW4END[13] *2259:A 42.4308 
*END

*D_NET *200 0.000831619
*CONN
*P WW4END[14] I
*I *2260:A I *D sg13g2_buf_1
*CAP
1 WW4END[14] 0.000359512
2 *2260:A 0.000359512
3 *2260:A *598:18 0
4 *2260:A *618:12 0.000112596
5 *2260:A *620:8 0
6 *2260:A *624:12 0
7 *2258:A *2260:A 0
*RES
1 WW4END[14] *2260:A 43.4196 
*END

*D_NET *201 0.000399759
*CONN
*P WW4END[15] I
*I *2261:A I *D sg13g2_buf_1
*CAP
1 WW4END[15] 0.000199879
2 *2261:A 0.000199879
3 *2261:A *598:18 0
4 *2241:A *2261:A 0
*RES
1 WW4END[15] *2261:A 41.9982 
*END

*D_NET *202 0.000390832
*CONN
*P WW4END[1] I
*I *2262:A I *D sg13g2_buf_2
*CAP
1 WW4END[1] 0.000195416
2 *2262:A 0.000195416
3 *2262:A *2263:A 0
4 *2262:A *594:14 0
5 *2254:A *2262:A 0
*RES
1 WW4END[1] *2262:A 41.6789 
*END

*D_NET *203 0.000916146
*CONN
*P WW4END[2] I
*I *2263:A I *D sg13g2_buf_1
*CAP
1 WW4END[2] 0.000458073
2 *2263:A 0.000458073
3 *2263:A *594:14 0
4 *2263:A *598:12 0
5 *2263:A *624:8 0
6 *2263:A *629:12 0
7 *2254:A *2263:A 0
8 *2262:A *2263:A 0
*RES
1 WW4END[2] *2263:A 42.9282 
*END

*D_NET *204 0.00048402
*CONN
*P WW4END[3] I
*I *2264:A I *D sg13g2_buf_1
*CAP
1 WW4END[3] 0.000177886
2 *2264:A 0.000177886
3 *2264:A *2265:A 0
4 *2264:A *624:8 0.000128247
*RES
1 WW4END[3] *2264:A 41.9982 
*END

*D_NET *205 0.00141575
*CONN
*P WW4END[4] I
*I *2265:A I *D sg13g2_buf_1
*CAP
1 WW4END[4] 0.000418381
2 *2265:A 0.000418381
3 *2265:A *2268:A 0
4 *2265:A *589:16 0.000127271
5 *2265:A *589:26 0.000209614
6 *2265:A *624:8 0
7 *2265:A *629:12 0.000242098
8 *2264:A *2265:A 0
*RES
1 WW4END[4] *2265:A 44.532 
*END

*D_NET *206 0.000588602
*CONN
*P WW4END[5] I
*I *2266:A I *D sg13g2_buf_2
*CAP
1 WW4END[5] 0.000214003
2 *2266:A 0.000214003
3 *2266:A *598:12 8.02269e-05
4 *2266:A *625:12 8.03692e-05
*RES
1 WW4END[5] *2266:A 42.2145 
*END

*D_NET *207 0.00119203
*CONN
*P WW4END[6] I
*I *2268:A I *D sg13g2_buf_1
*CAP
1 WW4END[6] 0.000596015
2 *2268:A 0.000596015
3 *2268:A *2269:A 0
4 *2268:A *425:14 0
5 *2268:A *560:10 0
6 *2268:A *627:10 0
7 *2268:A *629:12 0
8 *2265:A *2268:A 0
*RES
1 WW4END[6] *2268:A 45.4796 
*END

*D_NET *208 0.00101897
*CONN
*P WW4END[7] I
*I *2269:A I *D sg13g2_buf_1
*CAP
1 WW4END[7] 0.000353219
2 *2269:A 0.000353219
3 *2269:A *2270:A 0
4 *2269:A *2271:A 0
5 *2269:A *425:10 0.00012668
6 *2269:A *589:26 0.000112533
7 *2269:A *598:12 0
8 *2269:A *599:22 7.33225e-05
9 *2269:A *625:12 0
10 *2268:A *2269:A 0
*RES
1 WW4END[7] *2269:A 43.4196 
*END

*D_NET *209 0.00163024
*CONN
*P WW4END[8] I
*I *2270:A I *D sg13g2_buf_1
*CAP
1 WW4END[8] 0.000657347
2 *2270:A 0.000657347
3 *2270:A *425:10 0
4 *2270:A *425:14 0
5 *2270:A *512:16 7.51811e-05
6 *2270:A *560:10 0
7 *2270:A *589:26 0
8 *2270:A *625:12 0
9 *2270:A *628:10 0.000240361
10 *2269:A *2270:A 0
*RES
1 WW4END[8] *2270:A 45.9122 
*END

*D_NET *210 0.000827161
*CONN
*P WW4END[9] I
*I *2271:A I *D sg13g2_buf_1
*CAP
1 WW4END[9] 0.000325456
2 *2271:A 0.000325456
3 *2271:A *512:16 0
4 *2271:A *589:26 0
5 *2271:A *598:12 0.00017625
6 *2255:A *2271:A 0
7 *2269:A *2271:A 0
*RES
1 WW4END[9] *2271:A 42.8634 
*END

*D_NET *211 0.0160464
*CONN
*I *1889:A3 I *D sg13g2_mux4_1
*I *1891:A3 I *D sg13g2_mux4_1
*I *1913:A3 I *D sg13g2_mux4_1
*I *1903:A3 I *D sg13g2_mux4_1
*I *1893:A3 I *D sg13g2_mux4_1
*I *1934:A1 I *D sg13g2_mux2_1
*I *2061:Q O *D sg13g2_dfrbpq_2
*CAP
1 *1889:A3 0.000127283
2 *1891:A3 0.000157007
3 *1913:A3 0
4 *1903:A3 0
5 *1893:A3 0.000123835
6 *1934:A1 0.000527517
7 *2061:Q 0.000282278
8 *211:58 0.000705041
9 *211:46 0.00113037
10 *211:40 0.00174649
11 *211:36 0.0014823
12 *211:27 0.000667378
13 *211:14 0.00113701
14 *211:10 0.000539094
15 *1889:A3 *220:14 1.54556e-05
16 *1889:A3 *545:30 0
17 *1889:A3 *579:76 0
18 *1889:A3 *605:114 4.68848e-05
19 *1891:A3 *460:44 0
20 *1891:A3 *620:63 0.000111568
21 *1893:A3 *545:30 0
22 *1893:A3 *545:51 0
23 *1893:A3 *605:61 0.000112314
24 *1893:A3 *605:114 6.34947e-05
25 *1934:A1 *212:8 0.000144027
26 *1934:A1 *432:14 0
27 *1934:A1 *461:8 0.000111685
28 *1934:A1 *481:14 0.000241195
29 *1934:A1 *516:8 0
30 *211:10 *2169:A 0
31 *211:10 *212:8 0
32 *211:10 *509:8 0
33 *211:14 *212:8 0.000451483
34 *211:14 *461:8 0.000466658
35 *211:27 *212:18 0
36 *211:27 *465:16 0.00123773
37 *211:27 *561:38 0.000230928
38 *211:27 *561:42 0.000499073
39 *211:36 *545:30 0
40 *211:36 *605:114 0.000273049
41 *211:40 *470:12 0
42 *211:40 *471:14 0
43 *211:40 *508:12 0
44 *211:40 *602:91 0.000235347
45 *211:40 *605:114 0.000289113
46 *211:40 *606:97 0.000286281
47 *211:46 *283:10 0.000181192
48 *211:46 *470:12 0
49 *211:46 *474:10 0.000176442
50 *211:46 *508:12 0
51 *211:46 *574:28 0.000161782
52 *211:46 *627:49 0.000501386
53 *211:58 *1913:A2 0.000112198
54 *211:58 *474:10 0.000370649
55 *211:58 *500:24 0.000281284
56 *211:58 *566:20 0.000208738
57 *211:58 *566:33 0
58 *211:58 *574:28 0.000466258
59 *211:58 *590:102 0
60 *211:58 *607:45 0
61 *211:58 *610:71 0.00014454
62 *211:58 *612:121 0
*RES
1 *2061:Q *211:10 42.4617 
2 *211:10 *211:14 23.1312 
3 *211:14 *1934:A1 24.8616 
4 *211:14 *211:27 45.7886 
5 *211:27 *1893:A3 21.1845 
6 *211:27 *211:36 1.8334 
7 *211:36 *211:40 30.2382 
8 *211:40 *211:46 24.9955 
9 *211:46 *211:58 47.519 
10 *211:58 *1903:A3 20 
11 *211:46 *1913:A3 20 
12 *211:40 *1891:A3 41.5347 
13 *211:36 *1889:A3 21.1845 
*END

*D_NET *212 0.0323772
*CONN
*I *1932:A1 I *D sg13g2_mux2_1
*I *1888:A3 I *D sg13g2_mux4_1
*I *1890:A3 I *D sg13g2_mux4_1
*I *1892:A3 I *D sg13g2_mux4_1
*I *1902:A3 I *D sg13g2_mux4_1
*I *1912:A3 I *D sg13g2_mux4_1
*I *2063:Q O *D sg13g2_dfrbpq_2
*CAP
1 *1932:A1 0.000134418
2 *1888:A3 0
3 *1890:A3 0.00011606
4 *1892:A3 7.97149e-05
5 *1902:A3 4.64809e-05
6 *1912:A3 0.000415721
7 *2063:Q 0.000755117
8 *212:83 0.00134247
9 *212:72 0.00187361
10 *212:62 0.000705421
11 *212:58 0.000297559
12 *212:54 0.000373752
13 *212:46 0.00156161
14 *212:18 0.00285472
15 *212:8 0.00436069
16 *1890:A3 *280:24 0.0002086
17 *1890:A3 *285:8 0.000208704
18 *1892:A3 *430:22 0.00014454
19 *1892:A3 *477:40 0.00014454
20 *1902:A3 *456:22 4.77425e-05
21 *1902:A3 *549:34 8.00842e-05
22 *1912:A3 *456:22 0.000127867
23 *1912:A3 *549:34 0.000433241
24 *1912:A3 *549:50 0
25 *1912:A3 *567:12 0.000530612
26 *1912:A3 *586:47 0
27 *1912:A3 *614:24 0
28 *1932:A1 *603:14 0.000497644
29 *1932:A1 *611:16 0.000477086
30 *212:8 *2169:A 0
31 *212:8 *432:14 0.000112242
32 *212:8 *461:8 0
33 *212:18 *241:10 0
34 *212:18 *258:16 0.000183436
35 *212:18 *347:10 0
36 *212:18 *456:22 7.48842e-05
37 *212:18 *486:30 0.000707522
38 *212:18 *487:10 0.00403426
39 *212:18 *534:22 0.00012816
40 *212:18 *561:38 0
41 *212:18 *580:43 0.000232418
42 *212:18 *610:97 0.00023464
43 *212:18 *614:24 0
44 *212:46 *465:16 0
45 *212:46 *477:40 0
46 *212:46 *481:18 0
47 *212:46 *494:12 0
48 *212:46 *516:8 0
49 *212:46 *534:22 0.00018091
50 *212:46 *559:60 0.000144217
51 *212:54 *431:6 0.000532776
52 *212:54 *459:22 0.00018128
53 *212:54 *516:8 0.000532632
54 *212:58 *603:14 0.00012816
55 *212:58 *611:16 0.00012816
56 *212:62 *477:40 4.75166e-05
57 *212:62 *516:8 0.000193425
58 *212:72 *2144:A 4.77699e-05
59 *212:72 *430:22 0.000192861
60 *212:72 *477:40 0.000439736
61 *212:72 *516:8 0.000370116
62 *212:83 *218:10 0.000286974
63 *212:83 *225:8 0.000554025
64 *212:83 *236:8 0.000446439
65 *212:83 *431:12 0.000287672
66 *212:83 *502:10 0.000760478
67 *212:83 *507:8 0
68 *212:83 *613:28 0.00275319
69 *1934:A1 *212:8 0.000144027
70 *122:25 *1932:A1 4.77425e-05
71 *211:10 *212:8 0
72 *211:14 *212:8 0.000451483
73 *211:27 *212:18 0
*RES
1 *2063:Q *212:8 47.2409 
2 *212:8 *212:18 27.3671 
3 *212:18 *1912:A3 44.7586 
4 *212:18 *1902:A3 40.5356 
5 *212:8 *212:46 30.3103 
6 *212:46 *212:54 44.4084 
7 *212:54 *212:58 20.5974 
8 *212:58 *212:62 21.4008 
9 *212:62 *212:72 6.2006 
10 *212:72 *1892:A3 20.9682 
11 *212:72 *212:83 36.6654 
12 *212:83 *1890:A3 41.4008 
13 *212:62 *1888:A3 20 
14 *212:58 *1932:A1 42.6471 
*END

*D_NET *213 0.00268748
*CONN
*I *1896:S0 I *D sg13g2_mux4_1
*I *2029:Q O *D sg13g2_dlhq_1
*CAP
1 *1896:S0 0.000322966
2 *2029:Q 0.000651919
3 *213:14 0.000974885
4 *1896:S0 *1896:A0 4.77425e-05
5 *1896:S0 *1930:S1 8.20093e-05
6 *1896:S0 *571:42 0
7 *1896:S0 *628:47 0
8 *213:14 *1896:A1 0.0002294
9 *213:14 *1922:A1 2.20362e-05
10 *213:14 *1930:S0 0
11 *213:14 *226:14 0
12 *213:14 *316:12 0.000229432
13 *213:14 *428:16 0
14 *213:14 *546:51 1.54008e-05
15 *213:14 *578:78 0.000111685
16 *213:14 *587:63 0
*RES
1 *2029:Q *213:14 46.7156 
2 *213:14 *1896:S0 42.6986 
*END

*D_NET *214 0.000657803
*CONN
*I *1896:S1 I *D sg13g2_mux4_1
*I *2030:Q O *D sg13g2_dlhq_1
*CAP
1 *1896:S1 7.88372e-06
2 *2030:Q 0.000240256
3 *214:10 0.00024814
4 *1896:S1 *549:64 1.73259e-05
5 *214:10 *226:14 0.000144197
6 *214:10 *344:10 0
7 *214:10 *428:16 0
8 *214:10 *533:20 0
9 *214:10 *549:64 0
10 *214:10 *578:70 0
*RES
1 *2030:Q *214:10 42.4617 
2 *214:10 *1896:S1 40.1159 
*END

*D_NET *215 0.000601139
*CONN
*I *1891:S0 I *D sg13g2_mux4_1
*I *2039:Q O *D sg13g2_dlhq_1
*CAP
1 *1891:S0 0.000187991
2 *2039:Q 0.000187991
3 *1891:S0 *2040:D 0
4 *1891:S0 *572:12 0.000209756
5 *1891:S0 *620:63 0
6 *1891:S0 *627:49 1.54008e-05
*RES
1 *2039:Q *1891:S0 42.2454 
*END

*D_NET *216 0.000704507
*CONN
*I *1891:S1 I *D sg13g2_mux4_1
*I *2040:Q O *D sg13g2_dlhq_1
*CAP
1 *1891:S1 9.47756e-06
2 *2040:Q 0.000286282
3 *216:10 0.000295759
4 *1891:S1 *284:14 1.54008e-05
5 *1891:S1 *460:44 1.73876e-05
6 *216:10 *1905:A0 0
7 *216:10 *1915:S0 8.01995e-05
8 *216:10 *284:14 0
9 *216:10 *349:10 0
10 *216:10 *509:8 0
*RES
1 *2040:Q *216:10 42.4926 
2 *216:10 *1891:S1 40.1159 
*END

*D_NET *217 0.000471862
*CONN
*I *1890:S0 I *D sg13g2_mux4_1
*I *2041:Q O *D sg13g2_dlhq_1
*CAP
1 *1890:S0 0
2 *2041:Q 0.000121297
3 *217:12 0.000121297
4 *217:12 *434:16 0
5 *217:12 *555:49 0
6 *217:12 *590:102 4.78853e-05
7 *217:12 *609:57 0.000181383
*RES
1 *2041:Q *217:12 41.5141 
2 *217:12 *1890:S0 40 
*END

*D_NET *218 0.00189388
*CONN
*I *1890:S1 I *D sg13g2_mux4_1
*I *2042:Q O *D sg13g2_dlhq_1
*CAP
1 *1890:S1 0.00012707
2 *2042:Q 0.000622676
3 *218:10 0.000749746
4 *1890:S1 *1899:A1 0.000107416
5 *1890:S1 *606:89 0
6 *218:10 *279:10 0
7 *218:10 *434:16 0
8 *218:10 *507:8 0
9 *218:10 *590:102 0
10 *218:10 *609:57 0
11 *212:83 *218:10 0.000286974
*RES
1 *2042:Q *218:10 45.8298 
2 *218:10 *1890:S1 41.1484 
*END

*D_NET *219 0.0021518
*CONN
*I *1889:S0 I *D sg13g2_mux4_1
*I *2043:Q O *D sg13g2_dlhq_1
*CAP
1 *1889:S0 0.000493073
2 *2043:Q 0.00017881
3 *219:8 0.000671883
4 *1889:S0 *1889:A0 1.54556e-05
5 *1889:S0 *1991:GATE 0
6 *1889:S0 *2063:D 0
7 *1889:S0 *497:14 0.000792578
8 *1889:S0 *545:30 0
9 *219:8 *2044:D 0
10 *219:8 *455:24 0
11 *219:8 *460:54 0
*RES
1 *2043:Q *219:8 41.5862 
2 *219:8 *1889:S0 45.2942 
*END

*D_NET *220 0.00177141
*CONN
*I *1889:S1 I *D sg13g2_mux4_1
*I *2044:Q O *D sg13g2_dlhq_1
*CAP
1 *1889:S1 1.21371e-05
2 *2044:Q 0.000679673
3 *220:14 0.00069181
4 *1889:S1 *579:76 1.73259e-05
5 *220:14 *2063:RESET_B 0.000209871
6 *220:14 *463:8 0
7 *220:14 *509:8 0
8 *220:14 *545:30 0.00014514
9 *220:14 *579:76 0
10 *1889:A3 *220:14 1.54556e-05
*RES
1 *2044:Q *220:14 46.8392 
2 *220:14 *1889:S1 40.1159 
*END

*D_NET *221 0.000551991
*CONN
*I *1888:S0 I *D sg13g2_mux4_1
*I *2045:Q O *D sg13g2_dlhq_1
*CAP
1 *1888:S0 4.26736e-05
2 *2045:Q 6.23186e-05
3 *221:8 0.000104992
4 *1888:S0 *1892:A0 8.01995e-05
5 *1888:S0 *432:14 8.01995e-05
6 *221:8 *446:16 0.000181608
7 *221:8 *448:20 0
*RES
1 *2045:Q *221:8 40.8446 
2 *221:8 *1888:S0 40.5356 
*END

*D_NET *222 0.001929
*CONN
*I *1888:S1 I *D sg13g2_mux4_1
*I *2046:Q O *D sg13g2_dlhq_1
*CAP
1 *1888:S1 4.55928e-05
2 *2046:Q 5.28356e-05
3 *222:18 0.000305417
4 *222:10 0.00031266
5 *1888:S1 *477:40 0
6 *1888:S1 *517:16 7.48093e-05
7 *222:10 *1888:A1 4.75151e-05
8 *222:10 *449:20 0.000127853
9 *222:10 *492:12 0.000127853
10 *222:10 *602:60 4.75151e-05
11 *222:18 *431:6 0.000143351
12 *222:18 *446:16 0.000500214
13 *222:18 *448:20 0
14 *222:18 *602:60 0.000143379
*RES
1 *2046:Q *222:10 40.9167 
2 *222:10 *222:18 43.296 
3 *222:18 *1888:S1 40.4995 
*END

*D_NET *223 0.0157143
*CONN
*I *1882:S I *D sg13g2_mux2_1
*I *1884:S I *D sg13g2_mux2_1
*I *1881:S I *D sg13g2_mux2_1
*I *1883:S I *D sg13g2_mux2_1
*I *1875:B I *D sg13g2_nor2_1
*I *1873:S0 I *D sg13g2_mux4_1
*I *1878:S I *D sg13g2_mux2_1
*I *1876:B_N I *D sg13g2_nor2b_1
*I *2047:Q O *D sg13g2_dlhq_1
*CAP
1 *1882:S 0
2 *1884:S 0
3 *1881:S 0.0010593
4 *1883:S 0
5 *1875:B 0
6 *1873:S0 0
7 *1878:S 0.000366592
8 *1876:B_N 0
9 *2047:Q 3.3516e-05
10 *223:123 0.000494999
11 *223:84 0.00110227
12 *223:77 0.000612626
13 *223:67 0.000848446
14 *223:56 0.000107894
15 *223:34 0.000370719
16 *223:26 0.000827891
17 *223:24 0.000327858
18 *223:22 0.000374278
19 *223:20 0.000482739
20 *223:12 0.00109037
21 *223:8 0.000198187
22 *1878:S *1863:A1 0
23 *1878:S *1880:A2 0
24 *1878:S *231:28 0
25 *1878:S *231:32 0
26 *1878:S *231:57 8.01116e-05
27 *1878:S *584:38 0.000498172
28 *1881:S *1881:A0 0.000144102
29 *1881:S *1881:A1 0
30 *1881:S *1886:B 0
31 *1881:S *1908:S0 0.000175693
32 *1881:S *363:12 0
33 *1881:S *382:12 0
34 *1881:S *595:24 0.000336542
35 *1881:S *596:55 0
36 *223:8 *224:22 4.77347e-05
37 *223:8 *386:10 0
38 *223:12 *282:12 0.000245838
39 *223:12 *562:44 0
40 *223:20 *1885:S0 0.000338433
41 *223:20 *1886:A_N 0
42 *223:20 *224:22 0.000179025
43 *223:20 *226:25 0.000439264
44 *223:20 *428:16 0
45 *223:24 *231:85 0
46 *223:24 *393:10 0
47 *223:26 *1873:A0 0
48 *223:26 *1873:A1 8.01995e-05
49 *223:34 *1873:A1 0
50 *223:34 *1880:A1 0.000241955
51 *223:34 *257:28 0.000242098
52 *223:34 *387:12 0
53 *223:34 *393:10 0
54 *223:34 *588:62 0
55 *223:56 *1873:A0 1.54008e-05
56 *223:56 *588:62 0.00023464
57 *223:56 *628:16 0
58 *223:67 *621:12 0.000862796
59 *223:67 *628:16 0.000866425
60 *223:77 *1859:B 8.00842e-05
61 *223:77 *234:31 8.00842e-05
62 *223:77 *382:12 0.000272834
63 *223:77 *388:10 4.77425e-05
64 *223:77 *545:80 0
65 *223:77 *584:22 0.000705224
66 *223:77 *584:26 0.000181145
67 *223:77 *588:60 0
68 *223:77 *589:43 0
69 *223:84 *382:12 6.46834e-05
70 *223:123 *224:12 0.000175693
71 *223:123 *237:54 0.000175693
72 *223:123 *282:12 0.00037434
73 *223:123 *383:10 0.000230615
74 *223:123 *562:44 0
75 *223:123 *598:34 0
*RES
1 *2047:Q *223:8 40.3193 
2 *223:8 *223:12 21.6171 
3 *223:12 *223:20 44.5938 
4 *223:20 *223:22 0.5356 
5 *223:22 *223:24 1.1845 
6 *223:24 *223:26 0.9682 
7 *223:26 *223:34 43.4505 
8 *223:34 *1876:B_N 20 
9 *223:26 *1878:S 23.6977 
10 *223:24 *223:56 41.4111 
11 *223:56 *1873:S0 20 
12 *223:22 *223:67 44.0582 
13 *223:67 *223:77 46.4272 
14 *223:77 *1875:B 20 
15 *223:67 *223:84 0.5356 
16 *223:84 *1883:S 20 
17 *223:84 *1881:S 30.2382 
18 *223:20 *1884:S 20 
19 *223:12 *223:123 45.0058 
20 *223:123 *1882:S 20 
*END

*D_NET *224 0.00945179
*CONN
*I *1885:S1 I *D sg13g2_mux4_1
*I *1873:S1 I *D sg13g2_mux4_1
*I *1879:A1 I *D sg13g2_a21o_1
*I *1877:A I *D sg13g2_nor3_1
*I *2048:Q O *D sg13g2_dlhq_1
*CAP
1 *1885:S1 0
2 *1873:S1 0
3 *1879:A1 0
4 *1877:A 0
5 *2048:Q 0.000881143
6 *224:77 0.000685557
7 *224:52 0.000147821
8 *224:40 0.000423726
9 *224:32 0.000684285
10 *224:30 0.00057135
11 *224:22 0.000629664
12 *224:12 0.00203339
13 *224:12 *1867:A0 0
14 *224:12 *237:64 0.000417793
15 *224:12 *257:28 0
16 *224:12 *381:10 0
17 *224:12 *383:10 0
18 *224:12 *445:58 0
19 *224:12 *562:34 0
20 *224:12 *562:42 0
21 *224:12 *578:41 0
22 *224:22 *1869:A1 0
23 *224:22 *1874:B 0
24 *224:22 *1930:A1 8.00842e-05
25 *224:22 *2047:GATE 1.54285e-05
26 *224:22 *237:40 0
27 *224:22 *383:10 0
28 *224:22 *428:16 0.000230474
29 *224:22 *445:58 0
30 *224:22 *600:58 7.9225e-05
31 *224:30 *587:63 0
32 *224:30 *590:70 0
33 *224:32 *1879:A2 6.62234e-05
34 *224:32 *1879:B1 0.000175693
35 *224:32 *2047:GATE 0
36 *224:32 *282:18 0
37 *224:32 *387:12 0
38 *224:32 *590:70 0
39 *224:40 *1877:C 0
40 *224:40 *1879:A2 8.00842e-05
41 *224:40 *1879:B1 1.54008e-05
42 *224:40 *390:14 0
43 *224:52 *1877:B 3.54888e-05
44 *224:52 *1953:C 5.82552e-05
45 *224:52 *371:22 0.000225699
46 *224:52 *411:8 0
47 *224:77 *1869:A1 0
48 *224:77 *231:85 0
49 *224:77 *231:89 0
50 *224:77 *382:12 1.73876e-05
51 *224:77 *383:10 0
52 *224:77 *397:10 0.000233249
53 *224:77 *596:28 0.00118098
54 *224:77 *600:65 0
55 *133:11 *224:40 8.09323e-05
56 *223:8 *224:22 4.77347e-05
57 *223:20 *224:22 0.000179025
58 *223:123 *224:12 0.000175693
*RES
1 *2048:Q *224:12 26.3473 
2 *224:12 *224:22 44.7586 
3 *224:22 *224:30 41.4549 
4 *224:30 *224:32 3.88672 
5 *224:32 *224:40 42.369 
6 *224:40 *224:52 41.5939 
7 *224:52 *1877:A 20 
8 *224:32 *1879:A1 20 
9 *224:30 *1873:S1 20 
10 *224:12 *224:77 47.4289 
11 *224:77 *1885:S1 20 
*END

*D_NET *225 0.00179784
*CONN
*I *1895:S0 I *D sg13g2_mux4_1
*I *2031:Q O *D sg13g2_dlhq_1
*CAP
1 *1895:S0 0.000169985
2 *2031:Q 0.000102105
3 *225:8 0.00027209
4 *1895:S0 *1899:A1 0
5 *1895:S0 *464:8 0
6 *1895:S0 *582:42 0.000145107
7 *225:8 *507:8 0.000554526
8 *212:83 *225:8 0.000554025
*RES
1 *2031:Q *225:8 42.575 
2 *225:8 *1895:S0 41.6171 
*END

*D_NET *226 0.00581408
*CONN
*I *1885:S0 I *D sg13g2_mux4_1
*I *1874:A I *D sg13g2_nor2_1
*I *1856:A I *D sg13g2_inv_1
*I *2049:Q O *D sg13g2_dlhq_1
*CAP
1 *1885:S0 0.000311747
2 *1874:A 3.13955e-05
3 *1856:A 3.34444e-05
4 *2049:Q 0.000521803
5 *226:25 0.000888866
6 *226:14 0.00110097
7 *1856:A *328:16 4.77425e-05
8 *1874:A *257:28 4.77425e-05
9 *1885:S0 *1885:A0 1.54008e-05
10 *1885:S0 *1886:A_N 0.000128769
11 *1885:S0 *227:18 0.000208048
12 *226:14 *1930:S0 0.000127781
13 *226:14 *428:16 0
14 *226:14 *533:20 0
15 *226:14 *578:70 0.000241567
16 *226:14 *578:78 1.54556e-05
17 *226:25 *1930:S0 0.00109845
18 *226:25 *227:18 7.30101e-05
19 *226:25 *428:16 0
20 *226:25 *621:12 0
21 *213:14 *226:14 0
22 *214:10 *226:14 0.000144197
23 *223:20 *1885:S0 0.000338433
24 *223:20 *226:25 0.000439264
*RES
1 *2049:Q *226:14 45.6032 
2 *226:14 *1856:A 40.3193 
3 *226:14 *226:25 6.5302 
4 *226:25 *1874:A 40.3193 
5 *226:25 *1885:S0 43.6359 
*END

*D_NET *227 0.00801863
*CONN
*I *1886:A_N I *D sg13g2_nand2b_1
*I *1880:B1 I *D sg13g2_o21ai_1
*I *2050:Q O *D sg13g2_dlhq_1
*CAP
1 *1886:A_N 0.000407642
2 *1880:B1 0
3 *2050:Q 0.000902426
4 *227:18 0.00112569
5 *227:10 0.00162048
6 *1886:A_N *428:16 0
7 *1886:A_N *598:22 0
8 *1886:A_N *601:86 0.000387447
9 *1886:A_N *621:12 0.001214
10 *227:10 *2058:GATE 0
11 *227:10 *234:12 0
12 *227:10 *371:22 0
13 *227:10 *426:26 0
14 *227:10 *576:26 0
15 *227:10 *577:18 0
16 *227:18 *409:12 0.00109746
17 *227:18 *590:74 0.000571547
18 *227:18 *621:12 0.000282102
19 *1885:S0 *1886:A_N 0.000128769
20 *1885:S0 *227:18 0.000208048
21 *133:11 *227:18 0
22 *223:20 *1886:A_N 0
23 *226:25 *227:18 7.30101e-05
*RES
1 *2050:Q *227:10 47.5911 
2 *227:10 *227:18 48.5799 
3 *227:18 *1880:B1 40 
4 *227:18 *1886:A_N 45.7886 
*END

*D_NET *228 0.00308076
*CONN
*I *1939:B1 I *D sg13g2_a21oi_1
*I *1944:A I *D sg13g2_nand3_1
*I *2051:Q O *D sg13g2_dlhq_1
*CAP
1 *1939:B1 0.000138527
2 *1944:A 0.000432699
3 *2051:Q 5.43073e-05
4 *228:8 0.000625534
5 *1939:B1 *498:24 0.000240377
6 *1944:A *1938:A 0.0001122
7 *1944:A *1939:A2 0
8 *1944:A *268:14 0
9 *1944:A *425:14 0.000182121
10 *1944:A *425:26 0
11 *1944:A *476:12 0.00034112
12 *1944:A *500:83 0
13 *1944:A *623:28 0
14 *1944:A *623:34 0.000401459
15 *228:8 *425:14 0.000265159
16 *228:8 *476:12 0.000287256
*RES
1 *2051:Q *228:8 41.339 
2 *228:8 *1944:A 45.2839 
3 *228:8 *1939:B1 41.6171 
*END

*D_NET *229 0.00617938
*CONN
*I *1938:A I *D sg13g2_nor2b_1
*I *1942:B1 I *D sg13g2_o21ai_1
*I *1937:A2 I *D sg13g2_o21ai_1
*I *1941:B I *D sg13g2_nor3_1
*I *1936:B I *D sg13g2_nand2b_1
*I *2052:Q O *D sg13g2_dlhq_1
*CAP
1 *1938:A 9.48585e-05
2 *1942:B1 0
3 *1937:A2 0
4 *1941:B 8.90607e-05
5 *1936:B 0.00020407
6 *2052:Q 0.000539313
7 *229:54 0.000213969
8 *229:44 0.000307373
9 *229:20 0.000461116
10 *229:16 0.000430102
11 *229:14 0.000802884
12 *1936:B *1936:A_N 1.54008e-05
13 *1936:B *325:22 0
14 *1936:B *369:24 0.000106487
15 *1936:B *369:30 0.000234111
16 *1936:B *400:10 0
17 *1936:B *407:8 0
18 *1936:B *476:8 0.0001122
19 *1936:B *601:48 0
20 *1938:A *1939:A2 1.54008e-05
21 *1938:A *369:24 0
22 *1941:B *388:16 1.54008e-05
23 *229:14 *230:10 0
24 *229:14 *408:8 0
25 *229:14 *435:8 0.000434147
26 *229:14 *498:10 0
27 *229:14 *583:32 0.000434147
28 *229:14 *623:28 0.000160341
29 *229:14 *626:14 0.000401686
30 *229:16 *230:10 0
31 *229:16 *369:12 0
32 *229:16 *369:24 7.45103e-05
33 *229:16 *588:34 7.30101e-05
34 *229:16 *623:28 0.000126445
35 *229:20 *369:24 0.000176399
36 *229:20 *400:10 2.1786e-05
37 *229:20 *407:8 0
38 *229:44 *1940:A2 1.51e-05
39 *229:44 *230:42 6.4711e-05
40 *229:44 *369:24 7.94173e-05
41 *229:54 *1937:B1 1.54008e-05
42 *229:54 *1937:A1 4.77425e-05
43 *229:54 *230:42 1.54008e-05
44 *229:54 *230:48 0.000285187
45 *229:54 *587:20 0
46 *229:54 *590:26 0
47 *1944:A *1938:A 0.0001122
*RES
1 *2052:Q *229:14 46.6229 
2 *229:14 *229:16 1.5862 
3 *229:16 *229:20 1.6583 
4 *229:20 *1936:B 42.3381 
5 *229:20 *1941:B 40.7519 
6 *229:16 *229:44 20.9682 
7 *229:44 *229:54 42.2248 
8 *229:54 *1937:A2 20 
9 *229:44 *1942:B1 20 
10 *229:14 *1938:A 41.0712 
*END

*D_NET *230 0.00493472
*CONN
*I *1939:A1 I *D sg13g2_a21oi_1
*I *1942:A2 I *D sg13g2_o21ai_1
*I *1943:B I *D sg13g2_nand2_1
*I *1940:A1 I *D sg13g2_o21ai_1
*I *1941:C I *D sg13g2_nor3_1
*I *2053:Q O *D sg13g2_dlhq_1
*CAP
1 *1939:A1 4.62772e-05
2 *1942:A2 0
3 *1943:B 0
4 *1940:A1 0
5 *1941:C 0
6 *2053:Q 0.000220933
7 *230:48 0.000224864
8 *230:42 0.00027684
9 *230:38 0.000161655
10 *230:22 5.4453e-05
11 *230:16 0.000133971
12 *230:10 0.00039726
13 *230:8 0.000475272
14 *230:8 *268:14 0
15 *230:8 *403:8 7.49083e-05
16 *230:8 *404:8 0
17 *230:8 *626:14 0.000582183
18 *230:10 *369:24 0.000104573
19 *230:10 *403:8 0.000493174
20 *230:10 *588:34 7.30101e-05
21 *230:10 *626:14 7.5468e-05
22 *230:16 *1940:A2 8.00842e-05
23 *230:16 *369:24 7.3236e-05
24 *230:16 *545:80 4.77425e-05
25 *230:22 *626:24 0.000126358
26 *230:38 *422:31 0
27 *230:38 *545:88 0
28 *230:42 *1940:A2 0
29 *230:42 *1942:A1 1.54008e-05
30 *230:48 *1950:B_N 0
31 *230:48 *361:10 0.000126307
32 *230:48 *407:8 0.000705456
33 *230:48 *601:29 0
34 *229:14 *230:10 0
35 *229:16 *230:10 0
36 *229:44 *230:42 6.4711e-05
37 *229:54 *230:42 1.54008e-05
38 *229:54 *230:48 0.000285187
*RES
1 *2053:Q *230:8 42.8222 
2 *230:8 *230:10 2.575 
3 *230:10 *230:16 20.8858 
4 *230:16 *230:22 40.5974 
5 *230:22 *1941:C 20 
6 *230:16 *1940:A1 20 
7 *230:10 *230:38 40.9682 
8 *230:38 *230:42 20.5356 
9 *230:42 *230:48 43.3166 
10 *230:48 *1943:B 20 
11 *230:42 *1942:A2 20 
12 *230:8 *1939:A1 40.4274 
*END

*D_NET *231 0.0174899
*CONN
*I *1858:S0 I *D sg13g2_mux4_1
*I *1868:S I *D sg13g2_mux2_1
*I *1866:S I *D sg13g2_mux2_1
*I *1867:S I *D sg13g2_mux2_1
*I *1869:S I *D sg13g2_mux2_1
*I *1863:S I *D sg13g2_mux2_1
*I *1860:A I *D sg13g2_nor2_1
*I *1861:B_N I *D sg13g2_nor2b_1
*I *2054:Q O *D sg13g2_dlhq_1
*CAP
1 *1858:S0 6.83023e-05
2 *1868:S 0
3 *1866:S 0
4 *1867:S 0.000233499
5 *1869:S 0
6 *1863:S 3.18678e-06
7 *1860:A 0.000203326
8 *1861:B_N 0.000231087
9 *2054:Q 0.000814385
10 *231:89 0.000472999
11 *231:85 0.00117549
12 *231:77 0.00109081
13 *231:57 0.000640576
14 *231:32 0.000821669
15 *231:28 0.00052143
16 *231:16 0.000701379
17 *231:14 0.00045782
18 *231:10 0.00102226
19 *1858:S0 *234:31 4.77699e-05
20 *1858:S0 *601:60 0.000112656
21 *1860:A *1959:D 0.000370676
22 *1860:A *477:10 0.000370676
23 *1861:B_N *237:23 8.00842e-05
24 *1861:B_N *237:40 1.54008e-05
25 *1861:B_N *444:12 0.000751826
26 *1861:B_N *512:12 0.000753194
27 *1861:B_N *576:32 8.00842e-05
28 *1863:S *1880:A2 3.8502e-07
29 *1867:S *445:58 0
30 *1867:S *571:42 0
31 *231:10 *268:8 0.000241052
32 *231:10 *388:10 0.000441715
33 *231:10 *444:12 0
34 *231:10 *498:24 0.000653113
35 *231:10 *559:30 0.000241052
36 *231:10 *576:12 0.000181608
37 *231:10 *576:18 0.000550038
38 *231:10 *576:74 0
39 *231:10 *617:10 0
40 *231:14 *1864:A1 0.000446044
41 *231:14 *234:31 0
42 *231:14 *375:20 0
43 *231:16 *1864:A1 0.000439796
44 *231:16 *234:31 0
45 *231:16 *375:20 0
46 *231:28 *1863:A0 4.77425e-05
47 *231:28 *1863:A1 0
48 *231:28 *1864:A1 7.51285e-05
49 *231:28 *1880:A2 0
50 *231:28 *375:20 0
51 *231:28 *387:12 0
52 *231:28 *393:10 0.000391932
53 *231:32 *1863:A1 1.54008e-05
54 *231:32 *1880:A2 8.03146e-05
55 *231:57 *1863:A1 1.54008e-05
56 *231:57 *1911:A3 0
57 *231:57 *444:12 0.000229435
58 *231:57 *512:12 0.00020869
59 *231:57 *584:38 0.000186814
60 *231:57 *591:36 0.000102089
61 *231:77 *1864:A1 4.75151e-05
62 *231:77 *1864:B1 0.000240492
63 *231:77 *1873:A0 0
64 *231:77 *584:38 0
65 *231:85 *1864:B1 0
66 *231:85 *383:10 0
67 *231:85 *397:10 0.000389747
68 *231:85 *598:34 0.000756802
69 *231:85 *601:71 0
70 *231:89 *1869:A1 0
71 *231:89 *428:16 0
72 *231:89 *458:14 0
73 *231:89 *598:34 0.000386844
74 *1878:S *231:28 0
75 *1878:S *231:32 0
76 *1878:S *231:57 8.01116e-05
77 *223:24 *231:85 0
78 *224:77 *231:85 0
79 *224:77 *231:89 0
*RES
1 *2054:Q *231:10 49.3833 
2 *231:10 *231:14 2.8325 
3 *231:14 *231:16 2.0806 
4 *231:16 *231:28 24.1303 
5 *231:28 *231:32 21.4008 
6 *231:32 *1861:B_N 44.0994 
7 *231:32 *231:57 44.6865 
8 *231:57 *1860:A 42.4823 
9 *231:28 *1863:S 20.1056 
10 *231:16 *231:77 21.6171 
11 *231:77 *231:85 29.1464 
12 *231:85 *231:89 22.575 
13 *231:89 *1869:S 20 
14 *231:89 *1867:S 22.1836 
15 *231:85 *1866:S 40 
16 *231:77 *1868:S 20 
17 *231:14 *1858:S0 40.7519 
*END

*D_NET *232 0.00871166
*CONN
*I *1858:S1 I *D sg13g2_mux4_1
*I *1870:S1 I *D sg13g2_mux4_1
*I *1862:A I *D sg13g2_nor3_1
*I *1864:A1 I *D sg13g2_a21o_1
*I *2055:Q O *D sg13g2_dlhq_1
*CAP
1 *1858:S1 0.000142716
2 *1870:S1 0
3 *1862:A 0
4 *1864:A1 0.000363274
5 *2055:Q 0.000210059
6 *232:44 0.000936401
7 *232:25 0.0010569
8 *232:10 0.000640184
9 *232:8 0.00050919
10 *1858:S1 *1859:B 0.00013915
11 *1858:S1 *233:8 0.000103073
12 *1858:S1 *388:10 0.000112198
13 *1858:S1 *585:74 0
14 *1864:A1 *1864:A2 0.000144798
15 *1864:A1 *1864:B1 0
16 *1864:A1 *1873:A1 0.000755576
17 *232:8 *1859:B 0.000176882
18 *232:8 *545:80 0.000337174
19 *232:10 *233:8 0.000127542
20 *232:10 *388:10 0
21 *232:10 *585:74 0
22 *232:25 *1862:B 0.000208035
23 *232:25 *1872:A2 0.000208035
24 *232:44 *1862:B 0
25 *232:44 *1872:A2 0.000143908
26 *232:44 *1886:B 0
27 *232:44 *1908:A1 0
28 *232:44 *1925:A0 0.000170861
29 *232:44 *399:18 7.92265e-05
30 *232:44 *428:8 0.00014454
31 *232:44 *594:26 8.00842e-05
32 *232:44 *594:33 0.000272718
33 *232:44 *595:20 0.00023464
34 *232:44 *596:55 0.000170861
35 *232:44 *599:42 0
36 *232:44 *624:28 0.000235153
37 *231:14 *1864:A1 0.000446044
38 *231:16 *1864:A1 0.000439796
39 *231:28 *1864:A1 7.51285e-05
40 *231:77 *1864:A1 4.75151e-05
*RES
1 *2055:Q *232:8 42.266 
2 *232:8 *232:10 1.339 
3 *232:10 *1864:A1 45.5208 
4 *232:10 *232:25 21.4008 
5 *232:25 *1862:A 20 
6 *232:25 *232:44 49.749 
7 *232:44 *1870:S1 20 
8 *232:8 *1858:S1 41.5295 
*END

*D_NET *233 0.00609289
*CONN
*I *1859:A I *D sg13g2_nor2_1
*I *1854:A I *D sg13g2_inv_1
*I *1870:S0 I *D sg13g2_mux4_1
*I *2056:Q O *D sg13g2_dlhq_1
*CAP
1 *1859:A 2.13368e-05
2 *1854:A 3.82469e-05
3 *1870:S0 0.000354274
4 *2056:Q 0.000160814
5 *233:32 0.00123921
6 *233:24 0.000941438
7 *233:18 0.000226205
8 *233:12 0.000349534
9 *233:8 0.000281062
10 *1854:A *368:14 0
11 *1859:A *545:80 4.78578e-05
12 *1859:A *588:60 3.23417e-05
13 *1870:S0 *1920:A0 0.00020871
14 *1870:S0 *382:12 0
15 *1870:S0 *600:65 0.000175725
16 *233:8 *388:10 0
17 *233:8 *589:32 0.000126358
18 *233:8 *617:10 0.000280967
19 *233:12 *545:80 0.000208063
20 *233:12 *588:60 0.000208062
21 *233:18 *545:66 0
22 *233:18 *596:16 0.000309722
23 *233:18 *617:16 0
24 *233:24 *601:86 7.30101e-05
25 *233:24 *621:12 7.44263e-05
26 *233:32 *1925:A0 0.000176882
27 *233:32 *276:18 0
28 *233:32 *383:10 0.000280515
29 *233:32 *384:14 4.75151e-05
30 *233:32 *398:8 0
31 *233:32 *458:14 0
32 *233:32 *596:20 0
33 *233:32 *599:42 0
34 *1858:S1 *233:8 0.000103073
35 *232:10 *233:8 0.000127542
*RES
1 *2056:Q *233:8 42.0806 
2 *233:8 *233:12 21.4008 
3 *233:12 *233:18 42.0497 
4 *233:18 *233:24 40.3502 
5 *233:24 *233:32 47.4675 
6 *233:32 *1870:S0 23.3475 
7 *233:24 *1854:A 20.3502 
8 *233:12 *1859:A 20.3193 
*END

*D_NET *234 0.00667939
*CONN
*I *1871:A_N I *D sg13g2_nand2b_1
*I *1865:B1 I *D sg13g2_o21ai_1
*I *2057:Q O *D sg13g2_dlhq_1
*CAP
1 *1871:A_N 0
2 *1865:B1 0
3 *2057:Q 0
4 *234:31 0.000760029
5 *234:12 0.00193609
6 *234:6 0.00117606
7 *234:12 *1865:A2 1.54008e-05
8 *234:12 *1922:A0 0
9 *234:12 *1959:D 0.000234744
10 *234:12 *391:8 0.000386714
11 *234:12 *426:14 0
12 *234:12 *512:12 0
13 *234:12 *576:26 0.00144787
14 *234:12 *577:8 0.000183436
15 *234:12 *591:42 0
16 *234:12 *591:68 0
17 *234:31 *1864:A2 0
18 *234:31 *1865:A2 0.000240377
19 *234:31 *1871:B 1.54008e-05
20 *234:31 *375:20 0
21 *234:31 *584:58 0.000155414
22 *1858:S0 *234:31 4.77699e-05
23 *223:77 *234:31 8.00842e-05
24 *227:10 *234:12 0
25 *231:14 *234:31 0
26 *231:16 *234:31 0
*RES
1 *2057:Q *234:6 40 
2 *234:6 *234:12 33.2149 
3 *234:12 *1865:B1 20 
4 *234:12 *234:31 46.6332 
5 *234:31 *1871:A_N 20 
*END

*D_NET *235 0.00205307
*CONN
*I *1949:C1 I *D sg13g2_a221oi_1
*I *1953:A I *D sg13g2_nand3_1
*I *2058:Q O *D sg13g2_dlhq_1
*CAP
1 *1949:C1 4.72978e-05
2 *1953:A 0
3 *2058:Q 0.000361235
4 *235:16 0.000178265
5 *235:12 0.000492203
6 *235:12 *1949:A1 0.000106064
7 *235:12 *1952:B1 0
8 *235:12 *1954:B 0.00014425
9 *235:12 *237:16 0.000143642
10 *235:12 *272:12 0
11 *235:12 *371:8 0.000179634
12 *235:12 *429:8 0.000112426
13 *235:16 *1953:C 0.00020871
14 *235:16 *585:20 7.93436e-05
*RES
1 *2058:Q *235:12 43.9552 
2 *235:12 *235:16 21.4008 
3 *235:16 *1953:A 20 
4 *235:16 *1949:C1 20.5974 
*END

*D_NET *236 0.00171549
*CONN
*I *1895:S1 I *D sg13g2_mux4_1
*I *2032:Q O *D sg13g2_dlhq_1
*CAP
1 *1895:S1 0.000168912
2 *2032:Q 8.73883e-05
3 *236:8 0.0002563
4 *1895:S1 *459:18 7.48175e-05
5 *1895:S1 *579:70 0
6 *1895:S1 *612:99 0.00023511
7 *236:8 *507:8 0.000446525
8 *212:83 *236:8 0.000446439
*RES
1 *2032:Q *236:8 42.0806 
2 *236:8 *1895:S1 41.5811 
*END

*D_NET *237 0.0145759
*CONN
*I *1950:A I *D sg13g2_nor2b_1
*I *1951:A2 I *D sg13g2_a22oi_1
*I *1947:A2 I *D sg13g2_a21oi_1
*I *1946:B I *D sg13g2_nor2_1
*I *1952:A2 I *D sg13g2_o21ai_1
*I *1948:A I *D sg13g2_nor2_1
*I *2059:Q O *D sg13g2_dlhq_1
*CAP
1 *1950:A 0
2 *1951:A2 0
3 *1947:A2 2.60565e-05
4 *1946:B 0
5 *1952:A2 0.000114029
6 *1948:A 0
7 *2059:Q 0
8 *237:102 0.000289676
9 *237:90 0.000674033
10 *237:75 0.000918464
11 *237:64 0.00035658
12 *237:54 0.00116828
13 *237:40 0.00130993
14 *237:23 0.000908868
15 *237:16 0.000853322
16 *237:4 0.00106476
17 *1947:A2 *1923:S0 4.77425e-05
18 *1947:A2 *369:30 4.77425e-05
19 *1952:A2 *1952:B1 1.54008e-05
20 *1952:A2 *2157:A 0
21 *237:16 *1948:B 0
22 *237:16 *1954:B 0
23 *237:16 *2059:GATE 0.000240332
24 *237:16 *238:8 4.77425e-05
25 *237:16 *271:8 0.000446631
26 *237:16 *371:12 0
27 *237:16 *426:26 0
28 *237:16 *577:22 8.00496e-05
29 *237:23 *1948:B 0
30 *237:23 *1952:B1 0
31 *237:23 *1953:C 0
32 *237:23 *576:32 0
33 *237:40 *1922:A3 0
34 *237:40 *2047:GATE 0.00037181
35 *237:40 *2157:A 0
36 *237:40 *445:58 0.00014429
37 *237:40 *562:44 4.85985e-05
38 *237:54 *1874:B 0.0001122
39 *237:54 *257:28 0.000144795
40 *237:54 *386:10 0
41 *237:54 *587:63 0
42 *237:54 *595:66 8.01118e-05
43 *237:54 *628:16 0.000368727
44 *237:54 *628:22 7.44077e-05
45 *237:64 *1926:A0 0
46 *237:64 *257:28 0
47 *237:64 *261:14 8.00842e-05
48 *237:64 *381:10 1.54008e-05
49 *237:64 *562:42 0
50 *237:75 *1949:B2 0.000178206
51 *237:75 *1953:B 0.000815528
52 *237:75 *2059:GATE 0
53 *237:75 *272:12 0
54 *237:75 *590:26 0.000372054
55 *237:90 *1923:S1 0
56 *237:90 *1953:B 0.000797556
57 *237:90 *414:12 0.000305088
58 *237:90 *590:26 0.000234224
59 *237:90 *629:24 0.000553661
60 *237:102 *1923:S1 0.000111685
61 *237:102 *1943:A 0
62 *237:102 *361:10 0.000144054
63 *237:102 *589:76 0.000181192
64 *1861:B_N *237:23 8.00842e-05
65 *1861:B_N *237:40 1.54008e-05
66 *223:123 *237:54 0.000175693
67 *224:12 *237:64 0.000417793
68 *224:22 *237:40 0
69 *235:12 *237:16 0.000143642
*RES
1 *2059:Q *237:4 20 
2 *237:4 *237:16 46.1285 
3 *237:16 *1948:A 20 
4 *237:16 *237:23 2.6986 
5 *237:23 *1952:A2 21.3802 
6 *237:23 *237:40 44.7483 
7 *237:40 *237:54 47.9619 
8 *237:54 *237:64 43.399 
9 *237:64 *1946:B 20 
10 *237:4 *237:75 26.3242 
11 *237:75 *1947:A2 40.3193 
12 *237:75 *237:90 25.8607 
13 *237:90 *237:102 43.1312 
14 *237:102 *1951:A2 20 
15 *237:90 *1950:A 20 
*END

*D_NET *238 0.00143665
*CONN
*I *1857:A I *D sg13g2_inv_1
*I *1952:B1 I *D sg13g2_o21ai_1
*I *2060:Q O *D sg13g2_dlhq_1
*CAP
1 *1857:A 0
2 *1952:B1 0.000562281
3 *2060:Q 6.8258e-05
4 *238:8 0.000630539
5 *1952:B1 *2157:A 0
6 *1952:B1 *324:14 0
7 *1952:B1 *429:8 0.000112426
8 *1952:B1 *577:22 0
9 *1952:A2 *1952:B1 1.54008e-05
10 *235:12 *1952:B1 0
11 *237:16 *238:8 4.77425e-05
12 *237:23 *1952:B1 0
*RES
1 *2060:Q *238:8 20.9167 
2 *238:8 *1952:B1 25.5826 
3 *238:8 *1857:A 20 
*END

*D_NET *239 0.00121969
*CONN
*I *1894:S0 I *D sg13g2_mux4_1
*I *2033:Q O *D sg13g2_dlhq_1
*CAP
1 *1894:S0 0.000602133
2 *2033:Q 0.000602133
3 *1894:S0 *1894:A0 1.54285e-05
4 *1894:S0 *2034:GATE 0
5 *1894:S0 *278:14 0
6 *1894:S0 *546:51 0
7 *1894:S0 *549:64 0
8 *1894:S0 *578:57 0
9 *1894:S0 *578:70 0
10 *1894:S0 *616:38 0
*RES
1 *2033:Q *1894:S0 45.8607 
*END

*D_NET *240 0.00179029
*CONN
*I *1894:S1 I *D sg13g2_mux4_1
*I *2034:Q O *D sg13g2_dlhq_1
*CAP
1 *1894:S1 8.98568e-05
2 *2034:Q 0.000296115
3 *240:10 0.000385972
4 *1894:S1 *2068:A 0.000139151
5 *240:10 *1963:D 0
6 *240:10 *551:8 0
7 *240:10 *578:51 0.000654865
8 *240:10 *616:38 0.000112501
9 *240:10 *624:43 0.000111827
*RES
1 *2034:Q *240:10 43.8213 
2 *240:10 *1894:S1 40.9322 
*END

*D_NET *241 0.00216485
*CONN
*I *1893:S0 I *D sg13g2_mux4_1
*I *2035:Q O *D sg13g2_dlhq_1
*CAP
1 *1893:S0 2.60565e-05
2 *2035:Q 0.0003531
3 *241:10 0.000379156
4 *1893:S0 *1893:A0 4.77425e-05
5 *1893:S0 *497:14 4.77425e-05
6 *241:10 *2035:GATE 7.52158e-05
7 *241:10 *486:30 0.000285101
8 *241:10 *544:28 0.000176511
9 *241:10 *580:43 0.000630055
10 *241:10 *580:62 0.000144169
11 *212:18 *241:10 0
*RES
1 *2035:Q *241:10 44.5011 
2 *241:10 *1893:S0 40.3193 
*END

*D_NET *242 0.00142483
*CONN
*I *1893:S1 I *D sg13g2_mux4_1
*I *2036:Q O *D sg13g2_dlhq_1
*CAP
1 *1893:S1 0.000131496
2 *2036:Q 0.00014961
3 *242:8 0.000281106
4 *1893:S1 *1933:S 0.00023567
5 *1893:S1 *579:76 0.000235785
6 *242:8 *481:14 0.000391164
7 *242:8 *614:20 0
*RES
1 *2036:Q *242:8 41.8334 
2 *242:8 *1893:S1 41.5811 
*END

*D_NET *243 0.000885264
*CONN
*I *1892:S0 I *D sg13g2_mux4_1
*I *2037:Q O *D sg13g2_dlhq_1
*CAP
1 *1892:S0 5.13667e-05
2 *2037:Q 4.93971e-05
3 *243:18 0.000270444
4 *243:8 0.000268474
5 *1892:S0 *1888:A1 0
6 *1892:S0 *1892:A0 1.54556e-05
7 *1892:S0 *2038:D 8.03692e-05
8 *243:8 *424:54 4.77347e-05
9 *243:8 *602:60 7.99004e-05
10 *243:18 *424:54 2.21226e-05
11 *243:18 *501:10 0
12 *243:18 *507:8 0
13 *243:18 *613:20 0
14 *159:13 *243:18 0
*RES
1 *2037:Q *243:8 40.5356 
2 *243:8 *243:18 41.9776 
3 *243:18 *1892:S0 40.5356 
*END

*D_NET *244 0.000642687
*CONN
*I *1892:S1 I *D sg13g2_mux4_1
*I *2038:Q O *D sg13g2_dlhq_1
*CAP
1 *1892:S1 0.000203754
2 *2038:Q 0.000203754
3 *1892:S1 *444:24 0
4 *1892:S1 *451:20 0.000235179
*RES
1 *2038:Q *1892:S1 41.9313 
*END

*D_NET *245 0.00124285
*CONN
*I *1912:S1 I *D sg13g2_mux4_1
*I *1997:Q O *D sg13g2_dlhq_1
*CAP
1 *1912:S1 7.90235e-05
2 *1997:Q 0.000275384
3 *245:10 0.000354407
4 *1912:S1 *456:35 2.61712e-05
5 *1912:S1 *586:47 0
6 *245:10 *513:22 0.000396822
7 *245:10 *549:50 0
8 *245:10 *567:12 0.000111037
9 *245:10 *586:47 0
10 *245:10 *604:24 0
*RES
1 *1997:Q *245:10 42.8016 
2 *245:10 *1912:S1 40.7159 
*END

*D_NET *246 0.00086529
*CONN
*I *1912:S0 I *D sg13g2_mux4_1
*I *1998:Q O *D sg13g2_dlhq_1
*CAP
1 *1912:S0 0
2 *1998:Q 0.000223704
3 *246:10 0.000223704
4 *246:10 *1902:A1 0.00020894
5 *246:10 *483:12 0
6 *246:10 *483:24 0.00020894
7 *246:10 *497:12 0
8 *246:10 *513:22 0
*RES
1 *1998:Q *246:10 42.4926 
2 *246:10 *1912:S0 40 
*END

*D_NET *247 0.00142806
*CONN
*I *1907:S1 I *D sg13g2_mux4_1
*I *2007:Q O *D sg13g2_dlhq_1
*CAP
1 *1907:S1 0.000166229
2 *2007:Q 0.000181461
3 *247:8 0.00034769
4 *1907:S1 *2083:A 0
5 *1907:S1 *460:22 0.000236335
6 *247:8 *494:10 0.000496346
7 *247:8 *532:10 0
*RES
1 *2007:Q *247:8 42.3278 
2 *247:8 *1907:S1 41.5811 
*END

*D_NET *248 0.000941721
*CONN
*I *1907:S0 I *D sg13g2_mux4_1
*I *2008:Q O *D sg13g2_dlhq_1
*CAP
1 *1907:S0 0.000215083
2 *2008:Q 0.000215083
3 *1907:S0 *1907:A0 8.00842e-05
4 *1907:S0 *566:33 0.000240377
5 *1907:S0 *607:36 4.77425e-05
6 *1907:S0 *609:57 0.000143351
*RES
1 *2008:Q *1907:S0 42.5338 
*END

*D_NET *249 0.00167813
*CONN
*I *1906:S1 I *D sg13g2_mux4_1
*I *2009:Q O *D sg13g2_dlhq_1
*CAP
1 *1906:S1 0.000133138
2 *2009:Q 7.70267e-05
3 *249:8 0.000210165
4 *1906:S1 *627:34 0.000235217
5 *249:8 *487:10 0.000393428
6 *249:8 *614:24 0.000393941
7 *133:21 *1906:S1 0.000235217
*RES
1 *2009:Q *249:8 41.8334 
2 *249:8 *1906:S1 41.5811 
*END

*D_NET *250 0.00194754
*CONN
*I *1906:S0 I *D sg13g2_mux4_1
*I *2010:Q O *D sg13g2_dlhq_1
*CAP
1 *1906:S0 0.000316102
2 *2010:Q 0.00012577
3 *250:8 0.000441872
4 *1906:S0 *1903:A0 1.54282e-05
5 *1906:S0 *564:46 0
6 *1906:S0 *605:77 0.000401857
7 *1906:S0 *619:22 0.000466028
8 *250:8 *359:8 0.000180481
9 *250:8 *486:30 0
10 *250:8 *605:77 0
*RES
1 *2010:Q *250:8 41.339 
2 *250:8 *1906:S0 43.5638 
*END

*D_NET *251 0.00163207
*CONN
*I *1905:S1 I *D sg13g2_mux4_1
*I *2011:Q O *D sg13g2_dlhq_1
*CAP
1 *1905:S1 0.000321375
2 *2011:Q 0.000173164
3 *251:10 0.000494539
4 *1905:S1 *2106:A 0.000144216
5 *1905:S1 *486:30 0.00021183
6 *1905:S1 *486:34 0
7 *1905:S1 *580:90 0
8 *251:10 *2043:D 0
9 *251:10 *460:44 0.000286948
10 *251:10 *619:52 0
*RES
1 *2011:Q *251:10 41.8746 
2 *251:10 *1905:S1 43.381 
*END

*D_NET *252 0.000257175
*CONN
*I *1905:S0 I *D sg13g2_mux4_1
*I *2012:Q O *D sg13g2_dlhq_1
*CAP
1 *1905:S0 2.95229e-05
2 *2012:Q 7.51799e-05
3 *252:8 0.000104703
4 *1905:S0 *1905:A0 0
5 *1905:S0 *284:14 4.77699e-05
6 *252:8 *568:41 0
7 *252:8 *619:52 0
*RES
1 *2012:Q *252:8 40.8446 
2 *252:8 *1905:S0 40.3193 
*END

*D_NET *253 0.000355168
*CONN
*I *1904:S1 I *D sg13g2_mux4_1
*I *2013:Q O *D sg13g2_dlhq_1
*CAP
1 *1904:S1 0.000177584
2 *2013:Q 0.000177584
3 *1904:S1 *2086:A 0
4 *1904:S1 *468:14 0
5 *1904:S1 *503:8 0
*RES
1 *2013:Q *1904:S1 41.8386 
*END

*D_NET *254 0.000588043
*CONN
*I *1904:S0 I *D sg13g2_mux4_1
*I *2014:Q O *D sg13g2_dlhq_1
*CAP
1 *1904:S0 0.000133904
2 *2014:Q 0.000133904
3 *1904:S0 *606:89 0.000208035
4 *1904:S0 *611:20 0.0001122
*RES
1 *2014:Q *1904:S0 41.4008 
*END

*D_NET *255 0.00199978
*CONN
*I *1903:S1 I *D sg13g2_mux4_1
*I *2015:Q O *D sg13g2_dlhq_1
*CAP
1 *1903:S1 0.000175376
2 *2015:Q 0.000690512
3 *255:8 0.000865888
4 *1903:S1 *493:18 0.000268003
5 *1903:S1 *627:34 0
6 *255:8 *473:16 0
7 *255:8 *513:22 0
*RES
1 *2015:Q *255:8 45.5414 
2 *255:8 *1903:S1 41.7974 
*END

*D_NET *256 0.000790775
*CONN
*I *1903:S0 I *D sg13g2_mux4_1
*I *2016:Q O *D sg13g2_dlhq_1
*CAP
1 *1903:S0 0.000192907
2 *2016:Q 8.54343e-05
3 *256:8 0.000278341
4 *1903:S0 *1903:A0 0
5 *1903:S0 *564:46 0
6 *256:8 *605:77 0
7 *256:8 *612:121 0
8 *256:8 *619:22 0.000234093
*RES
1 *2016:Q *256:8 41.0918 
2 *256:8 *1903:S0 41.6171 
*END

*D_NET *257 0.00768165
*CONN
*I *1911:S0 I *D sg13g2_mux4_1
*I *1999:Q O *D sg13g2_dlhq_1
*CAP
1 *1911:S0 0
2 *1999:Q 0.00235815
3 *257:28 0.00235815
4 *257:28 *1877:C 0.000466612
5 *257:28 *1880:A1 0.000144053
6 *257:28 *1880:A2 7.92265e-05
7 *257:28 *1882:A0 6.919e-05
8 *257:28 *1910:A1 0
9 *257:28 *279:10 0.000662077
10 *257:28 *380:10 0.000144768
11 *257:28 *387:12 0.000468739
12 *257:28 *562:28 0
13 *257:28 *562:34 0
14 *257:28 *571:90 0
15 *257:28 *584:38 8.01116e-05
16 *257:28 *590:102 0
17 *257:28 *593:69 0.000288119
18 *257:28 *595:66 1.54008e-05
19 *257:28 *596:28 0.000112426
20 *1874:A *257:28 4.77425e-05
21 *223:34 *257:28 0.000242098
22 *224:12 *257:28 0
23 *237:54 *257:28 0.000144795
24 *237:64 *257:28 0
*RES
1 *1999:Q *257:28 43.5155 
2 *257:28 *1911:S0 20 
*END

*D_NET *258 0.00234075
*CONN
*I *1902:S1 I *D sg13g2_mux4_1
*I *2017:Q O *D sg13g2_dlhq_1
*CAP
1 *1902:S1 1.2469e-05
2 *2017:Q 0.000580768
3 *258:16 0.000593237
4 *258:16 *2017:GATE 0.0001773
5 *258:16 *2088:A 0.000242301
6 *258:16 *356:8 3.53546e-05
7 *258:16 *456:22 0.000273532
8 *258:16 *483:24 0.000242355
9 *258:16 *567:12 0
10 *258:16 *572:20 0
11 *212:18 *258:16 0.000183436
*RES
1 *2017:Q *258:16 46.4787 
2 *258:16 *1902:S1 40.1159 
*END

*D_NET *259 0.000717327
*CONN
*I *1902:S0 I *D sg13g2_mux4_1
*I *2018:Q O *D sg13g2_dlhq_1
*CAP
1 *1902:S0 0.000139668
2 *2018:Q 0.000106346
3 *259:8 0.000246014
4 *1902:S0 *1902:A0 1.54285e-05
5 *1902:S0 *1998:GATE 0
6 *1902:S0 *495:16 0.000209871
7 *259:8 *456:22 0
8 *259:8 *572:26 0
*RES
1 *2018:Q *259:8 41.0918 
2 *259:8 *1902:S0 41.4008 
*END

*D_NET *260 0.00721696
*CONN
*I *1901:S1 I *D sg13g2_mux4_1
*I *2019:Q O *D sg13g2_dlhq_1
*CAP
1 *1901:S1 0
2 *2019:Q 0
3 *260:12 0.000773064
4 *260:6 0.000773064
5 *260:12 *511:65 0.000178046
6 *260:12 *570:64 7.33225e-05
7 *260:12 *588:106 0.000268003
8 *260:12 *595:20 0
9 *260:12 *595:56 0.000268003
10 *260:12 *616:24 0.00223196
11 *260:12 *620:16 0.0026515
*RES
1 *2019:Q *260:6 40 
2 *260:6 *260:12 34.2603 
3 *260:12 *1901:S1 20 
*END

*D_NET *261 0.00846955
*CONN
*I *1901:S0 I *D sg13g2_mux4_1
*I *2020:Q O *D sg13g2_dlhq_1
*CAP
1 *1901:S0 0
2 *2020:Q 0.000258888
3 *261:14 0.00138515
4 *261:8 0.00164404
5 *261:8 *1924:A0 7.9225e-05
6 *261:8 *571:121 0.000175693
7 *261:14 *1870:A2 0.00122979
8 *261:14 *1926:A0 0.000390441
9 *261:14 *274:10 0
10 *261:14 *357:8 0
11 *261:14 *551:67 0
12 *261:14 *582:26 0.000384773
13 *261:14 *590:80 0
14 *261:14 *593:69 1.54008e-05
15 *261:14 *595:28 0.000791737
16 *261:14 *595:30 0.00042019
17 *261:14 *610:18 0.000964821
18 *261:14 *612:20 0.000649308
19 *261:14 *625:26 0
20 *237:64 *261:14 8.00842e-05
*RES
1 *2020:Q *261:8 42.266 
2 *261:8 *261:14 37.6645 
3 *261:14 *1901:S0 20 
*END

*D_NET *262 0.0016817
*CONN
*I *1900:S1 I *D sg13g2_mux4_1
*I *2021:Q O *D sg13g2_dlhq_1
*CAP
1 *1900:S1 3.73805e-05
2 *2021:Q 0.000207398
3 *262:8 0.000244779
4 *1900:S1 *551:67 4.96676e-05
5 *1900:S1 *585:90 4.96953e-05
6 *262:8 *1900:S0 0.000702449
7 *262:8 *358:12 0.000390334
*RES
1 *2021:Q *262:8 43.2883 
2 *262:8 *1900:S1 40.4635 
*END

*D_NET *263 0.00543205
*CONN
*I *1900:S0 I *D sg13g2_mux4_1
*I *2022:Q O *D sg13g2_dlhq_1
*CAP
1 *1900:S0 0.000577637
2 *2022:Q 0.000165388
3 *263:8 0.000743025
4 *1900:S0 *2006:GATE 0.000158331
5 *1900:S0 *276:18 0.000654103
6 *1900:S0 *458:14 0
7 *1900:S0 *570:25 0.000207659
8 *1900:S0 *570:31 0.000124949
9 *1900:S0 *594:26 0
10 *1900:S0 *596:28 0
11 *1900:S0 *599:32 0.00185813
12 *263:8 *326:24 0.000240377
13 *262:8 *1900:S0 0.000702449
*RES
1 *2022:Q *263:8 41.6171 
2 *263:8 *1900:S0 49.991 
*END

*D_NET *264 0.001232
*CONN
*I *1899:S0 I *D sg13g2_mux4_1
*I *2023:Q O *D sg13g2_dlhq_1
*CAP
1 *1899:S0 0.000152279
2 *2023:Q 6.89921e-05
3 *264:8 0.000221271
4 *1899:S0 *1899:A0 1.54008e-05
5 *1899:S0 *2023:GATE 0
6 *1899:S0 *606:89 0.000208227
7 *264:8 *366:8 0.000282861
8 *264:8 *497:12 0.000282968
*RES
1 *2023:Q *264:8 41.339 
2 *264:8 *1899:S0 41.4008 
*END

*D_NET *265 0.00102507
*CONN
*I *1899:S1 I *D sg13g2_mux4_1
*I *2024:Q O *D sg13g2_dlhq_1
*CAP
1 *1899:S1 0.000204028
2 *2024:Q 9.46153e-05
3 *265:8 0.000298643
4 *1899:S1 *503:8 0
5 *1899:S1 *567:63 0.000175693
6 *265:8 *468:14 2.14736e-05
7 *265:8 *473:16 0
8 *265:8 *604:16 0.000230615
*RES
1 *2024:Q *265:8 41.0918 
2 *265:8 *1899:S1 42.0342 
*END

*D_NET *266 0.000233637
*CONN
*I *1898:S0 I *D sg13g2_mux4_1
*I *2025:Q O *D sg13g2_dlhq_1
*CAP
1 *1898:S0 0.000109104
2 *2025:Q 0.000109104
3 *1898:S0 *1894:A0 0
4 *1898:S0 *1898:A0 1.54285e-05
5 *1898:S0 *2026:D 0
6 *1898:S0 *549:50 0
*RES
1 *2025:Q *1898:S0 41.1639 
*END

*D_NET *267 0.000946651
*CONN
*I *1898:S1 I *D sg13g2_mux4_1
*I *2026:Q O *D sg13g2_dlhq_1
*CAP
1 *1898:S1 0.000151273
2 *2026:Q 0.000148379
3 *267:8 0.000299652
4 *1898:S1 *2165:A 0.000111685
5 *1898:S1 *597:18 0.000235662
6 *267:8 *434:16 0
7 *267:8 *505:14 0
*RES
1 *2026:Q *267:8 41.0918 
2 *267:8 *1898:S1 41.5811 
*END

*D_NET *268 0.0061234
*CONN
*I *1911:S1 I *D sg13g2_mux4_1
*I *2000:Q O *D sg13g2_dlhq_1
*CAP
1 *1911:S1 0
2 *2000:Q 0.00072717
3 *268:14 0.00137634
4 *268:8 0.00210351
5 *268:8 *2053:GATE 0.000208035
6 *268:8 *2056:D 0
7 *268:8 *2184:A 0
8 *268:8 *559:30 9.477e-05
9 *268:8 *583:32 0
10 *268:14 *1959:D 0.0001396
11 *268:14 *374:12 0.000977886
12 *268:14 *405:8 0
13 *268:14 *425:14 0
14 *268:14 *476:12 0
15 *268:14 *576:26 0
16 *268:14 *584:73 7.34783e-05
17 *268:14 *600:26 0.00018156
18 *268:14 *626:24 0
19 *268:14 *627:10 0
20 *1944:A *268:14 0
21 *230:8 *268:14 0
22 *231:10 *268:8 0.000241052
*RES
1 *2000:Q *268:8 46.592 
2 *268:8 *268:14 32.6535 
3 *268:14 *1911:S1 20 
*END

*D_NET *269 0.00151242
*CONN
*I *1897:S0 I *D sg13g2_mux4_1
*I *2027:Q O *D sg13g2_dlhq_1
*CAP
1 *1897:S0 0.000177425
2 *2027:Q 0.000297574
3 *269:8 0.000474999
4 *1897:S0 *2153:A 0
5 *1897:S0 *629:32 0.000273509
6 *269:8 *328:22 0.000288917
7 *269:8 *506:10 0
8 *269:8 *562:50 0
*RES
1 *2027:Q *269:8 43.3166 
2 *269:8 *1897:S0 41.8334 
*END

*D_NET *270 0.00241983
*CONN
*I *1897:S1 I *D sg13g2_mux4_1
*I *2028:Q O *D sg13g2_dlhq_1
*CAP
1 *1897:S1 3.52601e-05
2 *2028:Q 0.000416578
3 *270:8 0.000451838
4 *270:8 *422:12 0.00124942
5 *270:8 *422:25 0.000266733
*RES
1 *2028:Q *270:8 47.0246 
2 *270:8 *1897:S1 40.3322 
*END

*D_NET *271 0.00269965
*CONN
*I *1910:S0 I *D sg13g2_mux4_1
*I *2001:Q O *D sg13g2_dlhq_1
*CAP
1 *1910:S0 2.84713e-05
2 *2001:Q 0.000639244
3 *271:8 0.000667716
4 *1910:S0 *1953:C 4.77425e-05
5 *1910:S0 *585:20 1.54008e-05
6 *271:8 *2060:D 0.000498866
7 *271:8 *371:8 0
8 *271:8 *412:10 0.000177583
9 *271:8 *426:26 0
10 *271:8 *550:46 0.000177998
11 *237:16 *271:8 0.000446631
*RES
1 *2001:Q *271:8 47.0246 
2 *271:8 *1910:S0 40.3193 
*END

*D_NET *272 0.0050118
*CONN
*I *1910:S1 I *D sg13g2_mux4_1
*I *2002:Q O *D sg13g2_dlhq_1
*CAP
1 *1910:S1 0
2 *2002:Q 0
3 *272:12 0.000929909
4 *272:6 0.000929909
5 *272:12 *1923:S0 0
6 *272:12 *1949:B2 0.000176396
7 *272:12 *2080:A 0.000235225
8 *272:12 *571:48 0.00050152
9 *272:12 *571:70 0.000688054
10 *272:12 *585:20 0.000812843
11 *272:12 *590:26 0.000551443
12 *272:12 *591:30 0.000107274
13 *272:12 *592:29 7.9225e-05
14 *235:12 *272:12 0
15 *237:75 *272:12 0
*RES
1 *2002:Q *272:6 40 
2 *272:6 *272:12 32.3136 
3 *272:12 *1910:S1 20 
*END

*D_NET *273 0.00448533
*CONN
*I *1909:S1 I *D sg13g2_mux4_1
*I *2003:Q O *D sg13g2_dlhq_1
*CAP
1 *1909:S1 0.000711636
2 *2003:Q 0.000165483
3 *273:16 0.00123259
4 *273:8 0.000686439
5 *1909:S1 *1870:A1 0.000300345
6 *1909:S1 *1927:A0 0
7 *1909:S1 *1929:S1 0
8 *1909:S1 *382:12 0.000332687
9 *1909:S1 *609:26 0.000112198
10 *1909:S1 *609:35 3.17099e-05
11 *273:8 *280:24 0.000112799
12 *273:8 *285:8 0.000273881
13 *273:16 *280:32 0.000243978
14 *273:16 *536:22 0
15 *273:16 *544:43 0
16 *273:16 *556:14 0.000281583
17 *273:16 *578:35 0
*RES
1 *2003:Q *273:8 41.8334 
2 *273:8 *273:16 45.9843 
3 *273:16 *1909:S1 46.9885 
*END

*D_NET *274 0.00604501
*CONN
*I *1909:S0 I *D sg13g2_mux4_1
*I *2004:Q O *D sg13g2_dlhq_1
*CAP
1 *1909:S0 0
2 *2004:Q 0.000653268
3 *274:16 0.00120184
4 *274:10 0.00185511
5 *274:10 *570:77 0.000124859
6 *274:10 *582:18 0
7 *274:10 *612:20 0.000597771
8 *274:16 *1870:A3 0
9 *274:16 *1885:A0 8.00842e-05
10 *274:16 *1929:A0 4.77425e-05
11 *274:16 *1946:A 0.000128112
12 *274:16 *357:8 0
13 *274:16 *363:12 0.000709611
14 *274:16 *380:10 0
15 *274:16 *381:10 0
16 *274:16 *593:26 1.54008e-05
17 *274:16 *593:37 3.23417e-05
18 *274:16 *598:51 0.000179386
19 *274:16 *600:73 0.000419477
20 *274:16 *624:28 0
21 *261:14 *274:10 0
*RES
1 *2004:Q *274:10 46.0461 
2 *274:10 *274:16 31.0828 
3 *274:16 *1909:S0 20 
*END

*D_NET *275 0.00320535
*CONN
*I *1908:S1 I *D sg13g2_mux4_1
*I *2005:Q O *D sg13g2_dlhq_1
*CAP
1 *1908:S1 0.000168463
2 *2005:Q 0.000590748
3 *275:8 0.000759211
4 *1908:S1 *551:67 4.23604e-05
5 *1908:S1 *585:90 0.000234994
6 *275:8 *582:18 0
7 *275:8 *605:20 7.51285e-05
8 *275:8 *624:28 0.00133445
*RES
1 *2005:Q *275:8 46.283 
2 *275:8 *1908:S1 41.5811 
*END

*D_NET *276 0.00596819
*CONN
*I *1908:S0 I *D sg13g2_mux4_1
*I *2006:Q O *D sg13g2_dlhq_1
*CAP
1 *1908:S0 0.00012291
2 *2006:Q 0.000695396
3 *276:18 0.000508383
4 *276:8 0.00108087
5 *1908:S0 *594:33 0.000208035
6 *276:8 *425:26 0.000232421
7 *276:8 *472:12 0
8 *276:8 *578:18 0.000177891
9 *276:8 *594:20 0.00180753
10 *276:8 *598:22 0
11 *276:18 *1908:A3 4.77425e-05
12 *276:18 *425:42 0.000144768
13 *276:18 *458:14 0
14 *276:18 *601:86 0.000112453
15 *1881:S *1908:S0 0.000175693
16 *1900:S0 *276:18 0.000654103
17 *233:32 *276:18 0
*RES
1 *2006:Q *276:8 48.5078 
2 *276:8 *276:18 44.3569 
3 *276:18 *1908:S0 41.4008 
*END

*D_NET *277 0.00511533
*CONN
*I *1928:S0 I *D sg13g2_mux4_1
*I *1965:Q O *D sg13g2_dlhq_1
*CAP
1 *1928:S0 0
2 *1965:Q 0.000111696
3 *277:12 0.000955448
4 *277:8 0.00106714
5 *277:8 *1894:A0 0.000209729
6 *277:8 *616:38 0.000209614
7 *277:12 *278:22 0.00256169
8 *277:12 *556:14 0
9 *277:12 *578:35 0
*RES
1 *1965:Q *277:8 41.4008 
2 *277:8 *277:12 31.9686 
3 *277:12 *1928:S0 20 
*END

*D_NET *278 0.00944394
*CONN
*I *1928:S1 I *D sg13g2_mux4_1
*I *1966:Q O *D sg13g2_dlhq_1
*CAP
1 *1928:S1 0
2 *1966:Q 0.000122329
3 *278:22 0.00163335
4 *278:14 0.00232898
5 *278:8 0.000817953
6 *278:8 *518:12 0.000128248
7 *278:8 *557:14 0
8 *278:14 *1894:A0 0
9 *278:14 *1918:S0 0
10 *278:14 *546:51 0.00111586
11 *278:14 *547:32 0.000273421
12 *278:22 *279:16 0
13 *278:22 *460:10 0
14 *278:22 *544:75 0
15 *278:22 *556:10 0
16 *278:22 *578:35 0
17 *278:22 *578:51 0
18 *278:22 *578:57 0
19 *278:22 *609:26 0.000178153
20 *278:22 *610:24 0
21 *278:22 *618:44 0
22 *278:22 *626:34 0.000283955
23 *278:22 *627:20 0
24 *1894:S0 *278:14 0
25 *277:12 *278:22 0.00256169
*RES
1 *1966:Q *278:8 41.339 
2 *278:8 *278:14 47.4572 
3 *278:14 *278:22 37.595 
4 *278:22 *1928:S1 20 
*END

*D_NET *279 0.0135306
*CONN
*I *1923:S0 I *D sg13g2_mux4_1
*I *1975:Q O *D sg13g2_dlhq_1
*CAP
1 *1923:S0 0.000679843
2 *1975:Q 0.00235344
3 *279:22 0.00238613
4 *279:16 0.00175772
5 *279:10 0.00240487
6 *1923:S0 *1911:A2 0.000175693
7 *1923:S0 *1923:A0 0.000144956
8 *1923:S0 *369:30 0
9 *1923:S0 *591:30 0.000370231
10 *1923:S0 *591:36 9.7025e-05
11 *1923:S0 *592:29 0.000240933
12 *1923:S0 *629:32 1.54008e-05
13 *279:10 *1907:A1 0.0001122
14 *279:10 *1983:GATE 0
15 *279:10 *555:37 0.000370765
16 *279:10 *562:28 0
17 *279:10 *566:33 0.00107915
18 *279:10 *571:90 0
19 *279:10 *579:34 0.000274412
20 *279:10 *590:102 0
21 *279:10 *607:36 0
22 *279:10 *609:57 0
23 *279:16 *460:10 0.000126769
24 *279:22 *409:12 0
25 *279:22 *536:22 0
26 *279:22 *576:26 0
27 *279:22 *584:38 0.000231238
28 *279:22 *587:46 0
29 *279:22 *588:68 0
30 *279:22 *620:22 0
31 *1947:A2 *1923:S0 4.77425e-05
32 *133:11 *279:22 0
33 *218:10 *279:10 0
34 *257:28 *279:10 0.000662077
35 *272:12 *1923:S0 0
36 *278:22 *279:16 0
*RES
1 *1975:Q *279:10 42.4025 
2 *279:10 *279:16 40.5974 
3 *279:16 *279:22 37.201 
4 *279:22 *1923:S0 47.0761 
*END

*D_NET *280 0.0127619
*CONN
*I *1923:S1 I *D sg13g2_mux4_1
*I *1976:Q O *D sg13g2_dlhq_1
*CAP
1 *1923:S1 0.000634422
2 *1976:Q 5.93938e-05
3 *280:32 0.00235066
4 *280:28 0.00171624
5 *280:24 0.00136623
6 *280:8 0.00142562
7 *1923:S1 *1950:B_N 8.01118e-05
8 *1923:S1 *1951:B2 0.000111685
9 *1923:S1 *1959:D 0
10 *1923:S1 *361:10 0
11 *1923:S1 *414:12 0
12 *280:8 *434:16 0.000181192
13 *280:24 *1919:S0 0
14 *280:24 *1967:GATE 0
15 *280:24 *285:8 0
16 *280:24 *588:114 0.000208853
17 *280:24 *606:89 0
18 *280:32 *394:14 0
19 *280:32 *536:22 0
20 *280:32 *544:43 0
21 *280:32 *585:31 0
22 *280:32 *589:51 0.000960545
23 *280:32 *626:26 0.00266346
24 *280:32 *626:43 0.000326466
25 *1890:A3 *280:24 0.0002086
26 *237:90 *1923:S1 0
27 *237:102 *1923:S1 0.000111685
28 *273:8 *280:24 0.000112799
29 *273:16 *280:32 0.000243978
*RES
1 *1976:Q *280:8 40.8446 
2 *280:8 *280:24 32.3085 
3 *280:24 *280:28 40 
4 *280:28 *280:32 40.8678 
5 *280:32 *1923:S1 45.7912 
*END

*D_NET *281 0.00560315
*CONN
*I *1922:S0 I *D sg13g2_mux4_1
*I *1977:Q O *D sg13g2_dlhq_1
*CAP
1 *1922:S0 0
2 *1977:Q 0.000675804
3 *281:20 0.000168211
4 *281:14 0.00185197
5 *281:10 0.00235956
6 *281:10 *445:52 4.68848e-05
7 *281:10 *449:16 0
8 *281:10 *548:39 0
9 *281:20 *562:74 0
10 *281:20 *576:40 0.000500715
*RES
1 *1977:Q *281:10 46.0152 
2 *281:10 *281:14 38.7048 
3 *281:14 *281:20 42.3278 
4 *281:20 *1922:S0 20 
*END

*D_NET *282 0.00451779
*CONN
*I *1922:S1 I *D sg13g2_mux4_1
*I *1978:Q O *D sg13g2_dlhq_1
*CAP
1 *1922:S1 0
2 *1978:Q 8.36342e-05
3 *282:18 4.8571e-05
4 *282:12 0.001727
5 *282:8 0.00176207
6 *282:8 *555:20 0.000128248
7 *282:8 *555:37 0.000105736
8 *282:8 *606:36 0
9 *282:12 *562:44 0
10 *282:12 *562:50 0
11 *282:18 *2047:GATE 0
12 *282:18 *590:70 4.23604e-05
13 *133:11 *282:12 0
14 *223:12 *282:12 0.000245838
15 *223:123 *282:12 0.00037434
16 *224:32 *282:18 0
*RES
1 *1978:Q *282:8 41.0918 
2 *282:8 *282:12 38.7048 
3 *282:12 *282:18 40.4995 
4 *282:18 *1922:S1 20 
*END

*D_NET *283 0.0047688
*CONN
*I *1921:S0 I *D sg13g2_mux4_1
*I *1979:Q O *D sg13g2_dlhq_1
*CAP
1 *1921:S0 0.000278872
2 *1979:Q 0.000796325
3 *283:10 0.0010752
4 *1921:S0 *1891:A2 0.00014476
5 *1921:S0 *493:18 0.000273739
6 *1921:S0 *590:102 1.54008e-05
7 *1921:S0 *610:71 0
8 *283:10 *493:20 0.00127688
9 *133:31 *283:10 0.000726431
10 *211:46 *283:10 0.000181192
*RES
1 *1979:Q *283:10 49.3833 
2 *283:10 *1921:S0 42.6986 
*END

*D_NET *284 0.00270548
*CONN
*I *1921:S1 I *D sg13g2_mux4_1
*I *1980:Q O *D sg13g2_dlhq_1
*CAP
1 *1921:S1 0
2 *1980:Q 0.00104607
3 *284:14 0.00104607
4 *284:14 *1905:A0 0
5 *284:14 *349:10 4.78769e-05
6 *284:14 *460:44 0
7 *284:14 *602:91 0
8 *284:14 *602:95 7.98582e-05
9 *284:14 *606:89 0.000405111
10 *284:14 *610:97 1.73259e-05
11 *1891:S1 *284:14 1.54008e-05
12 *1905:S0 *284:14 4.77699e-05
13 *216:10 *284:14 0
*RES
1 *1980:Q *284:14 30.6013 
2 *284:14 *1921:S1 20 
*END

*D_NET *285 0.00427186
*CONN
*I *1920:S0 I *D sg13g2_mux4_1
*I *1981:Q O *D sg13g2_dlhq_1
*CAP
1 *1920:S0 0
2 *1981:Q 0.00151611
3 *285:8 0.00151611
4 *285:8 *1920:A0 1.54008e-05
5 *285:8 *1967:GATE 0
6 *285:8 *2003:GATE 0.000596991
7 *285:8 *588:106 0.000144655
8 *285:8 *606:89 0
9 *285:8 *610:45 0
10 *1890:A3 *285:8 0.000208704
11 *273:8 *285:8 0.000273881
12 *280:24 *285:8 0
*RES
1 *1981:Q *285:8 33.6475 
2 *285:8 *1920:S0 20 
*END

*D_NET *286 0.00499475
*CONN
*I *1920:S1 I *D sg13g2_mux4_1
*I *1982:Q O *D sg13g2_dlhq_1
*CAP
1 *1920:S1 0.00069168
2 *1982:Q 0.000483854
3 *286:10 0.00117553
4 *1920:S1 *1899:A1 0
5 *1920:S1 *1919:A3 0.000112314
6 *1920:S1 *1927:A0 0.000592159
7 *1920:S1 *503:8 0.0011725
8 *1920:S1 *617:22 0
9 *286:10 *1895:A1 0
10 *286:10 *1895:A2 4.7885e-05
11 *286:10 *425:67 0
12 *286:10 *434:31 0
13 *286:10 *500:44 0.000176485
14 *286:10 *503:8 0
15 *286:10 *579:20 0.000334311
16 *286:10 *582:34 0.000208035
*RES
1 *1982:Q *286:10 45.15 
2 *286:10 *1920:S1 47.8537 
*END

*D_NET *287 0.00221924
*CONN
*I *1919:S0 I *D sg13g2_mux4_1
*I *1983:Q O *D sg13g2_dlhq_1
*CAP
1 *1919:S0 3.60196e-05
2 *1983:Q 0.000408234
3 *287:8 0.000444253
4 *1919:S0 *588:114 1.54282e-05
5 *287:8 *288:12 0.00118715
6 *287:8 *518:12 0
7 *287:8 *555:43 0.00012816
8 *280:24 *1919:S0 0
*RES
1 *1983:Q *287:8 45.5414 
2 *287:8 *1919:S0 40.3193 
*END

*D_NET *288 0.00554224
*CONN
*I *1919:S1 I *D sg13g2_mux4_1
*I *1984:Q O *D sg13g2_dlhq_1
*CAP
1 *1919:S1 0
2 *1984:Q 0
3 *288:12 0.00102504
4 *288:6 0.00102504
5 *288:12 *1895:A1 8.21246e-05
6 *288:12 *518:12 0
7 *288:12 *551:25 0
8 *288:12 *566:43 0
9 *288:12 *582:34 8.21586e-05
10 *288:12 *607:30 0.000159096
11 *288:12 *607:36 0.00198165
12 *288:12 *625:41 0
13 *287:8 *288:12 0.00118715
*RES
1 *1984:Q *288:6 40 
2 *288:6 *288:12 34.2475 
3 *288:12 *1919:S1 20 
*END

*D_NET *289 0.000740884
*CONN
*I *1927:S0 I *D sg13g2_mux4_1
*I *1967:Q O *D sg13g2_dlhq_1
*CAP
1 *1927:S0 3.01005e-05
2 *1967:Q 0.000198693
3 *289:8 0.000228793
4 *1927:S0 *1927:A0 4.77425e-05
5 *289:8 *558:16 0
6 *289:8 *606:30 0
7 *289:8 *617:22 0.000235556
*RES
1 *1967:Q *289:8 42.0806 
2 *289:8 *1927:S0 40.3193 
*END

*D_NET *290 0.00187002
*CONN
*I *1918:S0 I *D sg13g2_mux4_1
*I *1985:Q O *D sg13g2_dlhq_1
*CAP
1 *1918:S0 0.000547485
2 *1985:Q 0.000547485
3 *1918:S0 *1894:A0 0
4 *1918:S0 *547:32 0.000565147
5 *1918:S0 *566:57 0.000209899
6 *278:14 *1918:S0 0
*RES
1 *1985:Q *1918:S0 45.2942 
*END

*D_NET *291 0.00127824
*CONN
*I *1918:S1 I *D sg13g2_mux4_1
*I *1986:Q O *D sg13g2_dlhq_1
*CAP
1 *1918:S1 5.57178e-05
2 *1986:Q 0.000343311
3 *291:14 0.000399028
4 *1918:S1 *2173:A 8.21586e-05
5 *1918:S1 *533:60 0
6 *291:14 *1965:GATE 0
7 *291:14 *548:22 0
8 *291:14 *549:50 0.000111112
9 *291:14 *606:36 0.000286916
*RES
1 *1986:Q *291:14 43.7492 
2 *291:14 *1918:S1 40.5485 
*END

*D_NET *292 0.000524333
*CONN
*I *1917:S0 I *D sg13g2_mux4_1
*I *1987:Q O *D sg13g2_dlhq_1
*CAP
1 *1917:S0 0.000214397
2 *1987:Q 0.000214397
3 *1917:S0 *339:16 8.01116e-05
4 *1917:S0 *425:86 0
5 *1917:S0 *567:63 0
6 *1917:S0 *585:98 1.54282e-05
7 *1917:S0 *612:107 0
*RES
1 *1987:Q *1917:S0 41.9673 
*END

*D_NET *293 0.000520328
*CONN
*I *1917:S1 I *D sg13g2_mux4_1
*I *1988:Q O *D sg13g2_dlhq_1
*CAP
1 *1917:S1 0.000204645
2 *1988:Q 0.000204645
3 *1917:S1 *1933:S 0
4 *1917:S1 *491:18 0.000111037
5 *1917:S1 *580:24 0
*RES
1 *1988:Q *1917:S1 41.8386 
*END

*D_NET *294 0.000311827
*CONN
*I *1916:S0 I *D sg13g2_mux4_1
*I *1989:Q O *D sg13g2_dlhq_1
*CAP
1 *1916:S0 9.16046e-05
2 *1989:Q 9.16046e-05
3 *1916:S0 *1989:GATE 0
4 *1916:S0 *534:36 0.000128618
*RES
1 *1989:Q *1916:S0 41.1639 
*END

*D_NET *295 0.000586988
*CONN
*I *1916:S1 I *D sg13g2_mux4_1
*I *1990:Q O *D sg13g2_dlhq_1
*CAP
1 *1916:S1 0.000175096
2 *1990:Q 0.000175096
3 *1916:S1 *338:10 0
4 *1916:S1 *477:40 0.000236795
5 *1916:S1 *558:33 0
*RES
1 *1990:Q *1916:S1 41.9313 
*END

*D_NET *296 0.00106686
*CONN
*I *1915:S1 I *D sg13g2_mux4_1
*I *1991:Q O *D sg13g2_dlhq_1
*CAP
1 *1915:S1 0.000126886
2 *1991:Q 0.000243269
3 *296:8 0.000370155
4 *1915:S1 *455:20 0.00021183
5 *1915:S1 *503:16 0.000114722
6 *296:8 *463:8 0
7 *296:8 *509:8 0
*RES
1 *1991:Q *296:8 42.0806 
2 *296:8 *1915:S1 41.4137 
*END

*D_NET *297 0.00188393
*CONN
*I *1915:S0 I *D sg13g2_mux4_1
*I *1992:Q O *D sg13g2_dlhq_1
*CAP
1 *1915:S0 4.30678e-05
2 *1992:Q 0.000538004
3 *297:12 0.000581072
4 *1915:S0 *1905:A0 6.46834e-05
5 *1915:S0 *602:95 1.54282e-05
6 *297:12 *349:10 0
7 *297:12 *422:87 0.000240684
8 *297:12 *422:96 4.77699e-05
9 *297:12 *486:30 0.000273026
10 *297:12 *509:8 0
11 *297:12 *580:66 0
12 *216:10 *1915:S0 8.01995e-05
*RES
1 *1992:Q *297:12 45.2221 
2 *297:12 *1915:S0 40.5356 
*END

*D_NET *298 0.00164278
*CONN
*I *1914:S1 I *D sg13g2_mux4_1
*I *1993:Q O *D sg13g2_dlhq_1
*CAP
1 *1914:S1 0.000172805
2 *1993:Q 0.000150339
3 *298:8 0.000323144
4 *1914:S1 *473:10 0
5 *1914:S1 *574:16 0
6 *1914:S1 *575:41 0
7 *298:8 *445:28 0
8 *298:8 *494:10 0.000390612
9 *298:8 *564:16 0.000605886
*RES
1 *1993:Q *298:8 42.8222 
2 *298:8 *1914:S1 41.5811 
*END

*D_NET *299 0.000246509
*CONN
*I *1914:S0 I *D sg13g2_mux4_1
*I *1994:Q O *D sg13g2_dlhq_1
*CAP
1 *1914:S0 3.82273e-05
2 *1994:Q 8.50271e-05
3 *299:8 0.000123254
4 *1914:S0 *549:50 0
5 *1914:S0 *586:47 0
6 *299:8 *567:36 0
7 *299:8 *597:8 0
*RES
1 *1994:Q *299:8 40.8446 
2 *299:8 *1914:S0 40.3193 
*END

*D_NET *300 0.00227087
*CONN
*I *1927:S1 I *D sg13g2_mux4_1
*I *1968:Q O *D sg13g2_dlhq_1
*CAP
1 *1927:S1 2.36775e-05
2 *1968:Q 0.000119082
3 *300:14 0.000294336
4 *300:8 0.000389741
5 *1927:S1 *500:50 4.24755e-05
6 *1927:S1 *585:90 0
7 *300:8 *2094:A 0.000330693
8 *300:8 *500:44 0.000436724
9 *300:8 *551:25 0.000126974
10 *300:14 *422:69 0.000507171
*RES
1 *1968:Q *300:8 42.0806 
2 *300:8 *300:14 43.3475 
3 *300:14 *1927:S1 40.2832 
*END

*D_NET *301 0.00169465
*CONN
*I *1913:S1 I *D sg13g2_mux4_1
*I *1995:Q O *D sg13g2_dlhq_1
*CAP
1 *1913:S1 0.00031754
2 *1995:Q 0.000145486
3 *301:8 0.000463026
4 *1913:S1 *564:46 0
5 *1913:S1 *575:64 0.000241023
6 *1913:S1 *619:22 0.000527573
7 *301:8 *485:12 0
*RES
1 *1995:Q *301:8 41.5862 
2 *301:8 *1913:S1 43.5277 
*END

*D_NET *302 0.00274249
*CONN
*I *1913:S0 I *D sg13g2_mux4_1
*I *1996:Q O *D sg13g2_dlhq_1
*CAP
1 *1913:S0 3.08156e-05
2 *1996:Q 0.000397381
3 *302:10 0.000428196
4 *1913:S0 *1913:A0 1.54282e-05
5 *302:10 *470:12 0.000973383
6 *302:10 *564:46 0.000208681
7 *302:10 *572:12 0.000496843
8 *302:10 *575:64 0.000143998
9 *302:10 *605:65 0
10 *302:10 *605:77 0
11 *133:31 *1913:S0 4.77699e-05
*RES
1 *1996:Q *302:10 45.9534 
2 *302:10 *1913:S0 40.3193 
*END

*D_NET *303 0.001287
*CONN
*I *1926:S0 I *D sg13g2_mux4_1
*I *1969:Q O *D sg13g2_dlhq_1
*CAP
1 *1926:S0 0.000157339
2 *1969:Q 0.000358545
3 *303:8 0.000515885
4 *1926:S0 *1926:A0 1.53311e-05
5 *1926:S0 *445:58 0.000239903
6 *1926:S0 *571:42 0
7 *1926:S0 *624:28 0
8 *303:8 *344:10 0
9 *303:8 *458:14 0
10 *303:8 *616:24 0
11 *303:8 *616:34 0
*RES
1 *1969:Q *303:8 42.8222 
2 *303:8 *1926:S0 41.6171 
*END

*D_NET *304 0.000491528
*CONN
*I *1926:S1 I *D sg13g2_mux4_1
*I *1970:Q O *D sg13g2_dlhq_1
*CAP
1 *1926:S1 5.79167e-05
2 *1970:Q 6.98509e-05
3 *304:8 0.000127768
4 *1926:S1 *549:64 0
5 *304:8 *616:34 0.000235992
*RES
1 *1970:Q *304:8 41.0918 
2 *304:8 *1926:S1 40.4995 
*END

*D_NET *305 0.0055671
*CONN
*I *1925:S0 I *D sg13g2_mux4_1
*I *1971:Q O *D sg13g2_dlhq_1
*CAP
1 *1925:S0 0.000727449
2 *1971:Q 0.000705447
3 *305:8 0.0014329
4 *1925:S0 *460:10 0
5 *1925:S0 *551:8 0
6 *1925:S0 *551:67 0.000711129
7 *1925:S0 *627:20 0.000860467
8 *305:8 *1929:A0 1.54556e-05
9 *305:8 *590:102 0
10 *305:8 *620:34 0.00111425
*RES
1 *1971:Q *305:8 47.4572 
2 *305:8 *1925:S0 47.7662 
*END

*D_NET *306 0.00171359
*CONN
*I *1925:S1 I *D sg13g2_mux4_1
*I *1972:Q O *D sg13g2_dlhq_1
*CAP
1 *1925:S1 7.97565e-05
2 *1972:Q 0.000341448
3 *306:10 0.000421204
4 *1925:S1 *480:8 1.00105e-05
5 *1925:S1 *605:53 0
6 *1925:S1 *612:87 0.000107036
7 *306:10 *326:14 0
8 *306:10 *329:12 0
9 *306:10 *499:10 0.000120838
10 *306:10 *511:55 4.78772e-05
11 *306:10 *571:121 0.000144169
12 *306:10 *605:53 0
13 *306:10 *627:20 0.000441247
*RES
1 *1972:Q *306:10 43.7904 
2 *306:10 *1925:S1 40.7159 
*END

*D_NET *307 0.000584807
*CONN
*I *1924:S0 I *D sg13g2_mux4_1
*I *1973:Q O *D sg13g2_dlhq_1
*CAP
1 *1924:S0 0.000187919
2 *1973:Q 0.000187919
3 *1924:S0 *522:55 0
4 *1924:S0 *571:121 0.000208968
*RES
1 *1973:Q *1924:S0 41.9673 
*END

*D_NET *308 0.000445123
*CONN
*I *1924:S1 I *D sg13g2_mux4_1
*I *1974:Q O *D sg13g2_dlhq_1
*CAP
1 *1924:S1 0.000166648
2 *1974:Q 0.000166648
3 *1924:S1 *477:20 0
4 *1924:S1 *557:38 0
5 *1924:S1 *602:37 0.000111828
*RES
1 *1974:Q *1924:S1 41.5811 
*END

*D_NET *309 0.000621891
*CONN
*I *1935:S I *D sg13g2_mux2_1
*I *1955:Q O *D sg13g2_dlhq_1
*CAP
1 *1935:S 0.000190743
2 *1955:Q 0.000190743
3 *1935:S *583:32 0
4 *1935:S *605:59 0.000240404
*RES
1 *1955:Q *1935:S 41.9673 
*END

*D_NET *310 0.00118456
*CONN
*I *1934:S I *D sg13g2_mux2_1
*I *1956:Q O *D sg13g2_dlhq_1
*CAP
1 *1934:S 0.000163036
2 *1956:Q 0.000138768
3 *310:8 0.000301804
4 *1934:S *450:8 0
5 *1934:S *534:24 0.000240492
6 *310:8 *473:16 0
7 *310:8 *604:16 0.000340463
*RES
1 *1956:Q *310:8 41.5862 
2 *310:8 *1934:S 41.6171 
*END

*D_NET *311 0.00329436
*CONN
*I *1933:S I *D sg13g2_mux2_1
*I *1957:Q O *D sg13g2_dlhq_1
*CAP
1 *1933:S 0.00108671
2 *1957:Q 7.67793e-05
3 *311:8 0.00116349
4 *1933:S *337:10 0
5 *1933:S *347:10 8.00842e-05
6 *1933:S *491:18 0.000143467
7 *1933:S *579:76 0.000273564
8 *1933:S *580:24 0
9 *1933:S *580:43 0
10 *311:8 *459:22 0.000234591
11 *311:8 *494:10 0
12 *1893:S1 *1933:S 0.00023567
13 *1917:S1 *1933:S 0
*RES
1 *1957:Q *311:8 41.0918 
2 *311:8 *1933:S 49.6408 
*END

*D_NET *312 0.000264457
*CONN
*I *1932:S I *D sg13g2_mux2_1
*I *1958:Q O *D sg13g2_dlhq_1
*CAP
1 *1932:S 0.000108357
2 *1958:Q 0.000108357
3 *1932:S *477:40 0
4 *1932:S *517:16 4.77425e-05
*RES
1 *1958:Q *1932:S 41.1639 
*END

*D_NET *313 0.000233663
*CONN
*I *1931:S0 I *D sg13g2_mux4_1
*I *1959:Q O *D sg13g2_dlhq_1
*CAP
1 *1931:S0 9.2889e-05
2 *1959:Q 9.2889e-05
3 *1931:S0 *1959:GATE 0
4 *1931:S0 *601:12 4.78853e-05
5 *1931:S0 *601:25 0
*RES
1 *1959:Q *1931:S0 41.1639 
*END

*D_NET *314 0.000575659
*CONN
*I *1931:S1 I *D sg13g2_mux4_1
*I *1960:Q O *D sg13g2_dlhq_1
*CAP
1 *1931:S1 0.000287829
2 *1960:Q 0.000287829
3 *1931:S1 *427:8 0
4 *1931:S1 *623:18 0
*RES
1 *1960:Q *1931:S1 42.7424 
*END

*D_NET *315 0.00409218
*CONN
*I *1930:S0 I *D sg13g2_mux4_1
*I *1961:Q O *D sg13g2_dlhq_1
*CAP
1 *1930:S0 0.000336132
2 *1961:Q 0.000397813
3 *315:14 0.000733946
4 *1930:S0 *1896:A1 0.000547832
5 *1930:S0 *621:12 0.000335729
6 *1930:S0 *621:14 0.000179017
7 *315:14 *1961:GATE 0
8 *315:14 *1962:GATE 4.77079e-05
9 *315:14 *328:16 0.000287773
10 *315:14 *549:64 0
11 *213:14 *1930:S0 0
12 *226:14 *1930:S0 0.000127781
13 *226:25 *1930:S0 0.00109845
*RES
1 *1961:Q *315:14 44.3981 
2 *315:14 *1930:S0 45.7886 
*END

*D_NET *316 0.00102499
*CONN
*I *1930:S1 I *D sg13g2_mux4_1
*I *1962:Q O *D sg13g2_dlhq_1
*CAP
1 *1930:S1 6.67684e-05
2 *1962:Q 0.000185248
3 *316:12 0.000252016
4 *1930:S1 *571:42 0.000114125
5 *316:12 *324:10 0
6 *316:12 *328:16 4.7651e-05
7 *316:12 *370:16 4.77347e-05
8 *316:12 *587:63 0
9 *1896:S0 *1930:S1 8.20093e-05
10 *213:14 *316:12 0.000229432
*RES
1 *1962:Q *316:12 41.9467 
2 *316:12 *1930:S1 40.7648 
*END

*D_NET *317 0.00109043
*CONN
*I *1929:S0 I *D sg13g2_mux4_1
*I *1963:Q O *D sg13g2_dlhq_1
*CAP
1 *1929:S0 2.58084e-05
2 *1963:Q 0.000197241
3 *317:8 0.000223049
4 *1929:S0 *1929:A0 4.77702e-05
5 *1929:S0 *590:102 4.77702e-05
6 *317:8 *460:10 0
7 *317:8 *551:8 0.000548792
*RES
1 *1963:Q *317:8 42.575 
2 *317:8 *1929:S0 40.3193 
*END

*D_NET *318 0.0038554
*CONN
*I *1929:S1 I *D sg13g2_mux4_1
*I *1964:Q O *D sg13g2_dlhq_1
*CAP
1 *1929:S1 0.000428591
2 *1964:Q 0.000262441
3 *318:8 0.000691032
4 *1929:S1 *1920:A0 0
5 *318:8 *556:14 0.00123791
6 *318:8 *563:38 0.00123543
7 *1909:S1 *1929:S1 0
*RES
1 *1964:Q *318:8 45.7886 
2 *318:8 *1929:S1 43.5277 
*END

*D_NET *319 0.00265838
*CONN
*I *2144:A I *D sg13g2_buf_1
*I *1935:X O *D sg13g2_mux2_1
*CAP
1 *2144:A 2.58109e-05
2 *1935:X 0.00048776
3 *319:8 0.000513571
4 *2144:A *477:40 4.77699e-05
5 *319:8 *2046:D 0.00012651
6 *319:8 *2187:A 0
7 *319:8 *449:20 0.00128432
8 *319:8 *579:104 0.000124862
9 *319:8 *580:8 0
10 *212:72 *2144:A 4.77699e-05
*RES
1 *1935:X *319:8 46.0358 
2 *319:8 *2144:A 40.3193 
*END

*D_NET *320 0.000433945
*CONN
*I *2145:A I *D sg13g2_buf_1
*I *1934:X O *D sg13g2_mux2_1
*CAP
1 *2145:A 0.000216972
2 *1934:X 0.000216972
3 *2145:A *516:8 0
*RES
1 *1934:X *2145:A 41.6436 
*END

*D_NET *321 0.00101214
*CONN
*I *2146:A I *D sg13g2_buf_1
*I *1933:X O *D sg13g2_mux2_1
*CAP
1 *2146:A 5.40513e-05
2 *1933:X 0.000142494
3 *321:10 0.000196545
4 *2146:A *2169:A 8.00842e-05
5 *321:10 *465:16 0.000230635
6 *321:10 *466:16 0.000228248
7 *321:10 *522:24 8.00842e-05
*RES
1 *1933:X *321:10 41.8437 
2 *321:10 *2146:A 40.5356 
*END

*D_NET *322 0.000206593
*CONN
*I *2147:A I *D sg13g2_buf_1
*I *1932:X O *D sg13g2_mux2_1
*CAP
1 *2147:A 7.93539e-05
2 *1932:X 7.93539e-05
3 *2147:A *454:6 0
4 *2147:A *462:12 4.78853e-05
*RES
1 *1932:X *2147:A 40.9167 
*END

*D_NET *323 0.00218314
*CONN
*I *2148:A I *D sg13g2_buf_1
*I *1931:X O *D sg13g2_mux4_1
*CAP
1 *2148:A 0.00018571
2 *1931:X 0.00050427
3 *323:10 0.00068998
4 *2148:A *435:8 0.000306639
5 *323:10 *1960:GATE 0.000208035
6 *323:10 *422:25 0
7 *323:10 *436:12 0.000288502
8 *323:10 *457:10 0
*RES
1 *1931:X *323:10 44.9028 
2 *323:10 *2148:A 42.0497 
*END

*D_NET *324 0.00638622
*CONN
*I *2149:A I *D sg13g2_buf_1
*I *1930:X O *D sg13g2_mux4_1
*CAP
1 *2149:A 0
2 *1930:X 0.000132394
3 *324:14 0.00169714
4 *324:10 0.00182954
5 *324:10 *370:16 7.93436e-05
6 *324:10 *571:42 0.00011101
7 *324:10 *587:63 0.000126047
8 *324:14 *1922:A0 0.000273509
9 *324:14 *1922:A1 0.000401619
10 *324:14 *2028:D 0
11 *324:14 *2028:GATE 0
12 *324:14 *2059:GATE 0.00033703
13 *324:14 *2157:A 0.000240444
14 *324:14 *436:10 0.000529523
15 *324:14 *571:42 0.000371352
16 *324:14 *577:22 0.000257274
17 *1952:B1 *324:14 0
18 *316:12 *324:10 0
*RES
1 *1930:X *324:10 41.3493 
2 *324:10 *324:14 38.2722 
3 *324:14 *2149:A 20 
*END

*D_NET *325 0.0103956
*CONN
*I *2150:A I *D sg13g2_buf_1
*I *1929:X O *D sg13g2_mux4_1
*CAP
1 *2150:A 0.000420736
2 *1929:X 0
3 *325:22 0.00174128
4 *325:16 0.00140225
5 *325:10 0.00152177
6 *325:6 0.00144006
7 *2150:A *601:12 0.000371783
8 *325:10 *544:47 0.00207254
9 *325:10 *626:26 0
10 *325:16 *1959:D 7.34121e-05
11 *325:16 *477:14 0
12 *325:16 *576:26 0.000235153
13 *325:22 *1936:A_N 8.01995e-05
14 *325:22 *1959:GATE 8.02269e-05
15 *325:22 *2065:A 0
16 *325:22 *414:12 0
17 *325:22 *457:10 0
18 *325:22 *476:8 0
19 *325:22 *585:10 0.000394387
20 *325:22 *585:44 0.000160292
21 *325:22 *601:12 0
22 *325:22 *601:25 0
23 *325:22 *601:60 0.00040146
24 *1936:B *325:22 0
25 *137:7 *2150:A 0
*RES
1 *1929:X *325:6 40 
2 *325:6 *325:10 33.9462 
3 *325:10 *325:16 41.0918 
4 *325:16 *325:22 32.9986 
5 *325:22 *2150:A 44.429 
*END

*D_NET *326 0.0109737
*CONN
*I *2151:A I *D sg13g2_buf_1
*I *1928:X O *D sg13g2_mux4_1
*CAP
1 *2151:A 0.00149336
2 *1928:X 5.13132e-05
3 *326:24 0.0020394
4 *326:14 0.00232253
5 *326:8 0.00182781
6 *2151:A *2052:D 0
7 *2151:A *2053:D 0
8 *2151:A *443:10 0
9 *2151:A *593:18 0
10 *2151:A *615:14 0
11 *326:8 *1927:A0 8.00842e-05
12 *326:14 *1924:A2 0
13 *326:14 *499:10 0
14 *326:14 *522:55 0
15 *326:14 *534:51 0.000466373
16 *326:14 *544:75 0
17 *326:14 *561:32 0
18 *326:14 *563:61 0.00033605
19 *326:14 *563:72 0.00036908
20 *326:14 *578:35 0
21 *326:14 *605:53 0
22 *326:14 *610:24 0
23 *326:14 *615:14 0.000466143
24 *326:14 *615:29 0.000323022
25 *326:14 *627:20 0
26 *326:24 *443:10 0
27 *326:24 *522:55 0.000370419
28 *326:24 *570:14 1.54008e-05
29 *326:24 *595:20 0.000286781
30 *326:24 *624:22 0.000285521
31 *263:8 *326:24 0.000240377
32 *306:10 *326:14 0
*RES
1 *1928:X *326:8 40.5356 
2 *326:8 *326:14 37.0156 
3 *326:14 *326:24 46.1182 
4 *326:24 *2151:A 33.3694 
*END

*D_NET *327 0.00495391
*CONN
*I *2152:A I *D sg13g2_buf_1
*I *1927:X O *D sg13g2_mux4_1
*CAP
1 *2152:A 0
2 *1927:X 5.36053e-05
3 *327:12 0.00102561
4 *327:8 0.00107922
5 *327:8 *500:50 8.03417e-05
6 *327:8 *556:47 0
7 *327:12 *2123:A 0
8 *327:12 *432:26 0
9 *327:12 *581:10 0
10 *327:12 *606:30 0
11 *327:12 *607:20 0.00271513
*RES
1 *1927:X *327:8 40.5356 
2 *327:8 *327:12 32.7102 
3 *327:12 *2152:A 20 
*END

*D_NET *328 0.00929327
*CONN
*I *2153:A I *D sg13g2_buf_1
*I *1926:X O *D sg13g2_mux4_1
*CAP
1 *2153:A 0.000512211
2 *1926:X 0.00222823
3 *328:22 0.000815035
4 *328:16 0.00253105
5 *2153:A *2028:GATE 0
6 *328:16 *1896:A1 0
7 *328:16 *1961:GATE 0
8 *328:16 *1962:GATE 4.77079e-05
9 *328:16 *2028:D 0
10 *328:16 *2120:A 0
11 *328:16 *370:16 0.000433694
12 *328:16 *533:28 0
13 *328:16 *533:45 0.000305114
14 *328:16 *547:79 7.99388e-05
15 *328:16 *549:64 0
16 *328:16 *549:78 0
17 *328:16 *549:86 0
18 *328:16 *571:42 0
19 *328:16 *577:14 0
20 *328:16 *578:90 0.000337422
21 *328:22 *506:10 0.00114938
22 *1856:A *328:16 4.77425e-05
23 *1897:S0 *2153:A 0
24 *130:9 *328:16 0
25 *130:9 *328:22 0.0001814
26 *269:8 *328:22 0.000288917
27 *315:14 *328:16 0.000287773
28 *316:12 *328:16 4.7651e-05
*RES
1 *1926:X *328:16 42.4334 
2 *328:16 *328:22 45.5414 
3 *328:22 *2153:A 25.2942 
*END

*D_NET *329 0.00471701
*CONN
*I *2154:A I *D sg13g2_buf_1
*I *1925:X O *D sg13g2_mux4_1
*CAP
1 *2154:A 0
2 *1925:X 4.37077e-05
3 *329:12 0.000869825
4 *329:8 0.000913532
5 *329:8 *561:26 8.00842e-05
6 *329:8 *612:87 8.00842e-05
7 *329:12 *480:16 0.0023928
8 *329:12 *499:10 0
9 *329:12 *563:72 0
10 *329:12 *602:22 0
11 *329:12 *627:20 0.000336987
12 *306:10 *329:12 0
*RES
1 *1925:X *329:8 40.5356 
2 *329:8 *329:12 31.227 
3 *329:12 *2154:A 20 
*END

*D_NET *330 0.000885558
*CONN
*I *2155:A I *D sg13g2_buf_1
*I *1924:X O *D sg13g2_mux4_1
*CAP
1 *2155:A 4.37077e-05
2 *1924:X 0.000149878
3 *330:8 0.000193586
4 *2155:A *2006:D 8.00842e-05
5 *330:8 *480:16 0.000338219
6 *330:8 *625:26 0
7 *122:13 *2155:A 8.00842e-05
*RES
1 *1924:X *330:8 41.5862 
2 *330:8 *2155:A 40.5356 
*END

*D_NET *331 0.00399156
*CONN
*I *2156:A I *D sg13g2_buf_1
*I *1923:X O *D sg13g2_mux4_1
*CAP
1 *2156:A 0
2 *1923:X 6.14344e-05
3 *331:12 0.000905697
4 *331:8 0.000967131
5 *331:12 *506:10 0
6 *331:12 *612:48 0.00108159
7 *331:12 *622:22 0
8 *331:12 *623:18 0.000975709
*RES
1 *1923:X *331:8 40.5356 
2 *331:8 *331:12 30.4854 
3 *331:12 *2156:A 20 
*END

*D_NET *332 0.00239464
*CONN
*I *2157:A I *D sg13g2_buf_1
*I *1922:X O *D sg13g2_mux4_1
*CAP
1 *2157:A 0.000156961
2 *1922:X 0.000194601
3 *332:8 0.000351562
4 *332:8 *1879:B1 0.000820868
5 *332:8 *390:14 7.51285e-05
6 *332:8 *576:40 0.00055508
7 *1952:B1 *2157:A 0
8 *1952:A2 *2157:A 0
9 *237:40 *2157:A 0
10 *324:14 *2157:A 0.000240444
*RES
1 *1922:X *332:8 43.811 
2 *332:8 *2157:A 41.6171 
*END

*D_NET *333 0.00027623
*CONN
*I *2158:A I *D sg13g2_buf_1
*I *1921:X O *D sg13g2_mux4_1
*CAP
1 *2158:A 9.80592e-05
2 *1921:X 9.80592e-05
3 *2158:A *2023:GATE 0
4 *2158:A *606:89 0
5 *2158:A *609:77 8.01118e-05
*RES
1 *1921:X *2158:A 41.133 
*END

*D_NET *334 0.0010775
*CONN
*I *2159:A I *D sg13g2_buf_1
*I *1920:X O *D sg13g2_mux4_1
*CAP
1 *2159:A 0
2 *1920:X 0.000124052
3 *334:10 0.000124052
4 *334:10 *503:8 8.01116e-05
5 *334:10 *563:53 0.000334588
6 *334:10 *618:30 0.000334588
7 *334:10 *625:28 8.01116e-05
*RES
1 *1920:X *334:10 42.1218 
2 *334:10 *2159:A 40 
*END

*D_NET *335 0.000280933
*CONN
*I *2160:A I *D sg13g2_buf_1
*I *1919:X O *D sg13g2_mux4_1
*CAP
1 *2160:A 0.000100296
2 *1919:X 0.000100296
3 *2160:A *425:67 8.0342e-05
4 *2160:A *582:34 0
*RES
1 *1919:X *2160:A 41.133 
*END

*D_NET *336 0.000205021
*CONN
*I *2161:A I *D sg13g2_buf_1
*I *1918:X O *D sg13g2_mux4_1
*CAP
1 *2161:A 0.00010251
2 *1918:X 0.00010251
3 *2161:A *2173:A 0
*RES
1 *1918:X *2161:A 41.133 
*END

*D_NET *337 0.00124402
*CONN
*I *2162:A I *D sg13g2_buf_1
*I *1917:X O *D sg13g2_mux4_1
*CAP
1 *2162:A 7.76417e-05
2 *1917:X 0.00020286
3 *337:10 0.000280501
4 *2162:A *522:24 0.000144772
5 *2162:A *561:38 0.000144772
6 *337:10 *469:14 0.000282464
7 *337:10 *479:14 0
8 *337:10 *580:24 0.00011101
9 *1933:S *337:10 0
*RES
1 *1917:X *337:10 42.0909 
2 *337:10 *2162:A 40.9682 
*END

*D_NET *338 0.000361841
*CONN
*I *2163:A I *D sg13g2_buf_1
*I *1916:X O *D sg13g2_mux4_1
*CAP
1 *2163:A 0
2 *1916:X 0.000133106
3 *338:10 0.000133106
4 *338:10 *444:24 1.54008e-05
5 *338:10 *447:12 0
6 *338:10 *451:12 0
7 *338:10 *558:33 8.02269e-05
8 *338:10 *606:30 0
9 *1916:S1 *338:10 0
*RES
1 *1916:X *338:10 41.133 
2 *338:10 *2163:A 40 
*END

*D_NET *339 0.00252712
*CONN
*I *2164:A I *D sg13g2_buf_1
*I *1899:X O *D sg13g2_mux4_1
*CAP
1 *2164:A 0
2 *1899:X 2.60942e-05
3 *339:16 0.000577197
4 *339:8 0.000603291
5 *339:8 *464:12 0.000127802
6 *339:8 *474:18 0.000127802
7 *339:16 *2024:GATE 0.000273026
8 *339:16 *468:14 0.000337852
9 *339:16 *494:10 0.000229061
10 *339:16 *567:63 0.000144883
11 *339:16 *567:106 0
12 *339:16 *585:98 0
13 *1917:S0 *339:16 8.01116e-05
*RES
1 *1899:X *339:8 40.5974 
2 *339:8 *339:16 45.7371 
3 *339:16 *2164:A 40 
*END

*D_NET *340 0.000870361
*CONN
*I *2165:A I *D sg13g2_buf_1
*I *1898:X O *D sg13g2_mux4_1
*CAP
1 *2165:A 0.000315588
2 *1898:X 0.000315588
3 *2165:A *449:16 7.9757e-05
4 *2165:A *455:8 0
5 *2165:A *575:41 4.77425e-05
6 *2165:A *597:18 0
7 *1898:S1 *2165:A 0.000111685
*RES
1 *1898:X *2165:A 42.9355 
*END

*D_NET *341 0.000392907
*CONN
*I *2073:A I *D sg13g2_buf_1
*I *1889:X O *D sg13g2_mux4_1
*CAP
1 *2073:A 0
2 *1889:X 9.22407e-05
3 *341:10 9.22407e-05
4 *341:10 *2061:CLK 8.02269e-05
5 *341:10 *509:8 0.000128199
6 *341:10 *579:76 0
*RES
1 *1889:X *341:10 41.133 
2 *341:10 *2073:A 40 
*END

*D_NET *342 0.000426506
*CONN
*I *2074:A I *D sg13g2_buf_1
*I *1888:X O *D sg13g2_mux4_1
*CAP
1 *2074:A 0
2 *1888:X 0.000133097
3 *342:10 0.000133097
4 *342:10 *446:16 0
5 *342:10 *448:20 0
6 *342:10 *451:20 8.00842e-05
7 *342:10 *517:16 8.02267e-05
*RES
1 *1888:X *342:10 41.133 
2 *342:10 *2074:A 40 
*END

*D_NET *343 0.000208805
*CONN
*I *2065:A I *D sg13g2_buf_1
*I *1897:X O *D sg13g2_mux4_1
*CAP
1 *2065:A 0.000104403
2 *1897:X 0.000104403
3 *325:22 *2065:A 0
*RES
1 *1897:X *2065:A 41.133 
*END

*D_NET *344 0.00162128
*CONN
*I *2066:A I *D sg13g2_buf_1
*I *1896:X O *D sg13g2_mux4_1
*CAP
1 *2066:A 0
2 *1896:X 0.000667394
3 *344:10 0.000667394
4 *344:10 *1896:A2 0
5 *344:10 *533:45 0.000286493
6 *344:10 *549:64 0
7 *344:10 *578:57 0
8 *344:10 *578:61 0
9 *344:10 *611:56 0
10 *344:10 *616:34 0
11 *214:10 *344:10 0
12 *303:8 *344:10 0
*RES
1 *1896:X *344:10 46.6332 
2 *344:10 *2066:A 40 
*END

*D_NET *345 0.0003239
*CONN
*I *2067:A I *D sg13g2_buf_1
*I *1895:X O *D sg13g2_mux4_1
*CAP
1 *2067:A 0.000108671
2 *1895:X 0.000108671
3 *2067:A *605:59 2.62436e-05
4 *2067:A *612:99 8.03146e-05
*RES
1 *1895:X *2067:A 41.218 
*END

*D_NET *346 0.00100809
*CONN
*I *2068:A I *D sg13g2_buf_1
*I *1894:X O *D sg13g2_mux4_1
*CAP
1 *2068:A 0.000282033
2 *1894:X 0.000282033
3 *2068:A *2048:D 0
4 *2068:A *460:10 0
5 *2068:A *533:45 0.000304869
6 *2068:A *533:60 0
7 *1894:S1 *2068:A 0.000139151
*RES
1 *1894:X *2068:A 43.1106 
*END

*D_NET *347 0.00175913
*CONN
*I *2069:A I *D sg13g2_buf_1
*I *1893:X O *D sg13g2_mux4_1
*CAP
1 *2069:A 0
2 *1893:X 0.000409939
3 *347:10 0.000409939
4 *347:10 *2061:CLK 4.77425e-05
5 *347:10 *487:10 0.000811423
6 *1933:S *347:10 8.00842e-05
7 *212:18 *347:10 0
*RES
1 *1893:X *347:10 44.3466 
2 *347:10 *2069:A 40 
*END

*D_NET *348 0.000553542
*CONN
*I *2070:A I *D sg13g2_buf_1
*I *1892:X O *D sg13g2_mux4_1
*CAP
1 *2070:A 0
2 *1892:X 6.84116e-05
3 *348:10 6.84116e-05
4 *348:10 *451:20 8.01116e-05
5 *348:10 *507:8 0.000128248
6 *348:10 *613:12 0.000128248
7 *122:25 *348:10 8.01116e-05
*RES
1 *1892:X *348:10 41.133 
2 *348:10 *2070:A 40 
*END

*D_NET *349 0.00102628
*CONN
*I *2071:A I *D sg13g2_buf_1
*I *1891:X O *D sg13g2_mux4_1
*CAP
1 *2071:A 0.000148188
2 *1891:X 0.000236529
3 *349:10 0.000384717
4 *2071:A *1905:A1 0
5 *2071:A *1905:A2 0.000208968
6 *216:10 *349:10 0
7 *284:14 *349:10 4.78769e-05
8 *297:12 *349:10 0
*RES
1 *1891:X *349:10 42.1527 
2 *349:10 *2071:A 41.4008 
*END

*D_NET *350 0.000318401
*CONN
*I *2072:A I *D sg13g2_buf_1
*I *1890:X O *D sg13g2_mux4_1
*CAP
1 *2072:A 0.000111288
2 *1890:X 0.000111288
3 *2072:A *1899:A1 8.03692e-05
4 *2072:A *464:8 0
5 *2072:A *613:28 1.54556e-05
*RES
1 *1890:X *2072:A 41.133 
*END

*D_NET *351 0.00249742
*CONN
*I *2075:A I *D sg13g2_buf_1
*I *1915:X O *D sg13g2_mux4_1
*CAP
1 *2075:A 0
2 *1915:X 0.000339287
3 *351:10 0.000339287
4 *351:10 *466:8 0.000337852
5 *351:10 *466:16 0.000545056
6 *351:10 *470:12 0.000598056
7 *351:10 *503:16 0.000337879
8 *351:10 *533:112 0
*RES
1 *1915:X *351:10 45.0882 
2 *351:10 *2075:A 40 
*END

*D_NET *352 0.000224304
*CONN
*I *2076:A I *D sg13g2_buf_1
*I *1914:X O *D sg13g2_mux4_1
*CAP
1 *2076:A 0.000112152
2 *1914:X 0.000112152
*RES
1 *1914:X *2076:A 41.133 
*END

*D_NET *353 0.000271632
*CONN
*I *2085:A I *D sg13g2_buf_1
*I *1905:X O *D sg13g2_mux4_1
*CAP
1 *2085:A 9.57026e-05
2 *1905:X 9.57026e-05
3 *2085:A *486:30 0
4 *2085:A *503:16 8.02269e-05
*RES
1 *1905:X *2085:A 41.133 
*END

*D_NET *354 0.000276162
*CONN
*I *2086:A I *D sg13g2_buf_1
*I *1904:X O *D sg13g2_mux4_1
*CAP
1 *2086:A 9.79673e-05
2 *1904:X 9.79673e-05
3 *2086:A *468:14 8.02269e-05
4 *2086:A *503:8 0
5 *1904:S1 *2086:A 0
*RES
1 *1904:X *2086:A 41.133 
*END

*D_NET *355 0.00031042
*CONN
*I *2087:A I *D sg13g2_buf_1
*I *1903:X O *D sg13g2_mux4_1
*CAP
1 *2087:A 0.000115168
2 *1903:X 0.000115168
3 *2087:A *627:34 8.00842e-05
*RES
1 *1903:X *2087:A 41.133 
*END

*D_NET *356 0.00140674
*CONN
*I *2088:A I *D sg13g2_buf_1
*I *1902:X O *D sg13g2_mux4_1
*CAP
1 *2088:A 0.000127284
2 *1902:X 0.000316168
3 *356:8 0.000443451
4 *2088:A *567:12 0.000242186
5 *356:8 *572:20 0
6 *258:16 *2088:A 0.000242301
7 *258:16 *356:8 3.53546e-05
*RES
1 *1902:X *356:8 42.8222 
2 *356:8 *2088:A 41.6171 
*END

*D_NET *357 0.0028017
*CONN
*I *2089:A I *D sg13g2_buf_1
*I *1901:X O *D sg13g2_mux4_1
*CAP
1 *2089:A 4.26736e-05
2 *1901:X 0.000693252
3 *357:8 0.000735926
4 *2089:A *585:90 8.01995e-05
5 *2089:A *623:34 8.01995e-05
6 *357:8 *1870:A2 0.000494398
7 *357:8 *1870:A3 0.000443557
8 *357:8 *363:12 0
9 *357:8 *381:10 0.000231494
10 *261:14 *357:8 0
11 *274:16 *357:8 0
*RES
1 *1901:X *357:8 46.7774 
2 *357:8 *2089:A 40.5356 
*END

*D_NET *358 0.00135458
*CONN
*I *2090:A I *D sg13g2_buf_1
*I *1900:X O *D sg13g2_mux4_1
*CAP
1 *2090:A 6.13589e-05
2 *1900:X 0.000220851
3 *358:12 0.00028221
4 *2090:A *561:26 0.000112426
5 *2090:A *612:30 0.000112426
6 *358:12 *422:57 7.99485e-05
7 *358:12 *458:14 1.5347e-05
8 *358:12 *551:67 7.96809e-05
9 *262:8 *358:12 0.000390334
*RES
1 *1900:X *358:12 42.6883 
2 *358:12 *2090:A 40.7519 
*END

*D_NET *359 0.00146725
*CONN
*I *2077:A I *D sg13g2_buf_1
*I *1913:X O *D sg13g2_mux4_1
*CAP
1 *2077:A 0.000228986
2 *1913:X 7.78371e-05
3 *359:8 0.000306823
4 *2077:A *574:28 0.000338865
5 *2077:A *619:22 4.77425e-05
6 *359:8 *572:12 0.000286516
7 *359:8 *605:77 0
8 *250:8 *359:8 0.000180481
*RES
1 *1913:X *359:8 41.339 
2 *359:8 *2077:A 42.266 
*END

*D_NET *360 0.000218958
*CONN
*I *2078:A I *D sg13g2_buf_1
*I *1912:X O *D sg13g2_mux4_1
*CAP
1 *2078:A 0.000109479
2 *1912:X 0.000109479
3 *2078:A *456:35 0
4 *2078:A *597:42 0
*RES
1 *1912:X *2078:A 41.133 
*END

*D_NET *361 0.00171409
*CONN
*I *2079:A I *D sg13g2_buf_1
*I *1911:X O *D sg13g2_mux4_1
*CAP
1 *2079:A 0
2 *1911:X 0.00032871
3 *361:10 0.00032871
4 *361:10 *1950:B_N 0.000544881
5 *361:10 *374:12 0.000241425
6 *361:10 *589:76 0
7 *1923:S1 *361:10 0
8 *230:48 *361:10 0.000126307
9 *237:102 *361:10 0.000144054
*RES
1 *1911:X *361:10 44.1921 
2 *361:10 *2079:A 40 
*END

*D_NET *362 0.00092171
*CONN
*I *2080:A I *D sg13g2_buf_1
*I *1910:X O *D sg13g2_mux4_1
*CAP
1 *2080:A 0.000263046
2 *1910:X 0.000263046
3 *2080:A *1911:A3 0
4 *2080:A *477:10 0
5 *2080:A *587:34 0.00011265
6 *2080:A *591:30 0
7 *2080:A *629:24 4.77425e-05
8 *272:12 *2080:A 0.000235225
*RES
1 *1910:X *2080:A 42.6162 
*END

*D_NET *363 0.00209386
*CONN
*I *2081:A I *D sg13g2_buf_1
*I *1909:X O *D sg13g2_mux4_1
*CAP
1 *2081:A 0
2 *1909:X 0.000574968
3 *363:12 0.000574968
4 *363:12 *1870:A1 0
5 *363:12 *1870:A3 0.000234311
6 *363:12 *595:24 0
7 *1881:S *363:12 0
8 *274:16 *363:12 0.000709611
9 *357:8 *363:12 0
*RES
1 *1909:X *363:12 45.9328 
2 *363:12 *2081:A 40 
*END

*D_NET *364 0.000998973
*CONN
*I *2082:A I *D sg13g2_buf_1
*I *1908:X O *D sg13g2_mux4_1
*CAP
1 *2082:A 0.00019744
2 *1908:X 7.50219e-05
3 *364:8 0.000272462
4 *2082:A *480:8 0
5 *2082:A *500:58 0.000272858
6 *364:8 *593:26 0.000181192
*RES
1 *1908:X *364:8 40.8446 
2 *364:8 *2082:A 41.8334 
*END

*D_NET *365 0.000800803
*CONN
*I *2083:A I *D sg13g2_buf_1
*I *1907:X O *D sg13g2_mux4_1
*CAP
1 *2083:A 0.000230969
2 *1907:X 0.000230969
3 *2083:A *610:45 0.000338865
4 *1907:S1 *2083:A 0
*RES
1 *1907:X *2083:A 42.266 
*END

*D_NET *366 0.0025963
*CONN
*I *2084:A I *D sg13g2_buf_1
*I *1906:X O *D sg13g2_mux4_1
*CAP
1 *2084:A 0.000217325
2 *1906:X 0.000466565
3 *366:8 0.000683889
4 *2084:A *500:28 0.000176365
5 *2084:A *544:28 0.000272718
6 *366:8 *2023:D 0
7 *366:8 *497:12 0
8 *366:8 *544:28 0
9 *366:8 *610:49 0.000496575
10 *264:8 *366:8 0.000282861
*RES
1 *1906:X *366:8 44.5526 
2 *366:8 *2084:A 42.266 
*END

*D_NET *367 0.00104607
*CONN
*I *2167:A I *D sg13g2_buf_8
*I *2171:X O *D sg13g2_buf_8
*CAP
1 *2167:A 0
2 *2171:X 0.000418553
3 *367:10 0.000418553
4 *367:10 *455:24 0
5 *367:10 *460:54 0
6 *367:10 *461:16 0
7 *367:10 *516:8 0.000208968
8 *367:10 *534:16 0
*RES
1 *2171:X *367:10 44.223 
2 *367:10 *2167:A 40 
*END

*D_NET *368 0.00314761
*CONN
*I *1864:B1 I *D sg13g2_a21o_1
*I *1854:Y O *D sg13g2_inv_1
*CAP
1 *1864:B1 0.000346571
2 *1854:Y 0.000779328
3 *368:14 0.0011259
4 *1864:B1 *1865:A2 0
5 *1864:B1 *1868:A0 0
6 *1864:B1 *601:71 0
7 *368:14 *1871:B 0.000655322
8 *368:14 *589:43 0
9 *368:14 *628:16 0
10 *1854:A *368:14 0
11 *1864:A1 *1864:B1 0
12 *231:77 *1864:B1 0.000240492
13 *231:85 *1864:B1 0
*RES
1 *1854:Y *368:14 46.4993 
2 *368:14 *1864:B1 43.2651 
*END

*D_NET *369 0.00656531
*CONN
*I *1941:A I *D sg13g2_nor3_1
*I *1947:A1 I *D sg13g2_a21oi_1
*I *1855:Y O *D sg13g2_inv_1
*CAP
1 *1941:A 5.37171e-05
2 *1947:A1 0
3 *1855:Y 0.000384151
4 *369:30 0.000981656
5 *369:24 0.00129296
6 *369:12 0.000641734
7 *1941:A *1858:A2 8.00842e-05
8 *1941:A *388:16 1.54008e-05
9 *369:12 *407:8 0.000124859
10 *369:12 *408:8 0
11 *369:12 *498:10 0
12 *369:12 *500:83 7.52149e-05
13 *369:12 *623:28 0.000180044
14 *369:24 *500:83 0.00011101
15 *369:24 *626:24 0.00012785
16 *369:30 *1911:A2 0.000111685
17 *369:30 *388:24 0
18 *369:30 *409:22 0.000272911
19 *369:30 *426:26 0.000341216
20 *369:30 *587:38 0.000144027
21 *369:30 *587:46 7.51285e-05
22 *369:30 *589:76 0
23 *369:30 *592:33 0
24 *369:30 *592:39 0
25 *369:30 *601:48 0
26 *369:30 *626:24 0.000655186
27 *1923:S0 *369:30 0
28 *1936:B *369:24 0.000106487
29 *1936:B *369:30 0.000234111
30 *1938:A *369:24 0
31 *1947:A2 *369:30 4.77425e-05
32 *229:16 *369:12 0
33 *229:16 *369:24 7.45103e-05
34 *229:20 *369:24 0.000176399
35 *229:44 *369:24 7.94173e-05
36 *230:10 *369:24 0.000104573
37 *230:16 *369:24 7.3236e-05
*RES
1 *1855:Y *369:12 43.708 
2 *369:12 *369:24 43.2548 
3 *369:24 *369:30 30.3412 
4 *369:30 *1947:A1 20 
5 *369:24 *1941:A 40.5356 
*END

*D_NET *370 0.00441196
*CONN
*I *1879:B1 I *D sg13g2_a21o_1
*I *1856:Y O *D sg13g2_inv_1
*CAP
1 *1879:B1 0.000635032
2 *1856:Y 0.000465438
3 *370:16 0.00110047
4 *1879:B1 *1877:C 0.000175693
5 *1879:B1 *375:12 0.00028545
6 *1879:B1 *390:14 0
7 *1879:B1 *444:12 0
8 *1879:B1 *512:12 0
9 *1879:B1 *576:40 0
10 *370:16 *571:42 0.000177141
11 *224:32 *1879:B1 0.000175693
12 *224:40 *1879:B1 1.54008e-05
13 *316:12 *370:16 4.77347e-05
14 *324:10 *370:16 7.93436e-05
15 *328:16 *370:16 0.000433694
16 *332:8 *1879:B1 0.000820868
*RES
1 *1856:Y *370:16 45.1191 
2 *370:16 *1879:B1 46.7259 
*END

*D_NET *371 0.00576082
*CONN
*I *1949:A1 I *D sg13g2_a221oi_1
*I *1948:B I *D sg13g2_nor2_1
*I *1951:B1 I *D sg13g2_a22oi_1
*I *1857:Y O *D sg13g2_inv_1
*CAP
1 *1949:A1 0.000443905
2 *1948:B 3.1722e-05
3 *1951:B1 0
4 *1857:Y 0.000160498
5 *371:22 0.000710919
6 *371:12 0.000977369
7 *371:8 0.00083913
8 *1948:B *1953:C 4.77702e-05
9 *1949:A1 *1877:B 0
10 *1949:A1 *1949:B1 0
11 *1949:A1 *412:10 0
12 *1949:A1 *585:20 0
13 *1949:A1 *592:33 0
14 *371:8 *412:10 0
15 *371:12 *1953:C 0.000338307
16 *371:12 *1954:B 0
17 *371:22 *374:12 0
18 *371:22 *388:24 0.00107568
19 *371:22 *411:8 7.45103e-05
20 *371:22 *426:26 0
21 *371:22 *584:38 0.000549608
22 *224:52 *371:22 0.000225699
23 *227:10 *371:22 0
24 *235:12 *1949:A1 0.000106064
25 *235:12 *371:8 0.000179634
26 *237:16 *1948:B 0
27 *237:16 *371:12 0
28 *237:23 *1948:B 0
29 *271:8 *371:8 0
*RES
1 *1857:Y *371:8 41.5862 
2 *371:8 *371:12 22.266 
3 *371:12 *371:22 48.4048 
4 *371:22 *1951:B1 20 
5 *371:12 *1948:B 20.3193 
6 *371:8 *1949:A1 43.6977 
*END

*D_NET *372 0.0011222
*CONN
*I *1859:B I *D sg13g2_nor2_1
*I *1858:X O *D sg13g2_mux4_1
*CAP
1 *1859:B 0.000363043
2 *1858:X 0.000363043
3 *1859:B *500:83 0
4 *1858:S1 *1859:B 0.00013915
5 *223:77 *1859:B 8.00842e-05
6 *232:8 *1859:B 0.000176882
*RES
1 *1858:X *1859:B 43.6771 
*END

*D_NET *373 0.000613309
*CONN
*I *1872:A1 I *D sg13g2_o21ai_1
*I *1859:Y O *D sg13g2_nor2_1
*CAP
1 *1872:A1 0.000202637
2 *1859:Y 0.000202637
3 *1872:A1 *1872:A2 0.000208035
*RES
1 *1859:Y *1872:A1 41.9982 
*END

*D_NET *374 0.00506694
*CONN
*I *1862:B I *D sg13g2_nor3_1
*I *1860:Y O *D sg13g2_nor2_1
*CAP
1 *1862:B 0.000543471
2 *1860:Y 0.000665214
3 *374:12 0.00120869
4 *1862:B *1858:A2 4.75151e-05
5 *1862:B *1872:A2 0
6 *1862:B *376:10 0.000531287
7 *1862:B *388:16 0.000530969
8 *374:12 *1860:B 0.000112456
9 *374:12 *1950:B_N 0
10 *374:12 *1959:D 0
11 *374:12 *388:24 0
12 *232:25 *1862:B 0.000208035
13 *232:44 *1862:B 0
14 *268:14 *374:12 0.000977886
15 *361:10 *374:12 0.000241425
16 *371:22 *374:12 0
*RES
1 *1860:Y *374:12 47.3233 
2 *374:12 *1862:B 45.8607 
*END

*D_NET *375 0.0046123
*CONN
*I *1862:C I *D sg13g2_nor3_1
*I *1861:Y O *D sg13g2_nor2b_1
*CAP
1 *1862:C 0
2 *1861:Y 0.000154119
3 *375:20 0.00119823
4 *375:12 0.00135235
5 *375:12 *444:12 0.000336987
6 *375:12 *576:32 7.9225e-05
7 *375:12 *590:70 7.9225e-05
8 *375:20 *376:10 0.000208062
9 *375:20 *387:12 0
10 *375:20 *399:18 0.000775267
11 *375:20 *444:12 0
12 *375:20 *584:58 0
13 *375:20 *585:53 0.000143379
14 *1879:B1 *375:12 0.00028545
15 *231:14 *375:20 0
16 *231:16 *375:20 0
17 *231:28 *375:20 0
18 *234:31 *375:20 0
*RES
1 *1861:Y *375:12 42.4411 
2 *375:12 *375:20 31.0313 
3 *375:20 *1862:C 20 
*END

*D_NET *376 0.00308975
*CONN
*I *1865:A1 I *D sg13g2_o21ai_1
*I *1862:Y O *D sg13g2_nor3_1
*CAP
1 *1865:A1 0
2 *1862:Y 0.000439063
3 *376:10 0.000439063
4 *376:10 *1858:A2 0.000272976
5 *376:10 *477:14 0.000599727
6 *376:10 *512:12 0.000599574
7 *376:10 *585:53 0
8 *1862:B *376:10 0.000531287
9 *375:20 *376:10 0.000208062
*RES
1 *1862:Y *376:10 46.386 
2 *376:10 *1865:A1 40 
*END

*D_NET *377 0.00108336
*CONN
*I *1864:A2 I *D sg13g2_a21o_1
*I *1863:X O *D sg13g2_mux2_1
*CAP
1 *1864:A2 0.000339913
2 *1863:X 0.000339913
3 *1864:A2 *1865:A2 0
4 *1864:A2 *1887:A2 0.000258739
5 *1864:A2 *584:38 0
6 *1864:A1 *1864:A2 0.000144798
7 *234:31 *1864:A2 0
*RES
1 *1863:X *1864:A2 43.5432 
*END

*D_NET *378 0.000773431
*CONN
*I *1865:A2 I *D sg13g2_o21ai_1
*I *1864:X O *D sg13g2_a21o_1
*CAP
1 *1865:A2 0.000258827
2 *1864:X 0.000258827
3 *1865:A2 *600:30 0
4 *1864:A2 *1865:A2 0
5 *1864:B1 *1865:A2 0
6 *234:12 *1865:A2 1.54008e-05
7 *234:31 *1865:A2 0.000240377
*RES
1 *1864:X *1865:A2 42.266 
*END

*D_NET *379 0.0045304
*CONN
*I *1872:A2 I *D sg13g2_o21ai_1
*I *1865:Y O *D sg13g2_o21ai_1
*CAP
1 *1872:A2 0.000488678
2 *1865:Y 0.000202529
3 *379:8 0.000691207
4 *1872:A2 *1872:B1 8.00842e-05
5 *1872:A2 *388:16 0.000241282
6 *1872:A2 *576:18 0
7 *1872:A2 *588:49 0.000112648
8 *1872:A2 *588:60 0.000322116
9 *379:8 *444:12 0.000915598
10 *379:8 *512:12 0.000916277
11 *1862:B *1872:A2 0
12 *1872:A1 *1872:A2 0.000208035
13 *232:25 *1872:A2 0.000208035
14 *232:44 *1872:A2 0.000143908
*RES
1 *1865:Y *379:8 44.3054 
2 *379:8 *1872:A2 45.2942 
*END

*D_NET *380 0.00436118
*CONN
*I *1870:A2 I *D sg13g2_mux4_1
*I *1866:X O *D sg13g2_mux2_1
*CAP
1 *1870:A2 0.000491601
2 *1866:X 0.000549521
3 *380:10 0.00104112
4 *1870:A2 *381:10 0
5 *1870:A2 *590:80 7.33225e-05
6 *380:10 *1885:A0 0
7 *380:10 *590:102 4.77425e-05
8 *380:10 *593:69 0.00020871
9 *380:10 *598:51 8.01995e-05
10 *257:28 *380:10 0.000144768
11 *261:14 *1870:A2 0.00122979
12 *274:16 *380:10 0
13 *357:8 *1870:A2 0.000494398
*RES
1 *1866:X *380:10 45.2118 
2 *380:10 *1870:A2 46.3242 
*END

*D_NET *381 0.00334863
*CONN
*I *1870:A0 I *D sg13g2_mux4_1
*I *1867:X O *D sg13g2_mux2_1
*CAP
1 *1870:A0 0
2 *1867:X 0.000759942
3 *381:10 0.000759942
4 *381:10 *1926:A0 0
5 *381:10 *1946:A 0.000857676
6 *381:10 *562:42 0
7 *381:10 *590:80 0.000283802
8 *381:10 *600:73 0.000440375
9 *1870:A2 *381:10 0
10 *224:12 *381:10 0
11 *237:64 *381:10 1.54008e-05
12 *274:16 *381:10 0
13 *357:8 *381:10 0.000231494
*RES
1 *1867:X *381:10 48.1473 
2 *381:10 *1870:A0 40 
*END

*D_NET *382 0.00369123
*CONN
*I *1870:A3 I *D sg13g2_mux4_1
*I *1868:X O *D sg13g2_mux2_1
*CAP
1 *1870:A3 0.000146058
2 *1868:X 0.000960555
3 *382:12 0.00110661
4 *382:12 *589:68 0.000112541
5 *382:12 *600:50 0
6 *382:12 *600:65 0
7 *1870:S0 *382:12 0
8 *1881:S *382:12 0
9 *1909:S1 *382:12 0.000332687
10 *223:77 *382:12 0.000272834
11 *223:84 *382:12 6.46834e-05
12 *224:77 *382:12 1.73876e-05
13 *274:16 *1870:A3 0
14 *357:8 *1870:A3 0.000443557
15 *363:12 *1870:A3 0.000234311
*RES
1 *1868:X *382:12 48.7756 
2 *382:12 *1870:A3 42.0806 
*END

*D_NET *383 0.00472127
*CONN
*I *1870:A1 I *D sg13g2_mux4_1
*I *1869:X O *D sg13g2_mux2_1
*CAP
1 *1870:A1 0.000332911
2 *1869:X 0.000798539
3 *383:10 0.00113145
4 *383:10 *1869:A1 0
5 *383:10 *445:58 0
6 *383:10 *458:14 0.00164689
7 *383:10 *595:66 0
8 *1909:S1 *1870:A1 0.000300345
9 *223:123 *383:10 0.000230615
10 *224:12 *383:10 0
11 *224:22 *383:10 0
12 *224:77 *383:10 0
13 *231:85 *383:10 0
14 *233:32 *383:10 0.000280515
15 *363:12 *1870:A1 0
*RES
1 *1869:X *383:10 49.167 
2 *383:10 *1870:A1 42.9149 
*END

*D_NET *384 0.0041982
*CONN
*I *1871:B I *D sg13g2_nand2b_1
*I *1870:X O *D sg13g2_mux4_1
*CAP
1 *1871:B 0.000220192
2 *1870:X 0.000979066
3 *384:14 0.00119926
4 *1871:B *589:43 0.000710169
5 *384:14 *1908:A3 6.46382e-05
6 *384:14 *1925:A0 0
7 *384:14 *422:39 0
8 *384:14 *601:86 0.000306639
9 *233:32 *384:14 4.75151e-05
10 *234:31 *1871:B 1.54008e-05
11 *368:14 *1871:B 0.000655322
*RES
1 *1870:X *384:14 48.4769 
2 *384:14 *1871:B 43.8522 
*END

*D_NET *385 0.00120865
*CONN
*I *1872:B1 I *D sg13g2_o21ai_1
*I *1871:Y O *D sg13g2_nand2b_1
*CAP
1 *1872:B1 5.37171e-05
2 *1871:Y 0.000175534
3 *385:10 0.000229251
4 *1872:B1 *428:8 1.54008e-05
5 *385:10 *399:18 7.9225e-05
6 *385:10 *621:12 0.000287256
7 *385:10 *628:16 0.000288184
8 *1872:A2 *1872:B1 8.00842e-05
*RES
1 *1871:Y *385:10 42.3072 
2 *385:10 *1872:B1 40.5356 
*END

*D_NET *386 0.000958318
*CONN
*I *1874:B I *D sg13g2_nor2_1
*I *1873:X O *D sg13g2_mux4_1
*CAP
1 *1874:B 0.000114554
2 *1873:X 0.000136279
3 *386:10 0.000250833
4 *1874:B *387:12 0.00011101
5 *386:10 *587:63 0.000233442
6 *223:8 *386:10 0
7 *224:22 *1874:B 0
8 *237:54 *1874:B 0.0001122
9 *237:54 *386:10 0
*RES
1 *1873:X *386:10 41.4111 
2 *386:10 *1874:B 41.1845 
*END

*D_NET *387 0.00300532
*CONN
*I *1887:A1 I *D sg13g2_o21ai_1
*I *1874:Y O *D sg13g2_nor2_1
*CAP
1 *1887:A1 0.000218594
2 *1874:Y 0.000809974
3 *387:12 0.00102857
4 *1887:A1 *1887:A2 0.00030529
5 *1887:A1 *426:14 1.54008e-05
6 *1887:A1 *584:38 0
7 *387:12 *1876:A 4.77425e-05
8 *387:12 *390:14 0
9 *387:12 *393:10 0
10 *1874:B *387:12 0.00011101
11 *223:34 *387:12 0
12 *224:32 *387:12 0
13 *231:28 *387:12 0
14 *257:28 *387:12 0.000468739
15 *375:20 *387:12 0
*RES
1 *1874:Y *387:12 47.1997 
2 *387:12 *1887:A1 42.0497 
*END

*D_NET *388 0.00799036
*CONN
*I *1877:B I *D sg13g2_nor3_1
*I *1875:Y O *D sg13g2_nor2_1
*CAP
1 *1877:B 0.000336055
2 *1875:Y 0.000355317
3 *388:24 0.00105019
4 *388:16 0.00112171
5 *388:10 0.000762896
6 *1877:B *1877:C 1.17068e-05
7 *1877:B *1953:C 0
8 *1877:B *390:14 0
9 *1877:B *409:22 0
10 *1877:B *412:10 0
11 *1877:B *426:26 0.000444228
12 *388:10 *589:32 0.000176484
13 *388:10 *617:10 0.000126354
14 *388:16 *1858:A2 0
15 *388:16 *545:80 0
16 *388:24 *1910:A1 0.00011243
17 *388:24 *587:46 0.000126354
18 *388:24 *592:39 0.000144025
19 *388:24 *626:24 0.000706722
20 *1858:S1 *388:10 0.000112198
21 *1862:B *388:16 0.000530969
22 *1872:A2 *388:16 0.000241282
23 *1941:A *388:16 1.54008e-05
24 *1941:B *388:16 1.54008e-05
25 *1949:A1 *1877:B 0
26 *223:77 *388:10 4.77425e-05
27 *224:52 *1877:B 3.54888e-05
28 *231:10 *388:10 0.000441715
29 *232:10 *388:10 0
30 *233:8 *388:10 0
31 *369:30 *388:24 0
32 *371:22 *388:24 0.00107568
33 *374:12 *388:24 0
*RES
1 *1875:Y *388:10 43.914 
2 *388:10 *388:16 44.2127 
3 *388:16 *388:24 48.7344 
4 *388:24 *1877:B 43.7492 
*END

*D_NET *389 0.00158117
*CONN
*I *1877:C I *D sg13g2_nor3_1
*I *1876:Y O *D sg13g2_nor2b_1
*CAP
1 *1877:C 0.000463581
2 *1876:Y 0.000463581
3 *1877:C *1910:A1 0
4 *1877:B *1877:C 1.17068e-05
5 *1879:B1 *1877:C 0.000175693
6 *224:40 *1877:C 0
7 *257:28 *1877:C 0.000466612
*RES
1 *1876:Y *1877:C 44.635 
*END

*D_NET *390 0.00384452
*CONN
*I *1880:A1 I *D sg13g2_o21ai_1
*I *1877:Y O *D sg13g2_nor3_1
*CAP
1 *1880:A1 0.000355404
2 *1877:Y 0.000707689
3 *390:14 0.00106309
4 *1880:A1 *1880:A2 0.000597089
5 *390:14 *1879:A2 0.000146308
6 *390:14 *590:55 0.000273394
7 *390:14 *590:70 0.000240404
8 *1877:B *390:14 0
9 *1879:B1 *390:14 0
10 *223:34 *1880:A1 0.000241955
11 *224:40 *390:14 0
12 *257:28 *1880:A1 0.000144053
13 *332:8 *390:14 7.51285e-05
14 *387:12 *390:14 0
*RES
1 *1877:Y *390:14 46.0976 
2 *390:14 *1880:A1 43.9964 
*END

*D_NET *391 0.00142056
*CONN
*I *1879:A2 I *D sg13g2_a21o_1
*I *1878:X O *D sg13g2_mux2_1
*CAP
1 *1879:A2 7.98506e-05
2 *1878:X 9.86672e-05
3 *391:8 0.000178518
4 *391:8 *591:42 0.000384193
5 *224:32 *1879:A2 6.62234e-05
6 *224:40 *1879:A2 8.00842e-05
7 *234:12 *391:8 0.000386714
8 *390:14 *1879:A2 0.000146308
*RES
1 *1878:X *391:8 41.8334 
2 *391:8 *1879:A2 40.9785 
*END

*D_NET *392 0.00223877
*CONN
*I *1880:A2 I *D sg13g2_o21ai_1
*I *1879:X O *D sg13g2_a21o_1
*CAP
1 *1880:A2 0.00074088
2 *1879:X 0.00074088
3 *1880:A2 *1910:A1 0
4 *1880:A2 *393:10 0
5 *1863:S *1880:A2 3.8502e-07
6 *1878:S *1880:A2 0
7 *1880:A1 *1880:A2 0.000597089
8 *231:28 *1880:A2 0
9 *231:32 *1880:A2 8.03146e-05
10 *257:28 *1880:A2 7.92265e-05
*RES
1 *1879:X *1880:A2 47.21 
*END

*D_NET *393 0.00299451
*CONN
*I *1887:A2 I *D sg13g2_o21ai_1
*I *1880:Y O *D sg13g2_o21ai_1
*CAP
1 *1887:A2 0.000234854
2 *1880:Y 0.000437357
3 *393:10 0.000672211
4 *1887:A2 *1887:B1 0.000143908
5 *393:10 *1873:A1 0.000340655
6 *393:10 *587:52 0.000112533
7 *393:10 *587:63 9.7025e-05
8 *1864:A2 *1887:A2 0.000258739
9 *1880:A2 *393:10 0
10 *1887:A1 *1887:A2 0.00030529
11 *223:24 *393:10 0
12 *223:34 *393:10 0
13 *231:28 *393:10 0.000391932
14 *387:12 *393:10 0
*RES
1 *1880:Y *393:10 44.7792 
2 *393:10 *1887:A2 42.6986 
*END

*D_NET *394 0.00345163
*CONN
*I *1885:A2 I *D sg13g2_mux4_1
*I *1881:X O *D sg13g2_mux2_1
*CAP
1 *1885:A2 4.53369e-05
2 *1881:X 0.000170286
3 *394:14 0.000567676
4 *394:8 0.000692626
5 *394:8 *610:24 0.000492171
6 *394:8 *618:44 0
7 *394:8 *627:20 0.000651029
8 *394:14 *536:22 0.000832509
9 *394:14 *589:51 0
10 *280:32 *394:14 0
*RES
1 *1881:X *394:8 43.0694 
2 *394:8 *394:14 45.9431 
3 *394:14 *1885:A2 40.3193 
*END

*D_NET *395 0.000795394
*CONN
*I *1885:A0 I *D sg13g2_mux4_1
*I *1882:X O *D sg13g2_mux2_1
*CAP
1 *1885:A0 0.000349955
2 *1882:X 0.000349955
3 *1885:A0 *1901:A2 0
4 *1885:A0 *593:26 0
5 *1885:S0 *1885:A0 1.54008e-05
6 *274:16 *1885:A0 8.00842e-05
7 *380:10 *1885:A0 0
*RES
1 *1882:X *1885:A0 43.3166 
*END

*D_NET *396 0.000542825
*CONN
*I *1885:A3 I *D sg13g2_mux4_1
*I *1883:X O *D sg13g2_mux2_1
*CAP
1 *1885:A3 0.000183216
2 *1883:X 0.000183216
3 *1885:A3 *600:65 0.000176394
*RES
1 *1883:X *1885:A3 41.6171 
*END

*D_NET *397 0.00105373
*CONN
*I *1885:A1 I *D sg13g2_mux4_1
*I *1884:X O *D sg13g2_mux2_1
*CAP
1 *1885:A1 0
2 *1884:X 0.000215366
3 *397:10 0.000215366
4 *224:77 *397:10 0.000233249
5 *231:85 *397:10 0.000389747
*RES
1 *1884:X *397:10 42.4926 
2 *397:10 *1885:A1 40 
*END

*D_NET *398 0.000822496
*CONN
*I *1886:B I *D sg13g2_nand2b_1
*I *1885:X O *D sg13g2_mux4_1
*CAP
1 *1886:B 0.000282187
2 *1885:X 0.000129061
3 *398:8 0.000411248
4 *1886:B *594:26 0
5 *398:8 *596:28 0
6 *1881:S *1886:B 0
7 *232:44 *1886:B 0
8 *233:32 *398:8 0
*RES
1 *1885:X *398:8 41.0918 
2 *398:8 *1886:B 42.4823 
*END

*D_NET *399 0.00397865
*CONN
*I *1887:B1 I *D sg13g2_o21ai_1
*I *1886:Y O *D sg13g2_nand2b_1
*CAP
1 *1887:B1 9.72534e-05
2 *1886:Y 0.000685315
3 *399:18 0.000782568
4 *399:18 *444:12 0.000758388
5 *399:18 *584:58 0.000240492
6 *399:18 *585:44 0.000144168
7 *399:18 *585:53 0.000192837
8 *1887:A2 *1887:B1 0.000143908
9 *232:44 *399:18 7.92265e-05
10 *375:20 *399:18 0.000775267
11 *385:10 *399:18 7.9225e-05
*RES
1 *1886:Y *399:18 48.8992 
2 *399:18 *1887:B1 40.9682 
*END

*D_NET *400 0.000849874
*CONN
*I *1937:B1 I *D sg13g2_o21ai_1
*I *1936:Y O *D sg13g2_nand2b_1
*CAP
1 *1937:B1 8.69885e-05
2 *1936:Y 0.000207994
3 *400:10 0.000294982
4 *400:10 *1858:A2 0.00011101
5 *400:10 *407:8 0
6 *400:10 *476:8 0.000111712
7 *1936:B *400:10 0
8 *229:20 *400:10 2.1786e-05
9 *229:54 *1937:B1 1.54008e-05
*RES
1 *1936:Y *400:10 41.8437 
2 *400:10 *1937:B1 40.7519 
*END

*D_NET *401 0.000714575
*CONN
*I *1940:A2 I *D sg13g2_o21ai_1
*I *1937:Y O *D sg13g2_o21ai_1
*CAP
1 *1940:A2 0.000285766
2 *1937:Y 0.000285766
3 *1940:A2 *1940:B1 4.78578e-05
4 *1940:A2 *587:16 0
5 *229:44 *1940:A2 1.51e-05
6 *230:16 *1940:A2 8.00842e-05
7 *230:42 *1940:A2 0
*RES
1 *1937:Y *1940:A2 42.6677 
*END

*D_NET *402 0.000246574
*CONN
*I *1939:A2 I *D sg13g2_a21oi_1
*I *1938:Y O *D sg13g2_nor2b_1
*CAP
1 *1939:A2 0.000115587
2 *1938:Y 0.000115587
3 *1939:A2 *623:18 0
4 *1938:A *1939:A2 1.54008e-05
5 *1944:A *1939:A2 0
*RES
1 *1938:Y *1939:A2 41.236 
*END

*D_NET *403 0.00145375
*CONN
*I *1940:B1 I *D sg13g2_o21ai_1
*I *1939:Y O *D sg13g2_a21oi_1
*CAP
1 *1940:B1 3.29273e-05
2 *1939:Y 0.000139399
3 *403:8 0.000172327
4 *403:8 *404:8 0.000493155
5 *1940:A2 *1940:B1 4.78578e-05
6 *230:8 *403:8 7.49083e-05
7 *230:10 *403:8 0.000493174
*RES
1 *1939:Y *403:8 42.575 
2 *403:8 *1940:B1 40.3193 
*END

*D_NET *404 0.00152693
*CONN
*I *1945:B1 I *D sg13g2_o21ai_1
*I *1940:Y O *D sg13g2_o21ai_1
*CAP
1 *1945:B1 0
2 *1940:Y 0.00032337
3 *404:8 0.00032337
4 *404:8 *405:8 0
5 *404:8 *584:73 0
6 *404:8 *626:24 0.000387033
7 *230:8 *404:8 0
8 *403:8 *404:8 0.000493155
*RES
1 *1940:Y *404:8 43.5638 
2 *404:8 *1945:B1 40 
*END

*D_NET *405 0.00178694
*CONN
*I *1945:A1 I *D sg13g2_o21ai_1
*I *1941:Y O *D sg13g2_nor3_1
*CAP
1 *1945:A1 4.85372e-05
2 *1941:Y 0.000471219
3 *405:8 0.000519756
4 *1945:A1 *1945:A2 1.54008e-05
5 *1945:A1 *498:24 8.00842e-05
6 *405:8 *626:24 0.000651942
7 *268:14 *405:8 0
8 *404:8 *405:8 0
*RES
1 *1941:Y *405:8 44.3054 
2 *405:8 *1945:A1 40.5356 
*END

*D_NET *406 0.000380208
*CONN
*I *1944:B I *D sg13g2_nand3_1
*I *1942:Y O *D sg13g2_o21ai_1
*CAP
1 *1944:B 0
2 *1942:Y 6.46929e-05
3 *406:8 6.46929e-05
4 *406:8 *407:8 0.000124859
5 *406:8 *500:83 0.000125963
*RES
1 *1942:Y *406:8 40.8446 
2 *406:8 *1944:B 40 
*END

*D_NET *407 0.00189632
*CONN
*I *1944:C I *D sg13g2_nand3_1
*I *1943:Y O *D sg13g2_nand2_1
*CAP
1 *1944:C 3.34444e-05
2 *1943:Y 0.000413259
3 *407:8 0.000446704
4 *1944:C *500:83 4.77425e-05
5 *407:8 *601:48 0
6 *1936:B *407:8 0
7 *229:20 *407:8 0
8 *230:48 *407:8 0.000705456
9 *369:12 *407:8 0.000124859
10 *400:10 *407:8 0
11 *406:8 *407:8 0.000124859
*RES
1 *1943:Y *407:8 44.5526 
2 *407:8 *1944:C 40.3193 
*END

*D_NET *408 0.00152739
*CONN
*I *1945:A2 I *D sg13g2_o21ai_1
*I *1944:Y O *D sg13g2_nand3_1
*CAP
1 *1945:A2 0.000275064
2 *1944:Y 0.000239612
3 *408:8 0.000514677
4 *1945:A2 *1855:A 0.000112648
5 *1945:A2 *427:8 0.000240914
6 *408:8 *500:83 0.000129077
7 *408:8 *590:26 0
8 *408:8 *612:38 0
9 *1945:A1 *1945:A2 1.54008e-05
10 *229:14 *408:8 0
11 *369:12 *408:8 0
*RES
1 *1944:Y *408:8 42.3278 
2 *408:8 *1945:A2 42.7192 
*END

*D_NET *409 0.0064945
*CONN
*I *1947:B1 I *D sg13g2_a21oi_1
*I *1946:Y O *D sg13g2_nor2_1
*CAP
1 *1947:B1 0
2 *1946:Y 0.000123264
3 *409:22 0.000306632
4 *409:12 0.00179813
5 *409:8 0.00161477
6 *409:8 *1946:A 0.000280964
7 *409:8 *593:69 7.30101e-05
8 *409:8 *624:28 0
9 *409:12 *587:46 0
10 *409:12 *588:68 0.000768288
11 *409:12 *590:41 4.73089e-05
12 *409:12 *590:74 0
13 *409:22 *1910:A3 0
14 *409:22 *1949:A2 0
15 *409:22 *585:20 0
16 *409:22 *592:33 0.000111761
17 *1877:B *409:22 0
18 *133:11 *409:12 0
19 *227:18 *409:12 0.00109746
20 *279:22 *409:12 0
21 *369:30 *409:22 0.000272911
*RES
1 *1946:Y *409:8 41.339 
2 *409:8 *409:12 35.6766 
3 *409:12 *409:22 43.2754 
4 *409:22 *1947:B1 20 
*END

*D_NET *410 0.00023851
*CONN
*I *1949:A2 I *D sg13g2_a221oi_1
*I *1947:Y O *D sg13g2_a21oi_1
*CAP
1 *1949:A2 0.000119255
2 *1947:Y 0.000119255
3 *1949:A2 *1910:A3 0
4 *409:22 *1949:A2 0
*RES
1 *1947:Y *1949:A2 41.1845 
*END

*D_NET *411 0.00192063
*CONN
*I *1949:B1 I *D sg13g2_a221oi_1
*I *1948:Y O *D sg13g2_nor2_1
*CAP
1 *1949:B1 0.000428878
2 *1948:Y 0.000164239
3 *411:8 0.000593117
4 *1949:B1 *1910:A1 0.000192146
5 *1949:B1 *1949:B2 8.00842e-05
6 *1949:B1 *1953:C 0
7 *1949:B1 *412:10 0
8 *1949:B1 *592:33 0
9 *411:8 *426:26 0.000387653
10 *1949:A1 *1949:B1 0
11 *224:52 *411:8 0
12 *371:22 *411:8 7.45103e-05
*RES
1 *1948:Y *411:8 41.8334 
2 *411:8 *1949:B1 43.914 
*END

*D_NET *412 0.00102004
*CONN
*I *1954:A_N I *D sg13g2_nand2b_1
*I *1949:Y O *D sg13g2_a221oi_1
*CAP
1 *1954:A_N 0
2 *1949:Y 0.000316967
3 *412:10 0.000316967
4 *412:10 *585:20 0.00020852
5 *1877:B *412:10 0
6 *1949:B1 *412:10 0
7 *1949:A1 *412:10 0
8 *271:8 *412:10 0.000177583
9 *371:8 *412:10 0
*RES
1 *1949:Y *412:10 42.9561 
2 *412:10 *1954:A_N 40 
*END

*D_NET *413 0.000657655
*CONN
*I *1951:B2 I *D sg13g2_a22oi_1
*I *1950:Y O *D sg13g2_nor2b_1
*CAP
1 *1951:B2 0.000152459
2 *1950:Y 0.000152459
3 *1951:B2 *414:12 0.000241052
4 *1923:S1 *1951:B2 0.000111685
*RES
1 *1950:Y *1951:B2 41.6171 
*END

*D_NET *414 0.0045053
*CONN
*I *1953:B I *D sg13g2_nand3_1
*I *1951:Y O *D sg13g2_a22oi_1
*CAP
1 *1953:B 0.000687291
2 *1951:Y 0.000485749
3 *414:12 0.00117304
4 *1953:B *562:50 0
5 *414:12 *589:68 0
6 *414:12 *589:74 0
7 *414:12 *600:26 0
8 *1923:S1 *414:12 0
9 *1951:B2 *414:12 0.000241052
10 *237:75 *1953:B 0.000815528
11 *237:90 *1953:B 0.000797556
12 *237:90 *414:12 0.000305088
13 *325:22 *414:12 0
*RES
1 *1951:Y *414:12 44.8822 
2 *414:12 *1953:B 47.7662 
*END

*D_NET *415 0.00313896
*CONN
*I *1953:C I *D sg13g2_nand3_1
*I *1952:Y O *D sg13g2_o21ai_1
*CAP
1 *1953:C 0.000724094
2 *1952:Y 5.48641e-05
3 *415:8 0.000778958
4 *1953:C *1954:B 0
5 *1953:C *571:70 0
6 *1953:C *576:32 0.000144542
7 *1953:C *585:20 0
8 *1953:C *590:55 0.000273394
9 *415:8 *512:12 0.000231161
10 *415:8 *591:42 0.000231161
11 *1877:B *1953:C 0
12 *1910:S0 *1953:C 4.77425e-05
13 *1948:B *1953:C 4.77702e-05
14 *1949:B1 *1953:C 0
15 *224:52 *1953:C 5.82552e-05
16 *235:16 *1953:C 0.00020871
17 *237:23 *1953:C 0
18 *371:12 *1953:C 0.000338307
*RES
1 *1952:Y *415:8 41.0918 
2 *415:8 *1953:C 47.725 
*END

*D_NET *416 0.000640618
*CONN
*I *1954:B I *D sg13g2_nand2b_1
*I *1953:Y O *D sg13g2_nand3_1
*CAP
1 *1954:B 0.000224426
2 *1953:Y 0.000224426
3 *1954:B *2028:GATE 0
4 *1954:B *571:70 4.75151e-05
5 *1953:C *1954:B 0
6 *235:12 *1954:B 0.00014425
7 *237:16 *1954:B 0
8 *371:12 *1954:B 0
*RES
1 *1953:Y *1954:B 42.2145 
*END

*D_NET *417 0.00196433
*CONN
*I *2168:A I *D sg13g2_buf_8
*I *2166:X O *D sg13g2_buf_8
*CAP
1 *2168:A 0
2 *2166:X 0.000627256
3 *417:10 0.000627256
4 *417:10 *2143:A 0
5 *417:10 *419:8 0
6 *417:10 *453:8 0.000112456
7 *417:10 *483:38 0
8 *417:10 *491:28 0.000597361
*RES
1 *2166:X *417:10 46.5714 
2 *417:10 *2168:A 40 
*END

*D_NET *418 0.00337419
*CONN
*I *2170:A I *D sg13g2_buf_8
*I *2169:A I *D sg13g2_buf_8
*I *2167:X O *D sg13g2_buf_8
*CAP
1 *2170:A 0.000553333
2 *2169:A 0.00102588
3 *2167:X 2.81507e-05
4 *418:6 0.00160737
5 *2169:A *432:14 7.93692e-05
6 *2169:A *522:24 0
7 *2169:A *534:24 0
8 *2170:A *421:10 0
9 *2170:A *491:28 0
10 *2170:A *522:24 0
11 *2170:A *534:16 0
12 *2146:A *2169:A 8.00842e-05
13 *2166:A *2169:A 0
14 *2166:A *2170:A 0
15 *211:10 *2169:A 0
16 *212:8 *2169:A 0
*RES
1 *2167:X *418:6 20.3502 
2 *418:6 *2169:A 30.0528 
3 *418:6 *2170:A 24.8028 
*END

*D_NET *419 0.00141408
*CONN
*I *2143:A I *D sg13g2_buf_1
*I *2168:X O *D sg13g2_buf_8
*CAP
1 *2143:A 0.000369159
2 *2168:X 0.000265272
3 *419:8 0.000634431
4 *2143:A *453:8 0.00014522
5 *419:8 *483:28 0
6 *419:8 *522:16 0
7 *417:10 *2143:A 0
8 *417:10 *419:8 0
*RES
1 *2168:X *419:8 42.8222 
2 *419:8 *2143:A 43.5638 
*END

*D_NET *420 0.00156566
*CONN
*I *2061:CLK I *D sg13g2_dfrbpq_2
*I *2169:X O *D sg13g2_buf_8
*CAP
1 *2061:CLK 0.000646891
2 *2169:X 0.000646891
3 *2061:CLK *1933:A0 0.00014391
4 *2061:CLK *453:8 0
5 *2061:CLK *579:76 0
6 *341:10 *2061:CLK 8.02269e-05
7 *347:10 *2061:CLK 4.77425e-05
*RES
1 *2169:X *2061:CLK 46.077 
*END

*D_NET *421 0.00342058
*CONN
*I *2063:CLK I *D sg13g2_dfrbpq_2
*I *2170:X O *D sg13g2_buf_8
*CAP
1 *2063:CLK 0.000280983
2 *2170:X 0.00076855
3 *421:10 0.00104953
4 *2063:CLK *2063:RESET_B 0
5 *2063:CLK *453:8 0.000467929
6 *2063:CLK *579:76 0
7 *421:10 *460:54 0.000708904
8 *421:10 *490:10 0
9 *421:10 *534:16 0
10 *2166:A *421:10 0.000144684
11 *2170:A *421:10 0
*RES
1 *2170:X *421:10 47.5293 
2 *421:10 *2063:CLK 43.1312 
*END

*D_NET *422 0.0360642
*CONN
*I *1935:A1 I *D sg13g2_mux2_1
*I *1895:A3 I *D sg13g2_mux4_1
*I *1899:A3 I *D sg13g2_mux4_1
*I *2061:D I *D sg13g2_dfrbpq_2
*I *1905:A3 I *D sg13g2_mux4_1
*I *1915:A3 I *D sg13g2_mux4_1
*I *1897:A3 I *D sg13g2_mux4_1
*I *2190:X O *D sg13g2_buf_2
*CAP
1 *1935:A1 0.000384862
2 *1895:A3 4.24304e-05
3 *1899:A3 0
4 *2061:D 0.000374929
5 *1905:A3 0.000201187
6 *1915:A3 0
7 *1897:A3 0
8 *2190:X 0.000557574
9 *422:96 0.000824895
10 *422:87 0.00121277
11 *422:79 0.00245352
12 *422:71 0.00164813
13 *422:69 0.00104181
14 *422:65 0.00137269
15 *422:57 0.00165025
16 *422:39 0.00108431
17 *422:31 0.00109541
18 *422:25 0.00202234
19 *422:12 0.0024872
20 *422:10 0.00185187
21 *1895:A3 *425:67 8.02267e-05
22 *1895:A3 *585:90 8.02267e-05
23 *1905:A3 *1905:A0 0
24 *1905:A3 *1905:A2 0
25 *1905:A3 *463:8 0.000181279
26 *1905:A3 *544:20 0.000242213
27 *1935:A1 *2046:D 0
28 *1935:A1 *459:8 0
29 *1935:A1 *556:55 0.000179957
30 *1935:A1 *559:36 0.0001773
31 *1935:A1 *579:12 0
32 *1935:A1 *583:32 0
33 *1935:A1 *612:99 0
34 *2061:D *2061:RESET_B 0.000112568
35 *2061:D *2063:D 0
36 *2061:D *455:24 0
37 *2061:D *463:8 0.00084452
38 *422:10 *426:26 0
39 *422:10 *427:14 0.000307269
40 *422:12 *427:14 0
41 *422:12 *436:12 0.0018366
42 *422:25 *436:12 0.001456
43 *422:25 *457:10 0
44 *422:25 *587:16 0
45 *422:25 *612:42 0
46 *422:25 *612:48 0
47 *422:25 *623:18 0
48 *422:31 *596:16 0
49 *422:31 *617:16 0
50 *422:39 *601:86 0
51 *422:39 *623:34 0.000304948
52 *422:57 *425:26 0
53 *422:57 *500:50 0.000482293
54 *422:57 *500:58 0.00061441
55 *422:57 *551:67 0.000633545
56 *422:57 *598:22 0
57 *422:65 *2094:A 0
58 *422:65 *500:50 0.00104922
59 *422:65 *551:67 7.98582e-05
60 *422:65 *585:90 0
61 *422:65 *605:36 4.7885e-05
62 *422:69 *471:10 0.00102943
63 *422:69 *556:55 0
64 *422:79 *434:31 0
65 *422:79 *434:35 0
66 *422:79 *464:8 0
67 *422:79 *503:8 0
68 *422:79 *567:55 0
69 *422:79 *582:42 0
70 *422:79 *582:51 0.00153089
71 *422:79 *613:28 0
72 *422:87 *464:8 0.000112226
73 *422:87 *474:18 0.000126325
74 *422:87 *486:30 0
75 *422:87 *503:16 0
76 *422:87 *514:12 0
77 *422:87 *533:108 0.000112501
78 *422:87 *580:62 0
79 *422:96 *486:30 0
80 *422:96 *580:62 0.000242071
81 *422:96 *580:90 0.000112426
82 A_I_top *422:10 0
83 *2190:A *422:10 0
84 *131:21 *422:10 0
85 *135:13 *422:31 0.00139006
86 *230:38 *422:31 0
87 *270:8 *422:12 0.00124942
88 *270:8 *422:25 0.000266733
89 *297:12 *422:87 0.000240684
90 *297:12 *422:96 4.77699e-05
91 *300:14 *422:69 0.000507171
92 *323:10 *422:25 0
93 *358:12 *422:57 7.99485e-05
94 *384:14 *422:39 0
*RES
1 *2190:X *422:10 46.077 
2 *422:10 *422:12 16.9126 
3 *422:12 *1897:A3 40 
4 *422:12 *422:25 32.2879 
5 *422:25 *422:31 49.1876 
6 *422:31 *422:39 42.3999 
7 *422:39 *422:57 48.7293 
8 *422:57 *422:65 48.6726 
9 *422:65 *422:69 26.8083 
10 *422:69 *422:71 0.8446 
11 *422:71 *422:79 34.523 
12 *422:79 *422:87 48.4872 
13 *422:87 *1915:A3 20 
14 *422:87 *422:96 22.4823 
15 *422:96 *1905:A3 42.4617 
16 *422:96 *2061:D 44.8101 
17 *422:79 *1899:A3 20 
18 *422:71 *1895:A3 40.5356 
19 *422:69 *1935:A1 44.0067 
*END

*D_NET *423 0.0187129
*CONN
*I *2013:D I *D sg13g2_dlhq_1
*I *1981:D I *D sg13g2_dlhq_1
*I *2045:D I *D sg13g2_dlhq_1
*I *2107:A I *D sg13g2_buf_1
*I *2191:X O *D sg13g2_buf_1
*CAP
1 *2013:D 0
2 *1981:D 0
3 *2045:D 0.000700105
4 *2107:A 0
5 *2191:X 4.66777e-05
6 *423:63 0.000582485
7 *423:30 0.000199251
8 *423:24 0.00108611
9 *423:20 0.000238369
10 *423:18 0.000634101
11 *423:16 0.00124733
12 *423:12 0.00215158
13 *423:8 0.000950922
14 *2045:D *2014:GATE 0.000126047
15 *2045:D *448:20 0.000498498
16 *2045:D *500:101 7.30101e-05
17 *2045:D *562:22 0.00157408
18 *2045:D *583:47 1.55887e-05
19 *2045:D *602:71 0
20 *423:8 *478:16 8.02269e-05
21 *423:8 *546:16 0
22 *423:12 *445:16 0.000901252
23 *423:12 *489:24 0
24 *423:12 *513:10 0
25 *423:16 *1993:D 0
26 *423:16 *2014:GATE 0.000390334
27 *423:16 *2025:GATE 0
28 *423:16 *533:68 0.000126302
29 *423:16 *546:29 0
30 *423:16 *547:26 0
31 *423:16 *567:36 0.00224865
32 *423:16 *573:22 0
33 *423:16 *575:37 0.00023135
34 *423:16 *597:8 0
35 *423:20 *590:102 8.00842e-05
36 *423:24 *2014:GATE 0.000920041
37 *423:24 *562:22 0.000922437
38 *423:30 *544:43 0
39 *423:63 *1899:A1 4.77425e-05
40 *423:63 *2023:GATE 1.54008e-05
41 *423:63 *494:10 0.000974567
42 *423:63 *555:49 0.000499043
43 *423:63 *573:79 0.000921432
44 *423:63 *573:96 5.27212e-05
45 *423:63 *590:102 0.000177109
*RES
1 *2191:X *423:8 40.5356 
2 *423:8 *423:12 31.3506 
3 *423:12 *423:16 34.4406 
4 *423:16 *423:18 20 
5 *423:18 *423:20 0.5356 
6 *423:20 *423:24 24.3054 
7 *423:24 *423:30 42.0497 
8 *423:30 *2107:A 40 
9 *423:24 *2045:D 48.5078 
10 *423:20 *1981:D 20 
11 *423:18 *423:63 48.5696 
12 *423:63 *2013:D 20 
*END

*D_NET *424 0.0164518
*CONN
*I *1892:A1 I *D sg13g2_mux4_1
*I *1916:A2 I *D sg13g2_mux4_1
*I *1924:A2 I *D sg13g2_mux4_1
*I *2270:X O *D sg13g2_buf_1
*CAP
1 *1892:A1 0
2 *1916:A2 0
3 *1924:A2 0.000304697
4 *2270:X 7.24089e-05
5 *424:54 0.000694833
6 *424:33 0.00144249
7 *424:16 0.00218028
8 *424:14 0.00198997
9 *424:8 0.000934452
10 *1924:A2 *534:51 0.000175693
11 *1924:A2 *582:18 0
12 *1924:A2 *612:20 0.000176399
13 *1924:A2 *615:22 4.77425e-05
14 *424:8 *589:32 0.000396405
15 *424:8 *617:10 0.000396485
16 *424:14 *435:16 0.000856331
17 *424:14 *504:12 0
18 *424:14 *560:10 0.00143082
19 *424:14 *595:12 0
20 *424:16 *557:38 0.000235141
21 *424:16 *582:18 0
22 *424:16 *605:20 0
23 *424:16 *612:20 0.00314667
24 *424:33 *1924:A3 0.00014499
25 *424:33 *534:53 7.98567e-05
26 *424:33 *584:96 0
27 *424:33 *615:14 0.000208035
28 *424:33 *615:29 0.000921244
29 *424:54 *1888:A1 0
30 *424:54 *2037:GATE 0.000112418
31 *424:54 *557:24 0.000291123
32 *424:54 *557:30 8.02267e-05
33 *424:54 *584:96 4.77699e-05
34 *424:54 *602:60 0
35 *424:54 *613:20 1.54008e-05
36 *243:8 *424:54 4.77347e-05
37 *243:18 *424:54 2.21226e-05
38 *326:14 *1924:A2 0
*RES
1 *2270:X *424:8 41.8334 
2 *424:8 *424:14 49.6202 
3 *424:14 *424:16 14.6878 
4 *424:16 *1924:A2 42.8119 
5 *424:16 *424:33 27.4572 
6 *424:33 *1916:A2 20 
7 *424:33 *424:54 46.9525 
8 *424:54 *1892:A1 20 
*END

*D_NET *425 0.0221923
*CONN
*I *1893:A1 I *D sg13g2_mux4_1
*I *1917:A2 I *D sg13g2_mux4_1
*I *1925:A2 I *D sg13g2_mux4_1
*I *2271:X O *D sg13g2_buf_1
*CAP
1 *1893:A1 0
2 *1917:A2 0
3 *1925:A2 3.98868e-05
4 *2271:X 0.000151961
5 *425:86 0.000531225
6 *425:71 0.00123365
7 *425:67 0.00291633
8 *425:42 0.00317401
9 *425:26 0.0019159
10 *425:14 0.00368371
11 *425:10 0.00283999
12 *1925:A2 *585:90 8.00842e-05
13 *1925:A2 *623:34 1.54008e-05
14 *425:14 *476:12 0
15 *425:14 *512:16 0
16 *425:14 *627:10 0
17 *425:26 *2056:GATE 4.77425e-05
18 *425:26 *498:24 0
19 *425:26 *500:58 7.51285e-05
20 *425:26 *500:66 0.000305017
21 *425:26 *551:67 0.00020815
22 *425:26 *576:10 0
23 *425:26 *612:30 0
24 *425:42 *1908:A3 0.000175826
25 *425:42 *582:34 1.51e-05
26 *425:42 *601:86 0
27 *425:42 *623:34 0.000497757
28 *425:67 *1982:GATE 0
29 *425:67 *2032:D 0.0001122
30 *425:67 *434:31 0
31 *425:67 *447:8 4.77702e-05
32 *425:67 *582:34 0
33 *425:67 *585:90 0.000418467
34 *425:67 *602:71 0
35 *425:67 *611:16 0.000280967
36 *425:67 *612:107 0.00053085
37 *425:71 *1889:A1 1.54008e-05
38 *425:71 *2036:D 0
39 *425:71 *459:18 0.000563581
40 *425:71 *468:20 0.000240404
41 *425:71 *579:70 0.00030499
42 *425:71 *612:107 0
43 *425:86 *1889:A1 0.000224976
44 *425:86 *1893:A2 0.0001122
45 *425:86 *468:20 0.000112541
46 *425:86 *469:14 0
47 *425:86 *479:14 0
48 *425:86 *567:63 0
49 *425:86 *567:65 0
50 *425:86 *612:107 0.000209339
51 *1895:A3 *425:67 8.02267e-05
52 *1917:S0 *425:86 0
53 *1944:A *425:14 0.000182121
54 *1944:A *425:26 0
55 *2160:A *425:67 8.0342e-05
56 *2268:A *425:14 0
57 *2269:A *425:10 0.00012668
58 *2270:A *425:10 0
59 *2270:A *425:14 0
60 *228:8 *425:14 0.000265159
61 *268:14 *425:14 0
62 *276:8 *425:26 0.000232421
63 *276:18 *425:42 0.000144768
64 *286:10 *425:67 0
65 *422:57 *425:26 0
*RES
1 *2271:X *425:10 41.6583 
2 *425:10 *425:14 44.5758 
3 *425:14 *425:26 48.9684 
4 *425:26 *425:42 9.1979 
5 *425:42 *1925:A2 20.5356 
6 *425:42 *425:67 40.7545 
7 *425:67 *425:71 26.8083 
8 *425:71 *1917:A2 20 
9 *425:71 *425:86 44.944 
10 *425:86 *1893:A1 20 
*END

*D_NET *426 0.00891545
*CONN
*I *2362:A I *D sg13g2_buf_1
*I *1887:Y O *D sg13g2_o21ai_1
*CAP
1 *2362:A 0
2 *1887:Y 5.24392e-05
3 *426:26 0.00265407
4 *426:14 0.00291755
5 *426:8 0.000315912
6 *426:8 *477:14 0.000182525
7 *426:8 *512:12 0.000234311
8 *426:14 *477:10 0.00037022
9 *426:14 *584:38 0.000273624
10 *426:26 *1911:A2 0
11 *426:26 *2002:D 0
12 *426:26 *2058:GATE 0
13 *426:26 *2364:A 0
14 *426:26 *427:14 0.000372182
15 *426:26 *429:12 0
16 *426:26 *547:52 0
17 *426:26 *577:18 0
18 B_I_top *426:26 7.94462e-05
19 *1877:B *426:26 0.000444228
20 *1887:A1 *426:14 1.54008e-05
21 *2201:A *426:26 0.00027467
22 *131:21 *426:26 0
23 *227:10 *426:26 0
24 *234:12 *426:14 0
25 *237:16 *426:26 0
26 *271:8 *426:26 0
27 *369:30 *426:26 0.000341216
28 *371:22 *426:26 0
29 *411:8 *426:26 0.000387653
30 *422:10 *426:26 0
*RES
1 *1887:Y *426:8 41.0918 
2 *426:8 *426:14 42.9149 
3 *426:14 *426:26 48.1396 
4 *426:26 *2362:A 20 
*END

*D_NET *427 0.0122927
*CONN
*I *2363:A I *D sg13g2_buf_1
*I *1945:Y O *D sg13g2_o21ai_1
*CAP
1 *2363:A 0
2 *1945:Y 0.000682259
3 *427:14 0.00247296
4 *427:8 0.00315522
5 *427:8 *435:8 0.00104694
6 *427:8 *623:18 0
7 *427:8 *623:28 0
8 *427:14 *436:12 0.00401499
9 *427:14 *506:10 0
10 *427:14 *533:8 0
11 *1931:S1 *427:8 0
12 *1945:A2 *427:8 0.000240914
13 *131:21 *427:14 0
14 *137:13 *427:14 0
15 *422:10 *427:14 0.000307269
16 *422:12 *427:14 0
17 *426:26 *427:14 0.000372182
*RES
1 *1945:Y *427:8 47.0246 
2 *427:8 *427:14 49.7773 
3 *427:14 *2363:A 20 
*END

*D_NET *428 0.0104231
*CONN
*I *2364:A I *D sg13g2_buf_1
*I *1872:Y O *D sg13g2_o21ai_1
*CAP
1 *2364:A 0.00114421
2 *1872:Y 9.42224e-05
3 *428:16 0.00336894
4 *428:8 0.00231896
5 *2364:A *2001:D 0
6 *2364:A *2002:D 0
7 *2364:A *467:10 0
8 *2364:A *548:14 0.000404341
9 *2364:A *552:14 0
10 *2364:A *553:10 0
11 *428:16 *1896:A2 0
12 *428:16 *2030:D 0
13 *428:16 *467:10 0
14 *428:16 *467:19 0
15 *428:16 *533:28 0
16 *428:16 *548:14 2.20736e-05
17 *428:16 *553:30 0.000145247
18 *428:16 *587:63 0
19 *428:16 *596:28 0
20 *428:16 *599:42 0.00107242
21 *428:16 *600:58 0.00128542
22 *428:16 *628:47 0
23 *1872:B1 *428:8 1.54008e-05
24 *1886:A_N *428:16 0
25 *2195:A *2364:A 0.000176817
26 *2211:A *428:16 0
27 *2212:A *2364:A 0
28 *213:14 *428:16 0
29 *214:10 *428:16 0
30 *223:20 *428:16 0
31 *224:22 *428:16 0.000230474
32 *226:14 *428:16 0
33 *226:25 *428:16 0
34 *231:89 *428:16 0
35 *232:44 *428:8 0.00014454
36 *426:26 *2364:A 0
*RES
1 *1872:Y *428:8 40.9682 
2 *428:8 *428:16 43.3604 
3 *428:16 *2364:A 31.4845 
*END

*D_NET *429 0.00294884
*CONN
*I *2365:A I *D sg13g2_buf_1
*I *1954:Y O *D sg13g2_nand2b_1
*CAP
1 *2365:A 0
2 *1954:Y 6.13589e-05
3 *429:12 0.000972077
4 *429:8 0.00103344
5 *429:12 *2060:D 0.000498866
6 *429:12 *550:46 0.000158253
7 *429:12 *571:48 0
8 *429:12 *571:70 0
9 *1952:B1 *429:8 0.000112426
10 *235:12 *429:8 0.000112426
11 *426:26 *429:12 0
*RES
1 *1954:Y *429:8 40.7519 
2 *429:8 *429:12 30.4854 
3 *429:12 *2365:A 20 
*END

*D_NET *430 0.0111733
*CONN
*I *2366:A I *D sg13g2_buf_1
*I *2144:X O *D sg13g2_buf_1
*CAP
1 *2366:A 9.67234e-05
2 *2144:X 0
3 *430:26 0.00154893
4 *430:22 0.00249529
5 *430:14 0.00120722
6 *430:6 0.000164138
7 *2366:A *606:24 0
8 *2366:A *614:12 0.000144542
9 *430:14 *517:10 0.00012816
10 *430:22 *477:40 0.000176999
11 *430:22 *516:8 0.000241868
12 *430:22 *517:10 0.000499273
13 *430:22 *602:37 0.000436343
14 *430:22 *602:60 0.000273168
15 *430:26 *515:18 0.00342324
16 *430:26 *609:16 0
17 E1BEG[0] *2366:A 0
18 *1892:A3 *430:22 0.00014454
19 *121:13 *430:14 0
20 *159:13 *430:14 0
21 *212:72 *430:22 0.000192861
*RES
1 *2144:X *430:6 40 
2 *430:6 *430:14 41.9982 
3 *430:14 *430:22 31.1549 
4 *430:22 *430:26 35.9238 
5 *430:26 *2366:A 40.9682 
*END

*D_NET *431 0.0115907
*CONN
*I *2367:A I *D sg13g2_buf_1
*I *2145:X O *D sg13g2_buf_1
*CAP
1 *2367:A 0.000136903
2 *2145:X 0.00111118
3 *431:18 0.00177357
4 *431:12 0.00244084
5 *431:6 0.00191535
6 *2367:A *606:24 0.000176714
7 *2367:A *611:12 0
8 *431:6 *2188:A 0.000274527
9 *431:6 *432:14 0
10 *431:6 *516:8 0
11 *431:6 *560:22 0
12 *431:6 *562:10 0
13 *431:6 *602:60 7.92265e-05
14 *431:6 *602:71 0
15 *431:12 *2038:GATE 0.00039332
16 *431:12 *443:34 0
17 *431:12 *502:10 0
18 *431:18 *432:26 0
19 *431:18 *436:20 0
20 *431:18 *442:26 0
21 *431:18 *457:12 0
22 *431:18 *606:30 0.00219915
23 E1BEG[1] *2367:A 0
24 E1BEG[2] *431:18 0.000126096
25 *125:5 *431:18 0
26 *212:54 *431:6 0.000532776
27 *212:83 *431:12 0.000287672
28 *222:18 *431:6 0.000143351
*RES
1 *2145:X *431:6 30.2691 
2 *431:6 *431:12 47.2718 
3 *431:12 *431:18 37.9426 
4 *431:18 *2367:A 41.4008 
*END

*D_NET *432 0.0132938
*CONN
*I *2368:A I *D sg13g2_buf_1
*I *2146:X O *D sg13g2_buf_1
*CAP
1 *2368:A 0
2 *2146:X 0.002624
3 *432:26 0.00185354
4 *432:14 0.00447754
5 *432:14 *1888:A1 0
6 *432:14 *1892:A0 0
7 *432:14 *1957:D 0
8 *432:14 *2038:D 0.000613469
9 *432:14 *534:24 0.00156476
10 *432:14 *534:30 0
11 *432:14 *534:36 0
12 *432:14 *558:16 0.000209499
13 *432:14 *560:22 0
14 *432:14 *562:10 0
15 *432:14 *581:34 0
16 *432:14 *582:68 0.000176367
17 *432:26 *436:20 0
18 *432:26 *441:18 0
19 *432:26 *581:10 0
20 *432:26 *606:30 0.00150285
21 *432:26 *607:20 0
22 *1888:S0 *432:14 8.01995e-05
23 *1934:A1 *432:14 0
24 *2169:A *432:14 7.93692e-05
25 *212:8 *432:14 0.000112242
26 *327:12 *432:26 0
27 *431:6 *432:14 0
28 *431:18 *432:26 0
*RES
1 *2146:X *432:14 45.0496 
2 *432:14 *432:26 40.1365 
3 *432:26 *2368:A 40 
*END

*D_NET *433 0.00734192
*CONN
*I *2369:A I *D sg13g2_buf_1
*I *2147:X O *D sg13g2_buf_1
*CAP
1 *2369:A 0
2 *2147:X 0.000527957
3 *433:22 0.00243113
4 *433:10 0.00295909
5 *433:10 *458:20 0
6 *433:10 *462:12 0.000757984
7 *433:10 *492:14 0
8 *433:22 *2371:A 8.00842e-05
9 *433:22 *439:12 0.00020871
10 *433:22 *441:18 0.000274555
11 *433:22 *442:26 0
12 *433:22 *443:34 2.21839e-05
13 *433:22 *444:28 0
14 *433:22 *606:24 0
15 *433:22 *611:12 0
16 *433:22 *613:10 0
17 E2BEG[5] *433:22 8.02267e-05
18 E2BEG[6] *433:22 0
19 E2BEGb[1] *433:22 0
*RES
1 *2147:X *433:10 45.3972 
2 *433:10 *433:22 41.8051 
3 *433:22 *2369:A 20 
*END

*D_NET *434 0.0143306
*CONN
*I *2014:D I *D sg13g2_dlhq_1
*I *2046:D I *D sg13g2_dlhq_1
*I *2108:A I *D sg13g2_buf_1
*I *1982:D I *D sg13g2_dlhq_1
*I *2192:X O *D sg13g2_buf_1
*CAP
1 *2014:D 0.000168853
2 *2046:D 0.000418024
3 *2108:A 0
4 *1982:D 7.62528e-05
5 *2192:X 0.000225158
6 *434:35 0.000877378
7 *434:31 0.00097641
8 *434:16 0.00270673
9 *434:12 0.00354068
10 *434:8 0.00148356
11 *1982:D *1899:A1 0.000112458
12 *1982:D *613:28 0
13 *2014:D *1982:GATE 0.00030506
14 *2014:D *503:8 0.000289747
15 *2046:D *2187:A 0
16 *2046:D *449:20 0
17 *2046:D *522:34 4.77699e-05
18 *2046:D *556:55 0
19 *2046:D *561:38 4.77699e-05
20 *434:8 *478:16 0
21 *434:8 *500:24 0
22 *434:12 *500:12 0.00014514
23 *434:12 *511:12 0
24 *434:12 *546:16 0
25 *434:12 *564:12 0.000891186
26 *434:12 *608:16 0.00102099
27 *434:16 *1976:D 0
28 *434:16 *2041:D 0
29 *434:16 *449:20 0
30 *434:16 *478:34 0
31 *434:16 *505:14 0
32 *434:16 *566:33 0
33 *434:16 *575:20 0
34 *434:16 *586:12 0
35 *434:16 *586:23 0
36 *434:16 *609:57 0
37 *434:31 *1982:GATE 4.77699e-05
38 *434:31 *449:20 0
39 *434:31 *503:8 0.000144915
40 *434:31 *613:28 0
41 *434:35 *449:20 0
42 *434:35 *612:99 0
43 *1935:A1 *2046:D 0
44 *2192:A *434:8 0.00049708
45 *2234:A *434:16 0
46 *2245:A *434:16 0
47 *217:12 *434:16 0
48 *218:10 *434:16 0
49 *267:8 *434:16 0
50 *280:8 *434:16 0.000181192
51 *286:10 *434:31 0
52 *319:8 *2046:D 0.00012651
53 *422:79 *434:31 0
54 *422:79 *434:35 0
55 *425:67 *434:31 0
*RES
1 *2192:X *434:8 42.8222 
2 *434:8 *434:12 33.9462 
3 *434:12 *434:16 41.3622 
4 *434:16 *1982:D 40.7519 
5 *434:16 *434:31 23.7904 
6 *434:31 *434:35 23.3166 
7 *434:35 *2108:A 40 
8 *434:35 *2046:D 43.8831 
9 *434:31 *2014:D 22.0497 
*END

*D_NET *435 0.0193816
*CONN
*I *2370:A I *D sg13g2_buf_1
*I *2148:X O *D sg13g2_buf_1
*CAP
1 *2370:A 0
2 *2148:X 0.00195097
3 *435:22 0.000126639
4 *435:16 0.00159569
5 *435:12 0.00394439
6 *435:8 0.00442632
7 *435:8 *561:26 0.000854666
8 *435:8 *583:32 0.000241193
9 *435:8 *584:73 0
10 *435:12 *472:12 0
11 *435:12 *570:14 0
12 *435:12 *594:20 0
13 *435:12 *598:18 0
14 *435:16 *504:12 0.00227604
15 *435:16 *560:10 0
16 *435:22 *441:18 0.000660813
17 *435:22 *607:20 0.000660813
18 *2148:A *435:8 0.000306639
19 *229:14 *435:8 0.000434147
20 *424:14 *435:16 0.000856331
21 *427:8 *435:8 0.00104694
*RES
1 *2148:X *435:8 38.8387 
2 *435:8 *435:12 39.6318 
3 *435:12 *435:16 35.244 
4 *435:16 *435:22 43.0694 
5 *435:22 *2370:A 20 
*END

*D_NET *436 0.0309408
*CONN
*I *2371:A I *D sg13g2_buf_1
*I *2149:X O *D sg13g2_buf_1
*CAP
1 *2371:A 4.59984e-05
2 *2149:X 0.000339336
3 *436:20 0.000880225
4 *436:16 0.00358494
5 *436:14 0.00275071
6 *436:12 0.0022051
7 *436:10 0.00254443
8 *2371:A *441:18 4.77702e-05
9 *436:12 *457:10 0
10 *436:16 *437:12 0
11 *436:16 *476:14 0.0032118
12 *436:20 *441:18 0.00240087
13 E2BEG[0] *436:20 0.000125014
14 *125:5 *436:16 0.00459897
15 *137:13 *436:12 0
16 *323:10 *436:12 0.000288502
17 *324:14 *436:10 0.000529523
18 *422:12 *436:12 0.0018366
19 *422:25 *436:12 0.001456
20 *427:14 *436:12 0.00401499
21 *431:18 *436:20 0
22 *432:26 *436:20 0
23 *433:22 *2371:A 8.00842e-05
*RES
1 *2149:X *436:10 43.914 
2 *436:10 *436:12 31.2502 
3 *436:12 *436:14 20 
4 *436:14 *436:16 30.8176 
5 *436:16 *436:20 31.227 
6 *436:20 *2371:A 40.5356 
*END

*D_NET *437 0.019242
*CONN
*I *2372:A I *D sg13g2_buf_1
*I *2150:X O *D sg13g2_buf_1
*CAP
1 *2372:A 0
2 *2150:X 0
3 *437:16 0.00130516
4 *437:12 0.00506255
5 *437:10 0.00534083
6 *437:6 0.00158344
7 *437:10 *440:10 0
8 *437:10 *601:10 0
9 *437:12 *440:12 0
10 *437:12 *458:20 0.00221007
11 *437:12 *476:14 0.00353534
12 *437:16 *440:16 0
13 *437:16 *501:10 0
14 *437:16 *510:14 7.56299e-05
15 E2BEG[3] *437:16 0.000128956
16 *125:5 *437:12 0
17 *436:16 *437:12 0
*RES
1 *2150:X *437:6 40 
2 *437:6 *437:10 36.9126 
3 *437:10 *437:12 38.3881 
4 *437:12 *437:16 30.7326 
5 *437:16 *2372:A 40 
*END

*D_NET *438 0.0137731
*CONN
*I *2373:A I *D sg13g2_buf_1
*I *2151:X O *D sg13g2_buf_1
*CAP
1 *2373:A 0
2 *2151:X 0
3 *438:18 0.000140346
4 *438:12 0.00278093
5 *438:10 0.00320296
6 *438:6 0.000562378
7 *438:10 *590:26 0.00288648
8 *438:10 *629:14 0.00288804
9 *438:12 *604:12 0
10 *438:18 *507:8 0.000656113
11 *438:18 *613:12 0.000655809
*RES
1 *2151:X *438:6 40 
2 *438:6 *438:10 33.4518 
3 *438:10 *438:12 30.8176 
4 *438:12 *438:18 43.0694 
5 *438:18 *2373:A 20 
*END

*D_NET *439 0.00509886
*CONN
*I *2374:A I *D sg13g2_buf_1
*I *2152:X O *D sg13g2_buf_1
*CAP
1 *2374:A 0
2 *2152:X 0
3 *439:12 0.00106061
4 *439:6 0.00106061
5 *439:12 *441:18 0.00020871
6 *439:12 *510:14 0
7 *439:12 *607:20 0.00256021
8 E2BEG[2] *439:12 0
9 *433:22 *439:12 0.00020871
*RES
1 *2152:X *439:6 40 
2 *439:6 *439:12 33.6166 
3 *439:12 *2374:A 20 
*END

*D_NET *440 0.0176494
*CONN
*I *2375:A I *D sg13g2_buf_1
*I *2153:X O *D sg13g2_buf_1
*CAP
1 *2375:A 9.34775e-05
2 *2153:X 0
3 *440:16 0.00140986
4 *440:12 0.00547354
5 *440:10 0.00680217
6 *440:6 0.00264501
7 *2375:A *442:26 0.000144915
8 *2375:A *613:10 0
9 *440:10 *601:10 0
10 *440:12 *441:8 0.00108039
11 *440:12 *451:12 0
12 *440:12 *458:20 0
13 *440:16 *501:10 0
14 *440:16 *507:8 0
15 *440:16 *613:12 0
16 E2BEG[3] *2375:A 0
17 E2BEG[3] *440:16 0
18 *122:13 *440:12 0
19 *122:25 *440:12 0
20 *437:10 *440:10 0
21 *437:12 *440:12 0
22 *437:16 *440:16 0
*RES
1 *2153:X *440:6 40 
2 *440:6 *440:10 45.8118 
3 *440:10 *440:12 38.8207 
4 *440:12 *440:16 31.4742 
5 *440:16 *2375:A 40.9682 
*END

*D_NET *441 0.00995058
*CONN
*I *2376:A I *D sg13g2_buf_1
*I *2154:X O *D sg13g2_buf_1
*CAP
1 *2376:A 0
2 *2154:X 0.000593355
3 *441:18 0.00150526
4 *441:8 0.00209862
5 *441:8 *458:20 0.00108024
6 *441:18 *607:20 0
7 *441:18 *611:12 0
8 E2BEG[0] *441:18 0
9 E2BEG[2] *441:18 0
10 E2BEG[4] *441:18 0
11 *2371:A *441:18 4.77702e-05
12 *432:26 *441:18 0
13 *433:22 *441:18 0.000274555
14 *435:22 *441:18 0.000660813
15 *436:20 *441:18 0.00240087
16 *439:12 *441:18 0.00020871
17 *440:12 *441:8 0.00108039
*RES
1 *2154:X *441:8 47.2409 
2 *441:8 *441:18 37.1289 
3 *441:18 *2376:A 20 
*END

*D_NET *442 0.0111745
*CONN
*I *2377:A I *D sg13g2_buf_1
*I *2155:X O *D sg13g2_buf_1
*CAP
1 *2377:A 0
2 *2155:X 0
3 *442:26 0.00095696
4 *442:16 0.00291959
5 *442:6 0.00196263
6 *442:16 *480:16 0
7 *442:16 *512:26 0.00111663
8 *442:16 *611:8 0.000499557
9 *442:16 *611:12 0
10 *442:16 *612:10 7.50938e-05
11 *442:16 *625:26 0.00273851
12 *442:26 *507:22 0
13 *442:26 *613:10 0
14 E1BEG[2] *442:26 0
15 E1BEG[3] *442:26 0
16 E2BEG[0] *442:26 0.000445232
17 E2BEG[3] *442:26 0
18 E2BEG[5] *442:26 8.03692e-05
19 *2251:A *442:16 0.000235055
20 *2252:A *442:16 0
21 *2375:A *442:26 0.000144915
22 *431:18 *442:26 0
23 *433:22 *442:26 0
*RES
1 *2155:X *442:6 40 
2 *442:6 *442:16 43.8033 
3 *442:16 *442:26 49.27 
4 *442:26 *2377:A 20 
*END

*D_NET *443 0.0190804
*CONN
*I *2273:A I *D sg13g2_buf_1
*I *2156:X O *D sg13g2_buf_1
*CAP
1 *2273:A 0
2 *2156:X 0.00181921
3 *443:34 0.00256439
4 *443:26 0.00325544
5 *443:20 0.00158035
6 *443:14 0.000889302
7 *443:10 0.00181921
8 *443:10 *2054:GATE 0
9 *443:10 *559:30 1.52427e-05
10 *443:10 *561:18 0.00120979
11 *443:10 *570:6 4.77702e-05
12 *443:10 *570:23 0.000322088
13 *443:10 *571:121 0.000498485
14 *443:20 *444:18 7.44263e-05
15 *443:20 *498:28 0.00168688
16 *443:20 *606:30 7.30101e-05
17 *443:26 *511:55 0.00104888
18 *443:26 *534:30 0
19 *443:26 *534:36 0
20 *443:34 *2038:GATE 0
21 *443:34 *2187:A 0
22 *443:34 *2188:A 0
23 *443:34 *502:10 0
24 *443:34 *507:8 0
25 *443:34 *517:10 0.00034024
26 *443:34 *579:12 0
27 *443:34 *579:85 0
28 E2BEG[7] *443:34 0.00012651
29 *2151:A *443:10 0
30 *136:13 *443:20 0.00168695
31 *326:24 *443:10 0
32 *431:12 *443:34 0
33 *433:22 *443:34 2.21839e-05
*RES
1 *2156:X *443:10 37.0259 
2 *443:10 *443:14 40 
3 *443:14 *443:20 31.4845 
4 *443:20 *443:26 47.0246 
5 *443:26 *443:34 41.5373 
6 *443:34 *2273:A 20 
*END

*D_NET *444 0.0191616
*CONN
*I *2274:A I *D sg13g2_buf_1
*I *2157:X O *D sg13g2_buf_1
*CAP
1 *2274:A 0
2 *2157:X 2.54509e-05
3 *444:28 0.00173402
4 *444:24 0.00285655
5 *444:18 0.00373639
6 *444:12 0.00439611
7 *444:8 0.00180769
8 *444:12 *512:12 0
9 *444:12 *576:12 0
10 *444:12 *576:18 0
11 *444:12 *576:74 0
12 *444:12 *588:49 0
13 *444:18 *447:12 0
14 *444:18 *471:10 0
15 *444:18 *522:55 0
16 *444:18 *571:121 0.000650805
17 *444:18 *584:102 0.000388494
18 *444:18 *585:74 0
19 *444:18 *606:30 0
20 *444:18 *610:18 0
21 *444:24 *2038:GATE 0.000144569
22 *444:24 *451:20 0
23 *444:24 *477:40 0
24 *444:24 *517:16 0.000339441
25 *444:24 *558:33 0
26 *444:28 *2275:A 0
27 *444:28 *449:20 0
28 *444:28 *517:10 0
29 *1861:B_N *444:12 0.000751826
30 *1879:B1 *444:12 0
31 *1892:S1 *444:24 0
32 *138:13 *444:18 0
33 *231:10 *444:12 0
34 *231:57 *444:12 0.000229435
35 *338:10 *444:24 1.54008e-05
36 *375:12 *444:12 0.000336987
37 *375:20 *444:12 0
38 *379:8 *444:12 0.000915598
39 *399:18 *444:12 0.000758388
40 *433:22 *444:28 0
41 *443:20 *444:18 7.44263e-05
*RES
1 *2157:X *444:8 40.3193 
2 *444:8 *444:12 37.6542 
3 *444:12 *444:18 47.8924 
4 *444:18 *444:24 49.6202 
5 *444:24 *444:28 34.6878 
6 *444:28 *2274:A 20 
*END

*D_NET *445 0.0181903
*CONN
*I *2015:D I *D sg13g2_dlhq_1
*I *2109:A I *D sg13g2_buf_1
*I *1983:D I *D sg13g2_dlhq_1
*I *2047:D I *D sg13g2_dlhq_1
*I *2193:X O *D sg13g2_buf_1
*CAP
1 *2015:D 0
2 *2109:A 0.000179846
3 *1983:D 0
4 *2047:D 0
5 *2193:X 0.000247369
6 *445:58 0.00173954
7 *445:52 0.00245736
8 *445:38 0.00086117
9 *445:32 0.00114164
10 *445:28 0.00163972
11 *445:22 0.00109739
12 *445:16 0.00113574
13 *445:10 0.000747315
14 *2109:A *473:10 0
15 *2109:A *494:10 0
16 *2109:A *511:16 0
17 *2109:A *575:41 0
18 *445:10 *478:16 0.000404112
19 *445:10 *489:8 0.000242213
20 *445:10 *546:16 0
21 *445:22 *511:16 0
22 *445:22 *513:22 0
23 *445:22 *567:20 3.23417e-05
24 *445:22 *572:65 0.000340151
25 *445:28 *456:35 0
26 *445:28 *494:10 0
27 *445:28 *511:16 0
28 *445:28 *564:16 0
29 *445:28 *567:20 0.000207956
30 *445:32 *550:40 0.00191212
31 *445:38 *518:12 0
32 *445:38 *566:43 0
33 *445:52 *1984:GATE 0
34 *445:52 *1999:D 0
35 *445:52 *449:16 0
36 *445:52 *548:39 0.000272134
37 *445:52 *555:20 0
38 *445:52 *571:16 0
39 *445:52 *606:36 0
40 *445:58 *1869:A1 0
41 *445:58 *1922:A3 0.000273043
42 *445:58 *1926:A0 0
43 *445:58 *1930:A2 4.77425e-05
44 *445:58 *562:28 0
45 *445:58 *562:34 0
46 *445:58 *562:42 0
47 *445:58 *562:74 0.000601915
48 *445:58 *571:16 0
49 *445:58 *571:26 0.000787947
50 *445:58 *587:63 0
51 *445:58 *598:34 4.77079e-05
52 *445:58 *600:58 0
53 *445:58 *611:56 0
54 *1867:S *445:58 0
55 *1926:S0 *445:58 0.000239903
56 *62:11 *445:16 0.000441469
57 *224:12 *445:58 0
58 *224:22 *445:58 0
59 *237:40 *445:58 0.00014429
60 *281:10 *445:52 4.68848e-05
61 *298:8 *445:28 0
62 *383:10 *445:58 0
63 *423:12 *445:16 0.000901252
*RES
1 *2193:X *445:10 43.0488 
2 *445:10 *445:16 46.592 
3 *445:16 *445:22 26.3551 
4 *445:22 *445:28 24.4702 
5 *445:28 *445:32 32.2158 
6 *445:32 *445:38 41.0918 
7 *445:38 *445:52 46.4787 
8 *445:52 *445:58 37.4173 
9 *445:58 *2047:D 40 
10 *445:38 *1983:D 20 
11 *445:28 *2109:A 41.8437 
12 *445:22 *2015:D 20 
*END

*D_NET *446 0.0169078
*CONN
*I *2275:A I *D sg13g2_buf_1
*I *2158:X O *D sg13g2_buf_1
*CAP
1 *2275:A 0.000640893
2 *2158:X 0.00122594
3 *446:16 0.00254317
4 *446:10 0.00312822
5 *2275:A *447:18 0
6 *2275:A *449:20 0
7 *2275:A *505:14 0.00012785
8 *2275:A *507:22 0
9 *2275:A *611:12 0
10 *446:10 *1899:A1 0
11 *446:10 *1904:A2 0.00014391
12 *446:10 *2023:GATE 0
13 *446:10 *2024:D 4.77425e-05
14 *446:10 *464:8 0.00130612
15 *446:10 *544:28 0.000208035
16 *446:10 *602:79 0
17 *446:10 *604:20 0.000175693
18 *446:10 *609:77 1.54008e-05
19 *446:10 *613:28 0.000240933
20 *446:16 *447:18 0
21 *446:16 *448:20 0
22 *446:16 *505:14 0.00456544
23 *446:16 *580:22 0.00028128
24 *446:16 *583:47 0.00144802
25 E2BEGb[1] *2275:A 0
26 E2BEGb[3] *2275:A 0.000127282
27 *221:8 *446:16 0.000181608
28 *222:18 *446:16 0.000500214
29 *342:10 *446:16 0
30 *444:28 *2275:A 0
*RES
1 *2158:X *446:10 32.7308 
2 *446:10 *446:16 46.3474 
3 *446:16 *2275:A 46.0152 
*END

*D_NET *447 0.0110969
*CONN
*I *2276:A I *D sg13g2_buf_1
*I *2159:X O *D sg13g2_buf_1
*CAP
1 *2276:A 0
2 *2159:X 2.59325e-05
3 *447:18 0.00195155
4 *447:12 0.00417893
5 *447:8 0.00225331
6 *447:8 *585:90 4.77425e-05
7 *447:12 *1989:D 0
8 *447:12 *451:12 0
9 *447:12 *522:55 0
10 *447:12 *571:121 0
11 *447:12 *584:102 0
12 *447:12 *606:30 0
13 *447:12 *618:24 0
14 *447:12 *618:30 0.000605864
15 *447:18 *448:20 0
16 *2275:A *447:18 0
17 *122:21 *447:12 0
18 *129:17 *447:18 0.00198577
19 *338:10 *447:12 0
20 *425:67 *447:8 4.77702e-05
21 *444:18 *447:12 0
22 *446:16 *447:18 0
*RES
1 *2159:X *447:8 40.3193 
2 *447:8 *447:12 38.8902 
3 *447:12 *447:18 40.1056 
4 *447:18 *2276:A 40 
*END

*D_NET *448 0.011179
*CONN
*I *2277:A I *D sg13g2_buf_1
*I *2160:X O *D sg13g2_buf_1
*CAP
1 *2277:A 0
2 *2160:X 8.19487e-05
3 *448:20 0.0026797
4 *448:14 0.0033441
5 *448:8 0.000746355
6 *448:14 *2094:A 0
7 *448:14 *579:16 0.000175798
8 *448:14 *579:70 0.000743039
9 *448:14 *585:90 0.00114449
10 *448:20 *507:22 0
11 *448:20 *580:22 0
12 *448:20 *583:47 0
13 *448:20 *602:71 0.00176506
14 *448:20 *611:16 0
15 E2BEGb[3] *448:20 0
16 E2BEGb[4] *448:20 0
17 E2BEGb[5] *448:20 0
18 *2045:D *448:20 0.000498498
19 *221:8 *448:20 0
20 *222:18 *448:20 0
21 *342:10 *448:20 0
22 *446:16 *448:20 0
23 *447:18 *448:20 0
*RES
1 *2160:X *448:8 40.5974 
2 *448:8 *448:14 47.6735 
3 *448:14 *448:20 46.8418 
4 *448:20 *2277:A 20 
*END

*D_NET *449 0.0174857
*CONN
*I *2278:A I *D sg13g2_buf_1
*I *2161:X O *D sg13g2_buf_1
*CAP
1 *2278:A 0.000455636
2 *2161:X 0.00106077
3 *449:20 0.00503007
4 *449:18 0.00457443
5 *449:16 0.00106077
6 *2278:A *507:22 0
7 *2278:A *603:10 0
8 *449:16 *1977:GATE 8.00842e-05
9 *449:16 *1984:GATE 0.000337322
10 *449:16 *2173:A 0
11 *449:16 *455:8 1.54008e-05
12 *449:16 *533:60 0
13 *449:16 *548:39 0
14 *449:16 *571:10 0
15 *449:16 *571:16 0
16 *449:16 *575:20 0.00043263
17 *449:16 *575:24 0
18 *449:16 *597:18 0
19 *449:20 *1976:D 0
20 *449:20 *455:14 0
21 *449:20 *491:10 0.00186634
22 *449:20 *492:12 0
23 *449:20 *505:14 0.00108032
24 *449:20 *566:33 0
25 *449:20 *575:20 0
26 *2046:D *449:20 0
27 *2165:A *449:16 7.9757e-05
28 *2183:A *449:16 0
29 *2275:A *449:20 0
30 *130:21 *449:16 0
31 *222:10 *449:20 0.000127853
32 *281:10 *449:16 0
33 *319:8 *449:20 0.00128432
34 *434:16 *449:20 0
35 *434:31 *449:20 0
36 *434:35 *449:20 0
37 *444:28 *449:20 0
38 *445:52 *449:16 0
*RES
1 *2161:X *449:16 30.0723 
2 *449:16 *449:18 20 
3 *449:18 *449:20 41.1382 
4 *449:20 *2278:A 43.914 
*END

*D_NET *450 0.00900982
*CONN
*I *2279:A I *D sg13g2_buf_1
*I *2162:X O *D sg13g2_buf_1
*CAP
1 *2279:A 0
2 *2162:X 0.000472883
3 *450:16 0.00209763
4 *450:8 0.00257051
5 *450:8 *522:24 0.000724053
6 *450:8 *534:24 0
7 *450:16 *451:24 0
8 *450:16 *459:22 0.00314475
9 *450:16 *465:26 0
10 *450:16 *473:16 0
11 *450:16 *494:10 0
12 *450:16 *507:22 0
13 *450:16 *512:26 0
14 *1934:S *450:8 0
*RES
1 *2162:X *450:8 44.8616 
2 *450:8 *450:16 43.7003 
3 *450:16 *2279:A 20 
*END

*D_NET *451 0.00868797
*CONN
*I *2280:A I *D sg13g2_buf_1
*I *2163:X O *D sg13g2_buf_1
*CAP
1 *2280:A 0
2 *2163:X 0.000204948
3 *451:24 0.00159781
4 *451:20 0.0033166
5 *451:12 0.00192374
6 *451:12 *558:33 0
7 *451:12 *606:30 0
8 *451:20 *517:16 0.000468122
9 *451:20 *558:33 0.000532065
10 *451:24 *560:16 0
11 *451:24 *560:22 0
12 EE4BEG[0] *451:24 0.000126354
13 *1892:S1 *451:20 0.000235179
14 *122:13 *451:12 0
15 *122:21 *451:12 7.52149e-05
16 *122:25 *451:12 4.77425e-05
17 *122:25 *451:20 0
18 *338:10 *451:12 0
19 *342:10 *451:20 8.00842e-05
20 *348:10 *451:20 8.01116e-05
21 *440:12 *451:12 0
22 *444:24 *451:20 0
23 *447:12 *451:12 0
24 *450:16 *451:24 0
*RES
1 *2163:X *451:12 41.6966 
2 *451:12 *451:20 35.6972 
3 *451:20 *451:24 35.1822 
4 *451:24 *2280:A 40 
*END

*D_NET *452 0.0139642
*CONN
*I *2281:A I *D sg13g2_buf_1
*I *2164:X O *D sg13g2_buf_1
*CAP
1 *2281:A 0.000392367
2 *2164:X 0.000148015
3 *452:16 0.00238743
4 *452:12 0.0030879
5 *452:8 0.00124085
6 *2281:A *2298:A 0
7 *2281:A *464:18 0
8 *452:8 *459:22 0.000287256
9 *452:8 *494:10 0
10 *452:8 *545:51 0
11 *452:12 *579:76 0.00149816
12 *452:12 *605:59 0
13 *452:12 *605:61 0
14 *452:12 *605:114 0
15 *452:16 *469:18 0
16 *452:16 *471:14 0.00484247
17 *452:16 *508:12 0
18 E6BEG[0] *2281:A 7.97219e-05
*RES
1 *2164:X *452:8 41.8334 
2 *452:8 *452:12 30.0528 
3 *452:12 *452:16 42.5982 
4 *452:16 *2281:A 43.6977 
*END

*D_NET *453 0.00769991
*CONN
*I *2282:A I *D sg13g2_buf_1
*I *2073:X O *D sg13g2_buf_1
*CAP
1 *2282:A 0
2 *2073:X 0.000949669
3 *453:16 0.00249753
4 *453:8 0.0034472
5 *453:8 *491:28 0
6 *453:8 *579:76 0
7 *453:16 *2331:A 0
8 *453:16 *2337:A 0
9 *453:16 *454:10 0
10 *453:16 *459:28 0
11 *453:16 *462:16 0
12 *453:16 *490:10 0
13 *453:16 *522:16 0
14 E6BEG[9] *453:16 7.99037e-05
15 *2061:CLK *453:8 0
16 *2063:CLK *453:8 0.000467929
17 *2143:A *453:8 0.00014522
18 *417:10 *453:8 0.000112456
*RES
1 *2073:X *453:8 48.9713 
2 *453:8 *453:16 44.5964 
3 *453:16 *2282:A 20 
*END

*D_NET *454 0.0150574
*CONN
*I *2283:A I *D sg13g2_buf_1
*I *2074:X O *D sg13g2_buf_1
*CAP
1 *2283:A 0.000178903
2 *2074:X 0.00231512
3 *454:18 0.000488887
4 *454:10 0.00139189
5 *454:6 0.00339703
6 *2283:A *510:26 0.000274555
7 *454:6 *462:12 0
8 *454:10 *462:16 0.00262369
9 *454:10 *463:16 0.000181279
10 *454:10 *508:22 0.000180807
11 *454:18 *2291:A 0
12 *454:18 *515:46 0
13 E6BEG[10] *454:10 0
14 E6BEG[11] *2283:A 0
15 E6BEG[11] *454:18 8.01995e-05
16 E6BEG[8] *454:18 0
17 E6BEG[9] *454:10 0
18 FrameData_O[0] *454:18 0.000181192
19 FrameData_O[1] *2283:A 0
20 *2147:A *454:6 0
21 *122:25 *454:6 0.00376386
22 *453:16 *454:10 0
*RES
1 *2074:X *454:6 45.1938 
2 *454:6 *454:10 34.935 
3 *454:10 *454:18 42.8943 
4 *454:18 *2283:A 41.8334 
*END

*D_NET *455 0.0176351
*CONN
*I *2284:A I *D sg13g2_buf_1
*I *2165:X O *D sg13g2_buf_1
*CAP
1 *2284:A 0
2 *2165:X 7.0592e-05
3 *455:24 0.00267067
4 *455:20 0.00344712
5 *455:14 0.00319841
6 *455:8 0.00249256
7 *455:14 *491:10 0.000603707
8 *455:14 *500:36 0
9 *455:14 *505:14 0.00278119
10 *455:14 *533:102 0
11 *455:14 *539:24 0
12 *455:14 *544:43 0
13 *455:20 *486:30 4.79124e-05
14 *455:20 *503:16 0
15 *455:20 *567:73 0.000144728
16 *455:24 *457:18 0
17 *455:24 *461:16 0
18 *455:24 *463:8 0
19 *455:24 *472:22 0.00171942
20 *455:24 *579:76 0
21 *1915:S1 *455:20 0.00021183
22 *2061:D *455:24 0
23 *2165:A *455:8 0
24 *2166:A *455:24 0.00023158
25 *219:8 *455:24 0
26 *367:10 *455:24 0
27 *449:16 *455:8 1.54008e-05
28 *449:20 *455:14 0
*RES
1 *2165:X *455:8 40.5356 
2 *455:8 *455:14 46.6873 
3 *455:14 *455:20 46.8083 
4 *455:20 *455:24 48.2838 
5 *455:24 *2284:A 40 
*END

*D_NET *456 0.0128016
*CONN
*I *1984:D I *D sg13g2_dlhq_1
*I *2048:D I *D sg13g2_dlhq_1
*I *2110:A I *D sg13g2_buf_1
*I *2016:D I *D sg13g2_dlhq_1
*I *2194:X O *D sg13g2_buf_1
*CAP
1 *1984:D 0
2 *2048:D 0.000239758
3 *2110:A 0
4 *2016:D 0
5 *2194:X 0.000103845
6 *456:64 0.00125423
7 *456:50 0.00244923
8 *456:35 0.0021519
9 *456:22 0.00144746
10 *456:14 0.00124271
11 *456:8 0.000616235
12 *2048:D *2173:A 0
13 *2048:D *533:60 0
14 *2048:D *571:26 0
15 *456:14 *489:16 0.000306984
16 *456:14 *547:16 0.000825379
17 *456:22 *500:24 0
18 *456:22 *586:47 4.77083e-05
19 *456:22 *614:24 0
20 *456:35 *567:20 0
21 *456:35 *586:47 0
22 *456:35 *597:42 0
23 *456:50 *1898:A1 0
24 *456:50 *1898:A3 4.77425e-05
25 *456:50 *1978:D 0.000272633
26 *456:50 *2174:A 0
27 *456:50 *533:60 0
28 *456:50 *533:83 0.000272718
29 *456:50 *566:49 0
30 *456:50 *567:30 0
31 *456:50 *586:31 0
32 *456:50 *586:47 0
33 *456:50 *597:18 0
34 *456:50 *597:42 0
35 *456:64 *1898:A1 0.000240297
36 *456:64 *1978:D 0
37 *456:64 *533:60 0
38 *456:64 *548:22 0
39 *456:64 *549:50 0.000240438
40 *456:64 *550:70 0
41 *456:64 *556:14 0
42 *456:64 *606:36 0.000112198
43 *456:64 *616:55 0.000379951
44 *1902:A3 *456:22 4.77425e-05
45 *1912:A3 *456:22 0.000127867
46 *1912:S1 *456:35 2.61712e-05
47 *2068:A *2048:D 0
48 *2078:A *456:35 0
49 *131:25 *456:14 0
50 *212:18 *456:22 7.48842e-05
51 *258:16 *456:22 0.000273532
52 *259:8 *456:22 0
53 *445:28 *456:35 0
*RES
1 *2194:X *456:8 41.0918 
2 *456:8 *456:14 45.5105 
3 *456:14 *456:22 27.4469 
4 *456:22 *2016:D 20 
5 *456:22 *456:35 6.9937 
6 *456:35 *2110:A 20 
7 *456:35 *456:50 13.9565 
8 *456:50 *456:64 30.4442 
9 *456:64 *2048:D 41.7512 
10 *456:50 *1984:D 20 
*END

*D_NET *457 0.0238228
*CONN
*I *2285:A I *D sg13g2_buf_1
*I *2065:X O *D sg13g2_buf_1
*CAP
1 *2285:A 0.000200661
2 *2065:X 0
3 *457:18 0.00129742
4 *457:12 0.0074348
5 *457:10 0.00859563
6 *457:6 0.00225759
7 *2285:A *461:16 0.000144887
8 *457:10 *585:10 0
9 *457:12 *472:14 0
10 *457:12 *502:12 0.00376324
11 *457:18 *461:16 0
12 *457:18 *472:22 0
13 E6BEG[2] *2285:A 0
14 E6BEG[3] *2285:A 0
15 E6BEG[3] *457:18 0.000128576
16 E6BEG[4] *2285:A 0
17 *125:5 *457:12 0
18 *126:5 *457:12 0
19 *137:13 *457:10 0
20 *323:10 *457:10 0
21 *325:22 *457:10 0
22 *422:25 *457:10 0
23 *431:18 *457:12 0
24 *436:12 *457:10 0
25 *455:24 *457:18 0
*RES
1 *2065:X *457:6 40 
2 *457:6 *457:10 41.8566 
3 *457:10 *457:12 61.3159 
4 *457:12 *457:18 49.4966 
5 *457:18 *2285:A 21.8334 
*END

*D_NET *458 0.0261579
*CONN
*I *2286:A I *D sg13g2_buf_1
*I *2066:X O *D sg13g2_buf_1
*CAP
1 *2286:A 0
2 *2066:X 2.54469e-05
3 *458:26 0.00262205
4 *458:20 0.00577092
5 *458:14 0.00615074
6 *458:8 0.00302733
7 *458:14 *1867:A1 0
8 *458:14 *2006:GATE 0
9 *458:14 *570:25 0
10 *458:14 *570:31 0
11 *458:14 *593:20 0
12 *458:14 *593:26 0.0024493
13 *458:14 *594:39 0
14 *458:14 *598:34 0
15 *458:14 *599:32 0
16 *458:14 *616:16 0
17 *458:14 *616:24 0
18 *458:20 *462:8 0
19 *458:20 *476:14 0
20 *458:20 *492:14 0
21 *458:26 *460:54 0
22 *458:26 *461:16 0
23 *458:26 *469:14 0.00101535
24 *458:26 *476:14 0.00014417
25 *458:26 *492:14 0
26 *1900:S0 *458:14 0
27 *122:25 *458:20 0
28 *125:5 *458:26 0
29 *231:89 *458:14 0
30 *233:32 *458:14 0
31 *276:18 *458:14 0
32 *303:8 *458:14 0
33 *358:12 *458:14 1.5347e-05
34 *383:10 *458:14 0.00164689
35 *433:10 *458:20 0
36 *437:12 *458:20 0.00221007
37 *440:12 *458:20 0
38 *441:8 *458:20 0.00108024
*RES
1 *2066:X *458:8 40.3193 
2 *458:8 *458:14 30.4056 
3 *458:14 *458:20 49.2211 
4 *458:20 *458:26 46.1929 
5 *458:26 *2286:A 40 
*END

*D_NET *459 0.019286
*CONN
*I *2287:A I *D sg13g2_buf_1
*I *2067:X O *D sg13g2_buf_1
*CAP
1 *2287:A 0
2 *2067:X 0.000210021
3 *459:28 0.00230705
4 *459:22 0.00374793
5 *459:18 0.00229572
6 *459:8 0.00106486
7 *459:8 *556:47 7.33225e-05
8 *459:8 *579:12 0
9 *459:18 *2036:D 0.000628162
10 *459:18 *579:70 0.000725923
11 *459:18 *612:99 0.000177069
12 *459:22 *473:16 0
13 *459:22 *494:10 0
14 *459:22 *511:24 0
15 *459:22 *511:55 0
16 *459:22 *559:47 0
17 *459:22 *559:60 0
18 *459:28 *460:54 0
19 *459:28 *490:10 0.000660606
20 *459:28 *506:14 0.00278083
21 E6BEG[5] *459:28 0
22 E6BEG[7] *459:28 0.000128248
23 *1895:S1 *459:18 7.48175e-05
24 *1935:A1 *459:8 0
25 *127:9 *459:28 0
26 *212:54 *459:22 0.00018128
27 *311:8 *459:22 0.000234591
28 *425:71 *459:18 0.000563581
29 *450:16 *459:22 0.00314475
30 *452:8 *459:22 0.000287256
31 *453:16 *459:28 0
*RES
1 *2067:X *459:8 41.8334 
2 *459:8 *459:18 49.4245 
3 *459:18 *459:22 39.1374 
4 *459:22 *459:28 45.235 
5 *459:28 *2287:A 40 
*END

*D_NET *460 0.0260948
*CONN
*I *2288:A I *D sg13g2_buf_1
*I *2068:X O *D sg13g2_buf_1
*CAP
1 *2288:A 0
2 *2068:X 0.000862286
3 *460:54 0.00324236
4 *460:44 0.0049961
5 *460:32 0.00198849
6 *460:22 0.00260638
7 *460:10 0.00323392
8 *460:10 *551:8 0
9 *460:10 *571:26 0
10 *460:10 *578:51 0
11 *460:10 *627:20 0
12 *460:22 *1890:A1 0.00142141
13 *460:22 *1928:A0 0
14 *460:22 *2035:D 9.6255e-05
15 *460:22 *469:8 1.54285e-05
16 *460:22 *481:8 0
17 *460:22 *555:53 0
18 *460:22 *566:41 0
19 *460:22 *610:45 0
20 *460:22 *618:44 0.00024108
21 *460:22 *627:34 0.00373686
22 *460:32 *2035:D 0.000143351
23 *460:32 *469:14 0
24 *460:32 *474:18 0.000127853
25 *460:32 *602:91 0.000208035
26 *460:44 *2035:D 0.000595882
27 *460:44 *2043:D 0
28 *460:44 *541:10 0.00109043
29 *460:44 *602:91 0
30 *460:44 *619:52 0
31 *460:44 *620:63 0
32 *460:54 *2044:D 0
33 *460:54 *2331:A 0.000112315
34 *460:54 *2337:A 0
35 *460:54 *461:16 0
36 *460:54 *490:10 0
37 *460:54 *541:10 0
38 *460:54 *579:76 0
39 *1891:A3 *460:44 0
40 *1891:S1 *460:44 1.73876e-05
41 *1907:S1 *460:22 0.000236335
42 *1925:S0 *460:10 0
43 *2068:A *460:10 0
44 *133:31 *460:44 0
45 *219:8 *460:54 0
46 *251:10 *460:44 0.000286948
47 *278:22 *460:10 0
48 *279:16 *460:10 0.000126769
49 *284:14 *460:44 0
50 *317:8 *460:10 0
51 *367:10 *460:54 0
52 *421:10 *460:54 0.000708904
53 *458:26 *460:54 0
54 *459:28 *460:54 0
*RES
1 *2068:X *460:10 48.3327 
2 *460:10 *460:22 46.3474 
3 *460:22 *460:32 42.5956 
4 *460:32 *460:44 38.9005 
5 *460:44 *460:54 49.9524 
6 *460:54 *2288:A 20 
*END

*D_NET *461 0.00888975
*CONN
*I *2289:A I *D sg13g2_buf_1
*I *2069:X O *D sg13g2_buf_1
*CAP
1 *2289:A 0
2 *2069:X 0.000801057
3 *461:16 0.00242697
4 *461:8 0.00322803
5 *461:8 *534:16 0.00127586
6 *461:16 *2331:A 0
7 E6BEG[3] *461:16 4.75442e-05
8 E6BEG[4] *461:16 0
9 E6BEG[5] *461:16 0.0001773
10 E6BEG[6] *461:16 0
11 E6BEG[7] *461:16 0.000209756
12 E6BEG[8] *461:16 0
13 *1934:A1 *461:8 0.000111685
14 *2166:A *461:8 0
15 *2166:A *461:16 0
16 *2285:A *461:16 0.000144887
17 *211:14 *461:8 0.000466658
18 *212:8 *461:8 0
19 *367:10 *461:16 0
20 *455:24 *461:16 0
21 *457:18 *461:16 0
22 *458:26 *461:16 0
23 *460:54 *461:16 0
*RES
1 *2069:X *461:8 48.5387 
2 *461:8 *461:16 44.102 
3 *461:16 *2289:A 20 
*END

*D_NET *462 0.0119415
*CONN
*I *2290:A I *D sg13g2_buf_1
*I *2070:X O *D sg13g2_buf_1
*CAP
1 *2290:A 0
2 *2070:X 0.000253868
3 *462:16 0.000815527
4 *462:12 0.00393806
5 *462:8 0.0033764
6 *462:12 *487:14 0
7 *462:12 *492:14 0
8 E6BEG[9] *462:16 0.000128126
9 *2147:A *462:12 4.78853e-05
10 *122:25 *462:8 0
11 *122:25 *462:12 0
12 *433:10 *462:12 0.000757984
13 *453:16 *462:16 0
14 *454:6 *462:12 0
15 *454:10 *462:16 0.00262369
16 *458:20 *462:8 0
*RES
1 *2070:X *462:8 22.4308 
2 *462:8 *462:12 49.0872 
3 *462:12 *462:16 32.2158 
4 *462:16 *2290:A 20 
*END

*D_NET *463 0.011875
*CONN
*I *2291:A I *D sg13g2_buf_1
*I *2071:X O *D sg13g2_buf_1
*CAP
1 *2291:A 0.000130431
2 *2071:X 0
3 *463:16 0.000942974
4 *463:8 0.00394088
5 *463:6 0.00312833
6 *2291:A *2331:A 0
7 *2291:A *510:26 0.00014436
8 *463:8 *472:22 0
9 *463:8 *514:22 0.000396709
10 *463:8 *580:66 0
11 *463:16 *510:16 0.001214
12 E6BEG[0] *463:8 0
13 E6BEG[10] *463:16 0.000287256
14 E6BEG[11] *2291:A 0
15 E6BEG[1] *463:8 0
16 E6BEG[2] *463:16 0
17 E6BEG[4] *463:16 0
18 E6BEG[6] *463:16 0.000339421
19 E6BEG[8] *2291:A 0.000143571
20 E6BEG[8] *463:16 0
21 E6BEG[9] *463:16 0
22 EE4BEG[15] *463:16 0
23 *1905:A3 *463:8 0.000181279
24 *2061:D *463:8 0.00084452
25 *220:14 *463:8 0
26 *296:8 *463:8 0
27 *454:10 *463:16 0.000181279
28 *454:18 *2291:A 0
29 *455:24 *463:8 0
*RES
1 *2071:X *463:6 40 
2 *463:6 *463:8 32.7334 
3 *463:8 *463:16 49.4451 
4 *463:16 *2291:A 41.4008 
*END

*D_NET *464 0.0221562
*CONN
*I *2292:A I *D sg13g2_buf_1
*I *2072:X O *D sg13g2_buf_1
*CAP
1 *2292:A 0
2 *2072:X 0.0012558
3 *464:18 0.00179275
4 *464:12 0.00345343
5 *464:8 0.00291647
6 *464:8 *1899:A1 0
7 *464:8 *567:55 0.000628571
8 *464:8 *582:51 0
9 *464:8 *613:28 0
10 *464:12 *468:24 0.00478444
11 *464:12 *469:14 0.00397883
12 *464:12 *474:18 0
13 *464:12 *477:46 0
14 *464:18 *2331:A 0
15 *464:18 *2337:A 0
16 *464:18 *490:16 0.000369261
17 *464:18 *501:22 0
18 *464:18 *514:16 0.00143053
19 *1895:S0 *464:8 0
20 *2072:A *464:8 0
21 *2281:A *464:18 0
22 *339:8 *464:12 0.000127802
23 *422:79 *464:8 0
24 *422:87 *464:8 0.000112226
25 *446:10 *464:8 0.00130612
*RES
1 *2072:X *464:8 33.0301 
2 *464:8 *464:12 47.295 
3 *464:12 *464:18 38.3134 
4 *464:18 *2292:A 20 
*END

*D_NET *465 0.0114735
*CONN
*I *2293:A I *D sg13g2_buf_1
*I *2075:X O *D sg13g2_buf_1
*CAP
1 *2293:A 0.00011467
2 *2075:X 0
3 *465:26 0.00105831
4 *465:16 0.00348052
5 *465:6 0.00253687
6 *2293:A *507:22 0.000208826
7 *2293:A *515:34 0.000209526
8 *465:16 *1933:A1 0.000603641
9 *465:16 *466:16 0
10 *465:16 *481:18 0
11 *465:16 *534:22 0
12 *465:26 *468:34 0.000660778
13 *465:26 *510:16 0
14 *465:26 *512:26 0
15 EE4BEG[0] *465:26 0
16 EE4BEG[11] *465:16 2.20966e-05
17 EE4BEG[1] *465:26 0
18 EE4BEG[2] *465:26 0.000339735
19 EE4BEG[3] *465:26 0.000143379
20 EE4BEG[5] *465:26 0.000208255
21 EE4BEG[7] *465:26 0.000241398
22 EE4BEG[9] *465:26 0.000177156
23 *211:27 *465:16 0.00123773
24 *212:46 *465:16 0
25 *321:10 *465:16 0.000230635
26 *450:16 *465:26 0
*RES
1 *2075:X *465:6 40 
2 *465:6 *465:16 46.8006 
3 *465:16 *465:26 30.2073 
4 *465:26 *2293:A 41.4008 
*END

*D_NET *466 0.0124302
*CONN
*I *2294:A I *D sg13g2_buf_1
*I *2085:X O *D sg13g2_buf_1
*CAP
1 *2294:A 0
2 *2085:X 0.000458271
3 *466:16 0.00252982
4 *466:8 0.00298809
5 *466:8 *497:14 0.000823418
6 *466:8 *503:16 0.000403767
7 *466:16 *1933:A1 0.000918954
8 *466:16 *470:12 0.00286109
9 *466:16 *533:112 0.000335652
10 *321:10 *466:16 0.000228248
11 *351:10 *466:8 0.000337852
12 *351:10 *466:16 0.000545056
13 *465:16 *466:16 0
*RES
1 *2085:X *466:8 45.5105 
2 *466:8 *466:16 47.7173 
3 *466:16 *2294:A 20 
*END

*D_NET *467 0.011161
*CONN
*I *2092:A I *D sg13g2_buf_1
*I *1998:D I *D sg13g2_dlhq_1
*I *1966:D I *D sg13g2_dlhq_1
*I *2030:D I *D sg13g2_dlhq_1
*I *2195:X O *D sg13g2_buf_1
*CAP
1 *2092:A 5.72666e-05
2 *1998:D 0
3 *1966:D 2.77263e-05
4 *2030:D 4.873e-05
5 *2195:X 0.000363771
6 *467:40 0.00148908
7 *467:30 0.00195114
8 *467:19 0.00229848
9 *467:10 0.00227847
10 *2030:D *553:30 0
11 *467:10 *552:14 0.000371998
12 *467:19 *2034:D 0.000307012
13 *467:19 *2049:D 0
14 *467:19 *489:38 0
15 *467:19 *489:46 0
16 *467:19 *552:8 0
17 *467:19 *552:14 0
18 *467:19 *553:30 0.000241983
19 *467:19 *555:16 0.000533796
20 *467:19 *557:10 0
21 *467:30 *2049:D 0
22 *467:30 *478:34 0
23 *467:30 *489:36 8.02267e-05
24 *467:30 *489:38 0
25 *467:30 *575:10 0
26 *467:40 *478:28 0
27 *467:40 *478:34 0
28 *467:40 *489:36 0
29 *467:40 *546:16 0
30 *467:40 *547:16 0
31 *467:40 *547:26 0
32 *467:40 *553:48 0
33 *467:40 *575:10 0
34 *467:40 *586:12 0.000144055
35 *467:40 *619:8 0.000144985
36 *2211:A *467:19 0.000435713
37 *2256:A *467:40 0.000176817
38 *2272:A *467:40 0.000209756
39 *2364:A *467:10 0
40 *131:25 *467:19 0
41 *428:16 *2030:D 0
42 *428:16 *467:10 0
43 *428:16 *467:19 0
*RES
1 *2195:X *467:10 23.8007 
2 *467:10 *2030:D 20.5974 
3 *467:10 *467:19 17.8396 
4 *467:19 *1966:D 20.3502 
5 *467:19 *467:30 23.7801 
6 *467:30 *467:40 35.0277 
7 *467:40 *1998:D 20 
8 *467:30 *2092:A 40.5974 
*END

*D_NET *468 0.0194953
*CONN
*I *2295:A I *D sg13g2_buf_1
*I *2086:X O *D sg13g2_buf_1
*CAP
1 *2295:A 0
2 *2086:X 0.000660729
3 *468:34 0.000866038
4 *468:24 0.00222641
5 *468:20 0.00155451
6 *468:14 0.000854873
7 *468:14 *473:16 0.000350564
8 *468:14 *585:98 0.000629178
9 *468:14 *604:16 0
10 *468:20 *2036:D 0.000337517
11 *468:24 *474:18 0.00521417
12 *468:24 *475:12 0
13 *468:24 *477:46 0
14 *468:34 *2297:A 0.000177387
15 *468:34 *510:16 0
16 *468:34 *512:26 0.000176714
17 EE4BEG[11] *468:34 0.000209454
18 EE4BEG[12] *468:34 0
19 EE4BEG[4] *468:24 0
20 EE4BEG[5] *468:24 0
21 EE4BEG[6] *468:24 0
22 *1904:S1 *468:14 0
23 *2086:A *468:14 8.02269e-05
24 *265:8 *468:14 2.14736e-05
25 *339:16 *468:14 0.000337852
26 *425:71 *468:20 0.000240404
27 *425:86 *468:20 0.000112541
28 *464:12 *468:24 0.00478444
29 *465:26 *468:34 0.000660778
*RES
1 *2086:X *468:14 47.1482 
2 *468:14 *468:20 42.266 
3 *468:20 *468:24 46.5534 
4 *468:24 *468:34 48.4357 
5 *468:34 *2295:A 20 
*END

*D_NET *469 0.0146304
*CONN
*I *2296:A I *D sg13g2_buf_1
*I *2087:X O *D sg13g2_buf_1
*CAP
1 *2296:A 0
2 *2087:X 6.03635e-05
3 *469:18 0.000929824
4 *469:14 0.00332047
5 *469:8 0.00245101
6 *469:8 *2035:D 0
7 *469:8 *627:34 4.78498e-05
8 *469:14 *474:18 0
9 *469:14 *477:46 0
10 *469:14 *479:14 0
11 *469:14 *481:14 0
12 *469:14 *492:14 0
13 *469:14 *497:12 0.00144879
14 *469:18 *470:12 0
15 *469:18 *471:14 0
16 *469:18 *508:12 0
17 *469:18 *509:8 0.00108002
18 E6BEG[0] *469:18 0
19 *337:10 *469:14 0.000282464
20 *425:86 *469:14 0
21 *452:16 *469:18 0
22 *458:26 *469:14 0.00101535
23 *460:22 *469:8 1.54285e-05
24 *460:32 *469:14 0
25 *464:12 *469:14 0.00397883
*RES
1 *2087:X *469:8 40.5356 
2 *469:8 *469:14 49.6537 
3 *469:14 *469:18 30.9798 
4 *469:18 *2296:A 40 
*END

*D_NET *470 0.0196664
*CONN
*I *2297:A I *D sg13g2_buf_1
*I *2088:X O *D sg13g2_buf_1
*CAP
1 *2297:A 0.000385548
2 *2088:X 0
3 *470:12 0.00402903
4 *470:6 0.00364348
5 *2297:A *2331:A 0
6 *2297:A *512:26 0
7 *470:12 *2102:A 0.000716259
8 *470:12 *471:14 0.00537323
9 *470:12 *508:12 0
10 *470:12 *566:14 0
11 *470:12 *572:14 0
12 *470:12 *572:20 0
13 *470:12 *575:64 0.000479166
14 *470:12 *605:65 0
15 *470:12 *606:97 0
16 EE4BEG[12] *2297:A 0.000144843
17 EE4BEG[12] *470:12 7.52158e-05
18 EE4BEG[13] *2297:A 0
19 EE4BEG[14] *2297:A 0.000209756
20 EE4BEG[15] *2297:A 0
21 *211:40 *470:12 0
22 *211:46 *470:12 0
23 *302:10 *470:12 0.000973383
24 *351:10 *470:12 0.000598056
25 *466:16 *470:12 0.00286109
26 *468:34 *2297:A 0.000177387
27 *469:18 *470:12 0
*RES
1 *2088:X *470:6 40 
2 *470:6 *470:12 46.5045 
3 *470:12 *2297:A 43.914 
*END

*D_NET *471 0.0214507
*CONN
*I *2298:A I *D sg13g2_buf_1
*I *2089:X O *D sg13g2_buf_1
*CAP
1 *2298:A 0.000461222
2 *2089:X 0
3 *471:14 0.00163228
4 *471:10 0.00456113
5 *471:8 0.00339007
6 *471:6 0
7 *2298:A *2331:A 0
8 *471:10 *556:55 0
9 *471:10 *582:26 8.09323e-05
10 *471:10 *610:18 0
11 *471:10 *623:46 0
12 E6BEG[0] *2298:A 7.99037e-05
13 *2281:A *2298:A 0
14 *135:13 *471:10 0
15 *211:40 *471:14 0
16 *422:69 *471:10 0.00102943
17 *444:18 *471:10 0
18 *452:16 *471:14 0.00484247
19 *469:18 *471:14 0
20 *470:12 *471:14 0.00537323
*RES
1 *2089:X *471:6 40 
2 *471:6 *471:8 20 
3 *471:8 *471:10 33.1969 
4 *471:10 *471:14 45.0702 
5 *471:14 *2298:A 43.914 
*END

*D_NET *472 0.0210515
*CONN
*I *2299:A I *D sg13g2_buf_1
*I *2090:X O *D sg13g2_buf_1
*CAP
1 *2299:A 0
2 *2090:X 4.56136e-05
3 *472:22 0.000689089
4 *472:14 0.00570341
5 *472:12 0.00692919
6 *472:8 0.00196048
7 *472:8 *561:26 8.00425e-05
8 *472:8 *583:32 7.92265e-05
9 *472:12 *578:18 0.00017812
10 *472:12 *594:20 0
11 *472:14 *502:12 0.00366689
12 E6BEG[1] *472:22 0
13 E6BEG[2] *472:22 0
14 *126:5 *472:14 0
15 *276:8 *472:12 0
16 *435:12 *472:12 0
17 *455:24 *472:22 0.00171942
18 *457:12 *472:14 0
19 *457:18 *472:22 0
20 *463:8 *472:22 0
*RES
1 *2090:X *472:8 40.5356 
2 *472:8 *472:12 34.6878 
3 *472:12 *472:14 43.5793 
4 *472:14 *472:22 49.3215 
5 *472:22 *2299:A 20 
*END

*D_NET *473 0.0129506
*CONN
*I *2300:A I *D sg13g2_buf_1
*I *2076:X O *D sg13g2_buf_1
*CAP
1 *2300:A 0
2 *2076:X 0.000382288
3 *473:16 0.00403824
4 *473:10 0.00442053
5 *473:10 *564:20 0.000144361
6 *473:10 *564:35 0.000192848
7 *473:10 *564:46 1.53311e-05
8 *473:10 *574:16 0
9 *473:10 *575:41 0
10 *473:16 *2024:D 0.000652642
11 *473:16 *2182:A 0.000658428
12 *473:16 *476:18 0
13 *473:16 *511:16 0
14 *473:16 *511:24 0
15 *473:16 *513:22 0
16 *473:16 *515:34 0
17 *473:16 *545:51 0
18 *473:16 *559:47 0.000653527
19 *473:16 *559:60 0.000553875
20 *473:16 *567:106 0.000655181
21 *473:16 *574:16 0.000232804
22 *473:16 *604:16 0
23 EE4BEG[2] *473:16 0
24 *1914:S1 *473:10 0
25 *2109:A *473:10 0
26 *255:8 *473:16 0
27 *265:8 *473:16 0
28 *310:8 *473:16 0
29 *450:16 *473:16 0
30 *459:22 *473:16 0
31 *468:14 *473:16 0.000350564
*RES
1 *2076:X *473:10 43.6977 
2 *473:10 *473:16 41.0661 
3 *473:16 *2300:A 40 
*END

*D_NET *474 0.0177416
*CONN
*I *2301:A I *D sg13g2_buf_1
*I *2077:X O *D sg13g2_buf_1
*CAP
1 *2301:A 0.000272513
2 *2077:X 0.000397003
3 *474:18 0.00342397
4 *474:16 0.00344665
5 *474:10 0.000692191
6 *2301:A *2303:A 0.000112315
7 *2301:A *2331:A 7.99721e-05
8 *2301:A *501:22 0
9 *2301:A *515:34 4.77702e-05
10 *474:10 *1913:A2 0
11 *474:10 *2009:GATE 0.000112426
12 *474:10 *572:12 0.000240569
13 *474:10 *574:28 0
14 *474:16 *532:12 0
15 *474:16 *566:14 0
16 *474:18 *475:12 0
17 *474:18 *497:12 0
18 *474:18 *514:12 0.00232746
19 *474:18 *604:24 0
20 *474:18 *623:46 0
21 *133:11 *474:16 0
22 *133:21 *474:18 0.000445467
23 *211:46 *474:10 0.000176442
24 *211:58 *474:10 0.000370649
25 *339:8 *474:18 0.000127802
26 *422:87 *474:18 0.000126325
27 *460:32 *474:18 0.000127853
28 *464:12 *474:18 0
29 *468:24 *474:18 0.00521417
30 *469:14 *474:18 0
*RES
1 *2077:X *474:10 44.3466 
2 *474:10 *474:16 43.1312 
3 *474:16 *474:18 37.4302 
4 *474:18 *2301:A 42.7192 
*END

*D_NET *475 0.0159764
*CONN
*I *2302:A I *D sg13g2_buf_1
*I *2078:X O *D sg13g2_buf_1
*CAP
1 *2302:A 0
2 *2078:X 0
3 *475:12 0.00395895
4 *475:6 0.00395895
5 *475:12 *1899:A0 0
6 *475:12 *476:18 0
7 *475:12 *491:18 0.000231238
8 *475:12 *513:22 0.000875053
9 *475:12 *514:12 0.0064031
10 *475:12 *582:68 0
11 *475:12 *602:79 0.000549114
12 *475:12 *604:16 0
13 *475:12 *604:24 0
14 EE4BEG[4] *475:12 0
15 *468:24 *475:12 0
16 *474:18 *475:12 0
*RES
1 *2078:X *475:6 40 
2 *475:6 *475:12 43.7544 
3 *475:12 *2302:A 40 
*END

*D_NET *476 0.0257649
*CONN
*I *2303:A I *D sg13g2_buf_1
*I *2079:X O *D sg13g2_buf_1
*CAP
1 *2303:A 6.10222e-05
2 *2079:X 0.000350306
3 *476:18 0.00130116
4 *476:14 0.00511944
5 *476:12 0.00560974
6 *476:8 0.00208075
7 *2303:A *2331:A 0.000112315
8 *476:8 *1858:A2 0.000143351
9 *476:8 *1936:A_N 0
10 *476:8 *585:44 0
11 *476:8 *601:48 4.75151e-05
12 *476:12 *477:14 0.00308334
13 *476:12 *512:12 0
14 *476:12 *512:16 0
15 *476:12 *576:26 0
16 *476:18 *604:16 0
17 *1936:B *476:8 0.0001122
18 *1944:A *476:12 0.00034112
19 *2301:A *2303:A 0.000112315
20 *125:5 *476:14 0
21 *228:8 *476:12 0.000287256
22 *268:14 *476:12 0
23 *325:22 *476:8 0
24 *400:10 *476:8 0.000111712
25 *425:14 *476:12 0
26 *436:16 *476:14 0.0032118
27 *437:12 *476:14 0.00353534
28 *458:20 *476:14 0
29 *458:26 *476:14 0.00014417
30 *473:16 *476:18 0
31 *475:12 *476:18 0
*RES
1 *2079:X *476:8 43.1312 
2 *476:8 *476:12 38.8902 
3 *476:12 *476:14 38.6044 
4 *476:14 *476:18 30.4854 
5 *476:18 *2303:A 40.7519 
*END

*D_NET *477 0.0292202
*CONN
*I *2304:A I *D sg13g2_buf_1
*I *2080:X O *D sg13g2_buf_1
*CAP
1 *2304:A 0
2 *2080:X 0.000537585
3 *477:46 0.0012029
4 *477:40 0.00414796
5 *477:20 0.00454869
6 *477:14 0.00302636
7 *477:10 0.00196032
8 *477:10 *1959:D 0
9 *477:10 *587:34 0.000112458
10 *477:10 *591:26 7.9225e-05
11 *477:14 *1959:D 0.000493471
12 *477:14 *2054:GATE 0.000207962
13 *477:14 *500:66 0.000283363
14 *477:14 *512:12 0
15 *477:14 *576:78 0.00034024
16 *477:14 *576:87 0.000103961
17 *477:20 *2006:D 0
18 *477:20 *539:18 0
19 *477:20 *563:72 7.52158e-05
20 *477:20 *582:14 0.0017591
21 *477:20 *602:22 0
22 *477:20 *602:37 0
23 *477:20 *609:16 0
24 *477:40 *1958:GATE 4.77702e-05
25 *477:40 *1990:GATE 0.000272949
26 *477:40 *2038:GATE 0.000144542
27 *477:40 *2172:A 0
28 *477:40 *494:12 0.000919185
29 *477:40 *517:16 0
30 *477:40 *559:60 0
31 *477:40 *602:37 0
32 *477:46 *479:14 0.00325709
33 EE4BEG[6] *477:46 0
34 EE4BEG[8] *477:46 0
35 *1860:A *477:10 0.000370676
36 *1888:S1 *477:40 0
37 *1892:A3 *477:40 0.00014454
38 *1916:S1 *477:40 0.000236795
39 *1924:S1 *477:20 0
40 *1932:S *477:40 0
41 *2080:A *477:10 0
42 *2144:A *477:40 4.77699e-05
43 *212:46 *477:40 0
44 *212:62 *477:40 4.75166e-05
45 *212:72 *477:40 0.000439736
46 *325:16 *477:14 0
47 *376:10 *477:14 0.000599727
48 *426:8 *477:14 0.000182525
49 *426:14 *477:10 0.00037022
50 *430:22 *477:40 0.000176999
51 *444:24 *477:40 0
52 *464:12 *477:46 0
53 *468:24 *477:46 0
54 *469:14 *477:46 0
55 *476:12 *477:14 0.00308334
*RES
1 *2080:X *477:10 45.3972 
2 *477:10 *477:14 38.643 
3 *477:14 *477:20 36.5212 
4 *477:20 *477:40 47.7173 
5 *477:40 *477:46 36.4903 
6 *477:46 *2304:A 40 
*END

*D_NET *478 0.014373
*CONN
*I *2017:D I *D sg13g2_dlhq_1
*I *2111:A I *D sg13g2_buf_1
*I *1985:D I *D sg13g2_dlhq_1
*I *2049:D I *D sg13g2_dlhq_1
*I *2196:X O *D sg13g2_buf_1
*CAP
1 *2017:D 5.77979e-05
2 *2111:A 8.12864e-05
3 *1985:D 0
4 *2049:D 0.00190535
5 *2196:X 0.000499946
6 *478:34 0.00242045
7 *478:28 0.0018686
8 *478:16 0.00181093
9 *478:8 0.00109647
10 *2017:D *547:16 0.000112782
11 *2049:D *548:18 0
12 *2049:D *553:30 0.000435487
13 *2049:D *553:48 0
14 *2049:D *555:16 0
15 *2049:D *557:10 0
16 *2111:A *489:36 4.77702e-05
17 *478:8 *489:8 0
18 *478:8 *547:16 0
19 *478:16 *489:8 0
20 *478:16 *500:24 0.000128113
21 *478:16 *546:16 0
22 *478:16 *547:16 7.93436e-05
23 *478:28 *489:16 0
24 *478:28 *489:24 0
25 *478:28 *489:36 0.000613791
26 *478:28 *547:16 0.00131484
27 *478:28 *547:26 0.000339123
28 *478:28 *553:52 0
29 *478:28 *553:69 0.000209083
30 *478:34 *553:48 0
31 *478:34 *575:10 0.000112528
32 *478:34 *586:12 0.000144197
33 *2210:A *2049:D 0
34 *2214:A *2049:D 0.000209871
35 *2215:A *2049:D 0.000176587
36 *2223:A *2049:D 0.000176508
37 *131:25 *2111:A 4.77702e-05
38 *131:25 *478:28 0
39 *423:8 *478:16 8.02269e-05
40 *434:8 *478:16 0
41 *434:16 *478:34 0
42 *445:10 *478:16 0.000404112
43 *467:19 *2049:D 0
44 *467:30 *2049:D 0
45 *467:30 *478:34 0
46 *467:40 *478:28 0
47 *467:40 *478:34 0
*RES
1 *2196:X *478:8 24.3466 
2 *478:8 *478:16 45.459 
3 *478:16 *478:28 33.5548 
4 *478:28 *478:34 25.0882 
5 *478:34 *2049:D 37.8602 
6 *478:34 *1985:D 20 
7 *478:28 *2111:A 40.9167 
8 *478:8 *2017:D 21.0455 
*END

*D_NET *479 0.0186815
*CONN
*I *2305:A I *D sg13g2_buf_1
*I *2081:X O *D sg13g2_buf_1
*CAP
1 *2305:A 0
2 *2081:X 0
3 *479:14 0.00198581
4 *479:10 0.00464601
5 *479:6 0.0026602
6 *479:10 *539:24 0
7 *479:10 *545:66 0
8 *479:10 *617:16 0
9 *479:14 *481:14 0.00176328
10 *479:14 *482:8 0
11 *479:14 *614:20 0
12 *135:13 *479:10 0.0043691
13 *337:10 *479:14 0
14 *425:86 *479:14 0
15 *469:14 *479:14 0
16 *477:46 *479:14 0.00325709
*RES
1 *2081:X *479:6 40 
2 *479:6 *479:10 48.8709 
3 *479:10 *479:14 46.3062 
4 *479:14 *2305:A 40 
*END

*D_NET *480 0.0177137
*CONN
*I *2306:A I *D sg13g2_buf_1
*I *2082:X O *D sg13g2_buf_1
*CAP
1 *2306:A 0
2 *2082:X 0.000620431
3 *480:20 0.00236016
4 *480:16 0.00433439
5 *480:8 0.00259466
6 *480:8 *605:28 0.000433684
7 *480:8 *612:30 0.000724341
8 *480:16 *539:22 0
9 *480:16 *602:22 0.00256712
10 *480:16 *615:22 0.000229428
11 *480:16 *625:26 0
12 *480:16 *627:20 0
13 *480:20 *607:16 0.000768267
14 *1925:S1 *480:8 1.00105e-05
15 *2082:A *480:8 0
16 *2252:A *480:16 0.000340253
17 *2253:A *480:16 0
18 *329:12 *480:16 0.0023928
19 *330:8 *480:16 0.000338219
20 *442:16 *480:16 0
*RES
1 *2082:X *480:8 46.1594 
2 *480:8 *480:16 45.4307 
3 *480:16 *480:20 48.6546 
4 *480:20 *2306:A 40 
*END

*D_NET *481 0.013285
*CONN
*I *2307:A I *D sg13g2_buf_1
*I *2083:X O *D sg13g2_buf_1
*CAP
1 *2307:A 0
2 *2083:X 0.000533627
3 *481:18 0.00185865
4 *481:14 0.00334906
5 *481:8 0.00202404
6 *481:8 *555:53 0
7 *481:8 *602:91 0.000353792
8 *481:8 *610:45 0.000788709
9 *481:8 *610:97 6.46834e-05
10 *481:14 *2023:D 0.000393495
11 *481:14 *497:12 0
12 *481:14 *500:34 0
13 *481:14 *516:8 0
14 *481:14 *544:28 0.000125015
15 *481:14 *612:111 0
16 *481:14 *614:20 0
17 *481:18 *482:8 0
18 *481:18 *487:10 0.00139831
19 *1934:A1 *481:14 0.000241195
20 *212:46 *481:18 0
21 *242:8 *481:14 0.000391164
22 *460:22 *481:8 0
23 *465:16 *481:18 0
24 *469:14 *481:14 0
25 *479:14 *481:14 0.00176328
*RES
1 *2083:X *481:8 45.7268 
2 *481:8 *481:14 36.0577 
3 *481:14 *481:18 38.1486 
4 *481:18 *2307:A 40 
*END

*D_NET *482 0.0142355
*CONN
*I *2308:A I *D sg13g2_buf_1
*I *2084:X O *D sg13g2_buf_1
*CAP
1 *2308:A 0.000339136
2 *2084:X 0
3 *482:8 0.00234931
4 *482:6 0.00201018
5 *2308:A *2331:A 0
6 *2308:A *512:26 0
7 *482:8 *487:10 0.00382305
8 *482:8 *614:20 0.00463734
9 *482:8 *614:24 0.00091703
10 EE4BEG[10] *2308:A 0.000144055
11 EE4BEG[10] *482:8 0
12 EE4BEG[8] *2308:A 1.54008e-05
13 EE4BEG[8] *482:8 0
14 *479:14 *482:8 0
15 *481:18 *482:8 0
*RES
1 *2084:X *482:6 40 
2 *482:6 *482:8 30.2614 
3 *482:8 *2308:A 43.0488 
*END

*D_NET *483 0.0169768
*CONN
*I *2309:A I *D sg13g2_buf_1
*I *2091:X O *D sg13g2_buf_1
*CAP
1 *2309:A 0
2 *2091:X 0.000357375
3 *483:38 0.00221555
4 *483:34 0.00241261
5 *483:28 0.00265513
6 *483:24 0.00468199
7 *483:12 0.0025813
8 *483:12 *495:16 0.000402025
9 *483:12 *496:18 0.000337186
10 *483:12 *513:22 0.000236276
11 *483:24 *1902:A1 0
12 *483:24 *1912:A0 0
13 *483:24 *1998:GATE 0.00037158
14 *483:24 *2017:GATE 0.000274527
15 *483:24 *495:16 0
16 *483:24 *495:24 0
17 *483:24 *531:6 0
18 *483:24 *549:50 0
19 *483:24 *566:8 0
20 *483:24 *567:12 0
21 *483:24 *572:26 0
22 *483:28 *544:20 0
23 *483:28 *545:12 0
24 *483:38 *495:26 0
25 *483:38 *516:14 0
26 *483:38 *517:28 0
27 *131:25 *483:12 0
28 *246:10 *483:12 0
29 *246:10 *483:24 0.00020894
30 *258:16 *483:24 0.000242355
31 *417:10 *483:38 0
32 *419:8 *483:28 0
*RES
1 *2091:X *483:12 44.3878 
2 *483:12 *483:24 41.492 
3 *483:24 *483:28 42.5982 
4 *483:28 *483:34 42.0497 
5 *483:34 *483:38 44.0814 
6 *483:38 *2309:A 20 
*END

*D_NET *484 0.0165768
*CONN
*I *2310:A I *D sg13g2_buf_1
*I *2101:X O *D sg13g2_buf_1
*CAP
1 *2310:A 0.000647628
2 *2101:X 0.00137286
3 *484:10 0.00380114
4 *484:8 0.00315351
5 *484:6 0.00137286
6 *2310:A *2327:A 0
7 *2310:A *2339:A 4.7885e-05
8 *2310:A *510:26 0
9 *484:6 *2181:A 0
10 *484:6 *485:16 0
11 *484:10 *503:20 0.00581735
12 *484:10 *513:30 0
13 *484:10 *516:22 0
14 *484:10 *534:8 0
15 FrameData_O[10] *2310:A 0
16 FrameData_O[11] *2310:A 0
17 FrameData_O[12] *2310:A 0
18 FrameData_O[5] *2310:A 0
19 FrameData_O[6] *484:10 0
20 FrameData_O[7] *2310:A 0.00011123
21 FrameData_O[7] *484:10 7.51285e-05
22 FrameData_O[8] *2310:A 0.000177212
23 FrameData_O[9] *2310:A 0
*RES
1 *2101:X *484:6 33.7299 
2 *484:6 *484:8 20 
3 *484:8 *484:10 40.6438 
4 *484:10 *2310:A 46.3448 
*END

*D_NET *485 0.0160607
*CONN
*I *2311:A I *D sg13g2_buf_1
*I *2102:X O *D sg13g2_buf_1
*CAP
1 *2311:A 0
2 *2102:X 0.000796804
3 *485:20 0.0035522
4 *485:18 0.0035522
5 *485:16 0.00220557
6 *485:12 0.00300237
7 *485:12 *2102:A 1.54008e-05
8 *485:12 *2121:A 8.00842e-05
9 *485:12 *549:34 0
10 *485:12 *550:27 0.000289155
11 *485:12 *550:38 0.000395968
12 *485:12 *566:14 0
13 *485:12 *575:64 0.000391087
14 *485:16 *2124:A 0
15 *485:16 *2181:A 0
16 *485:16 *493:20 0
17 *485:16 *530:8 0.000954607
18 *485:16 *572:12 0.000825264
19 *485:16 *572:97 0
20 *485:16 *574:28 0
21 *485:20 *487:20 0
22 *485:20 *488:10 0
23 *485:20 *496:26 0
24 *301:8 *485:12 0
25 *484:6 *485:16 0
*RES
1 *2102:X *485:12 49.2082 
2 *485:12 *485:16 43.0308 
3 *485:16 *485:18 20 
4 *485:18 *485:20 37.6774 
5 *485:20 *2311:A 40 
*END

*D_NET *486 0.0195388
*CONN
*I *2312:A I *D sg13g2_buf_1
*I *2103:X O *D sg13g2_buf_1
*CAP
1 *2312:A 0
2 *2103:X 6.02743e-05
3 *486:38 0.0032127
4 *486:34 0.00517094
5 *486:30 0.00469755
6 *486:14 0.00295076
7 *486:8 0.000271734
8 *486:8 *500:24 0.000343583
9 *486:8 *612:121 0.000344697
10 *486:14 *597:42 0
11 *486:30 *2035:GATE 0
12 *486:30 *503:16 0
13 *486:30 *533:108 0.000112359
14 *486:30 *567:73 0.000273536
15 *486:30 *572:20 0
16 *486:30 *580:90 0
17 *486:30 *597:57 0
18 *486:30 *605:65 0
19 *486:30 *605:77 0
20 *486:30 *610:97 0.00023464
21 *486:34 *2044:D 0
22 *486:34 *2106:A 0
23 *486:34 *497:14 0
24 *486:34 *503:16 0
25 *486:34 *544:20 0
26 *486:38 *488:10 0
27 *486:38 *491:32 0
28 *486:38 *492:18 0
29 FrameData_O[15] *486:38 0.000340669
30 FrameData_O[16] *486:38 0
31 *1905:S1 *486:30 0.00021183
32 *1905:S1 *486:34 0
33 *2085:A *486:30 0
34 *212:18 *486:30 0.000707522
35 *241:10 *486:30 0.000285101
36 *250:8 *486:30 0
37 *297:12 *486:30 0.000273026
38 *422:87 *486:30 0
39 *422:96 *486:30 0
40 *455:20 *486:30 4.79124e-05
*RES
1 *2103:X *486:8 41.5862 
2 *486:8 *486:14 41.8334 
3 *486:14 *486:30 44.2033 
4 *486:30 *486:34 39.7863 
5 *486:34 *486:38 49.2726 
6 *486:38 *2312:A 20 
*END

*D_NET *487 0.0271347
*CONN
*I *2313:A I *D sg13g2_buf_1
*I *2104:X O *D sg13g2_buf_1
*CAP
1 *2313:A 0
2 *2104:X 0
3 *487:20 0.00152039
4 *487:14 0.00418517
5 *487:10 0.00444133
6 *487:6 0.00177656
7 *487:10 *609:75 0.000287776
8 *487:10 *614:24 0
9 *487:14 *492:14 0.00418874
10 *487:20 *2327:A 0.000274297
11 *487:20 *488:10 0
12 *487:20 *502:18 0
13 FrameData_O[13] *487:20 0
14 *2135:A *487:14 0
15 *122:25 *487:14 0
16 *212:18 *487:10 0.00403426
17 *249:8 *487:10 0.000393428
18 *347:10 *487:10 0.000811423
19 *462:12 *487:14 0
20 *481:18 *487:10 0.00139831
21 *482:8 *487:10 0.00382305
22 *485:20 *487:20 0
*RES
1 *2104:X *487:6 40 
2 *487:6 *487:10 49.767 
3 *487:10 *487:14 48.0057 
4 *487:14 *487:20 33.5548 
5 *487:20 *2313:A 20 
*END

*D_NET *488 0.0110436
*CONN
*I *2314:A I *D sg13g2_buf_1
*I *2105:X O *D sg13g2_buf_1
*CAP
1 *2314:A 0.000270766
2 *2105:X 0.00141451
3 *488:10 0.00373672
4 *488:8 0.00346596
5 *488:6 0.00141451
6 *2314:A *2327:A 0
7 *488:10 *490:16 0.000341711
8 *488:10 *502:18 0
9 FrameData_O[13] *488:10 0
10 FrameData_O[14] *2314:A 0
11 FrameData_O[15] *488:10 0.000287637
12 FrameData_O[16] *2314:A 0.000111828
13 FrameData_O[17] *2314:A 0
14 *133:31 *488:6 0
15 *485:20 *488:10 0
16 *486:38 *488:10 0
17 *487:20 *488:10 0
*RES
1 *2105:X *488:6 35.0277 
2 *488:6 *488:8 20 
3 *488:8 *488:10 32.7334 
4 *488:10 *2314:A 42.6162 
*END

*D_NET *489 0.0206488
*CONN
*I *2018:D I *D sg13g2_dlhq_1
*I *2112:A I *D sg13g2_buf_1
*I *1986:D I *D sg13g2_dlhq_1
*I *2050:D I *D sg13g2_dlhq_1
*I *2197:X O *D sg13g2_buf_1
*CAP
1 *2018:D 0
2 *2112:A 0
3 *1986:D 0
4 *2050:D 0.0021018
5 *2197:X 0.00104594
6 *489:46 0.00239524
7 *489:38 0.000852008
8 *489:36 0.00126042
9 *489:24 0.00126851
10 *489:16 0.00128292
11 *489:8 0.00176221
12 *2050:D *533:20 0
13 *2050:D *546:51 0.0023154
14 *2050:D *546:59 0.000274555
15 *2050:D *547:52 0
16 *2050:D *554:29 0
17 *2050:D *578:90 0.000274812
18 *2050:D *587:67 0
19 *489:8 *546:16 0
20 *489:8 *547:16 0
21 *489:8 *549:12 0
22 *489:8 *550:12 0
23 *489:16 *547:16 0
24 *489:24 *513:10 0
25 *489:24 *553:69 8.03146e-05
26 *489:46 *548:22 0
27 *489:46 *555:16 0
28 *489:46 *587:73 0.000127853
29 *2111:A *489:36 4.77702e-05
30 *2192:A *489:16 0
31 *2193:A *489:8 0.000242186
32 *2194:A *489:8 0.000176817
33 *2197:A *489:8 0.0001773
34 *131:21 *2050:D 0.000825494
35 *131:25 *489:16 0.000890063
36 *131:25 *489:24 0.000371925
37 *131:25 *489:36 0.000565908
38 *131:25 *489:38 0.000824033
39 *131:25 *489:46 0.000242071
40 *423:12 *489:24 0
41 *445:10 *489:8 0.000242213
42 *456:14 *489:16 0.000306984
43 *467:19 *489:38 0
44 *467:19 *489:46 0
45 *467:30 *489:36 8.02267e-05
46 *467:30 *489:38 0
47 *467:40 *489:36 0
48 *478:8 *489:8 0
49 *478:16 *489:8 0
50 *478:28 *489:16 0
51 *478:28 *489:24 0
52 *478:28 *489:36 0.000613791
*RES
1 *2197:X *489:8 29.7541 
2 *489:8 *489:16 47.5293 
3 *489:16 *489:24 45.6135 
4 *489:24 *489:36 47.6117 
5 *489:36 *489:38 5.5105 
6 *489:38 *489:46 42.9561 
7 *489:46 *2050:D 41.9493 
8 *489:38 *1986:D 20 
9 *489:16 *2112:A 20 
10 *489:8 *2018:D 20 
*END

*D_NET *490 0.0159539
*CONN
*I *2315:A I *D sg13g2_buf_1
*I *2106:X O *D sg13g2_buf_1
*CAP
1 *2315:A 8.59835e-05
2 *2106:X 0
3 *490:16 0.00159955
4 *490:10 0.00412382
5 *490:6 0.00261025
6 *490:10 *522:16 0
7 *490:10 *541:10 0.00140429
8 *490:16 *2332:A 0.00217007
9 *490:16 *501:22 0.00258839
10 *421:10 *490:10 0
11 *453:16 *490:10 0
12 *459:28 *490:10 0.000660606
13 *460:54 *490:10 0
14 *464:18 *490:16 0.000369261
15 *488:10 *490:16 0.000341711
*RES
1 *2106:X *490:6 40 
2 *490:6 *490:10 46.059 
3 *490:10 *490:16 38.9932 
4 *490:16 *2315:A 40.7519 
*END

*D_NET *491 0.0221129
*CONN
*I *2316:A I *D sg13g2_buf_1
*I *2107:X O *D sg13g2_buf_1
*CAP
1 *2316:A 0
2 *2107:X 0.000631495
3 *491:32 0.00215536
4 *491:28 0.00488397
5 *491:24 0.00361337
6 *491:18 0.00176827
7 *491:10 0.00151499
8 *491:10 *1899:A1 4.75151e-05
9 *491:10 *492:12 0.000394151
10 *491:10 *505:14 0
11 *491:10 *606:89 4.75151e-05
12 *491:18 *559:36 0.000757639
13 *491:18 *559:47 0
14 *491:18 *579:76 0
15 *491:18 *580:24 0
16 *491:18 *582:68 0.000231432
17 *491:18 *583:47 0.000175693
18 *491:18 *605:59 0
19 *491:24 *561:38 0
20 *491:24 *580:24 0.000402205
21 *491:24 *580:43 0.000402306
22 *491:28 *496:32 0
23 *491:28 *522:24 0.00153385
24 *491:28 *534:16 0
25 *491:32 *492:18 0
26 *491:32 *493:24 0
27 *1917:S1 *491:18 0.000111037
28 *1933:S *491:18 0.000143467
29 *2170:A *491:28 0
30 *417:10 *491:28 0.000597361
31 *449:20 *491:10 0.00186634
32 *453:8 *491:28 0
33 *455:14 *491:10 0.000603707
34 *475:12 *491:18 0.000231238
35 *486:38 *491:32 0
*RES
1 *2107:X *491:10 49.0743 
2 *491:10 *491:18 49.4142 
3 *491:18 *491:24 28.0546 
4 *491:24 *491:28 48.4383 
5 *491:28 *491:32 40.8678 
6 *491:32 *2316:A 20 
*END

*D_NET *492 0.0219421
*CONN
*I *2317:A I *D sg13g2_buf_1
*I *2108:X O *D sg13g2_buf_1
*CAP
1 *2317:A 0.000208749
2 *2108:X 4.75495e-05
3 *492:18 0.00158607
4 *492:14 0.00579203
5 *492:12 0.00547908
6 *492:8 0.00111192
7 *2317:A *2327:A 0
8 *492:8 *2036:D 7.9225e-05
9 *492:8 *605:59 7.9225e-05
10 *492:12 *505:14 0.0027188
11 *492:18 *493:24 0
12 FrameData_O[17] *2317:A 0
13 FrameData_O[18] *2317:A 0
14 FrameData_O[18] *492:18 0.000128662
15 FrameData_O[19] *2317:A 0
16 *2135:A *492:14 0
17 *125:5 *492:14 0
18 *222:10 *492:12 0.000127853
19 *433:10 *492:14 0
20 *449:20 *492:12 0
21 *458:20 *492:14 0
22 *458:26 *492:14 0
23 *462:12 *492:14 0
24 *469:14 *492:14 0
25 *486:38 *492:18 0
26 *487:14 *492:14 0.00418874
27 *491:10 *492:12 0.000394151
28 *491:32 *492:18 0
*RES
1 *2108:X *492:8 40.5356 
2 *492:8 *492:12 32.7102 
3 *492:12 *492:14 44.2282 
4 *492:14 *492:18 32.463 
5 *492:18 *2317:A 41.8334 
*END

*D_NET *493 0.0198364
*CONN
*I *2318:A I *D sg13g2_buf_1
*I *2109:X O *D sg13g2_buf_1
*CAP
1 *2318:A 0
2 *2109:X 0.000555142
3 *493:24 0.00309385
4 *493:22 0.00309385
5 *493:20 0.00308797
6 *493:18 0.00399167
7 *493:8 0.00145884
8 *493:8 *494:10 0
9 *493:8 *511:16 0
10 *493:8 *573:18 0
11 *493:18 *1891:A2 0
12 *493:18 *1913:A0 0.000144931
13 *493:18 *2182:A 4.77425e-05
14 *493:18 *555:49 7.99004e-05
15 *493:18 *573:8 0.00020871
16 *493:18 *590:102 0.000853733
17 *493:20 *1891:A2 0.0001122
18 *493:20 *1979:GATE 0.000338981
19 *493:20 *2040:D 0.000241955
20 *493:20 *2124:A 0
21 *493:20 *530:8 0
22 *493:20 *568:35 0.000209614
23 *493:20 *572:12 0
24 *493:24 *494:16 0
25 *493:24 *496:32 0
26 *1903:S1 *493:18 0.000268003
27 *1921:S0 *493:18 0.000273739
28 *133:21 *493:18 0.000498715
29 *133:31 *493:20 0
30 *283:10 *493:20 0.00127688
31 *485:16 *493:20 0
32 *491:32 *493:24 0
33 *492:18 *493:24 0
*RES
1 *2109:X *493:8 44.5526 
2 *493:8 *493:18 30.4236 
3 *493:18 *493:20 31.0339 
4 *493:20 *493:22 20 
5 *493:22 *493:24 35.4526 
6 *493:24 *2318:A 40 
*END

*D_NET *494 0.0239932
*CONN
*I *2319:A I *D sg13g2_buf_1
*I *2110:X O *D sg13g2_buf_1
*CAP
1 *2319:A 0
2 *2110:X 0
3 *494:16 0.0014001
4 *494:12 0.00578699
5 *494:10 0.00708412
6 *494:6 0.00269723
7 *494:10 *1957:D 0.000498171
8 *494:10 *2024:GATE 0
9 *494:10 *522:34 0.000230615
10 *494:10 *532:10 0
11 *494:10 *533:98 0
12 *494:10 *560:22 0
13 *494:10 *562:10 0
14 *494:10 *567:106 0
15 *494:10 *573:18 0
16 *494:10 *573:96 0
17 *494:10 *579:70 0
18 *494:12 *516:8 0
19 *494:12 *517:16 0
20 *494:12 *517:20 0
21 *494:16 *496:32 0.00315699
22 *494:16 *499:18 0
23 FrameData_O[20] *494:16 0
24 FrameData_O[22] *494:16 0.000129163
25 *2109:A *494:10 0
26 *2135:A *494:12 0
27 *212:46 *494:12 0
28 *247:8 *494:10 0.000496346
29 *298:8 *494:10 0.000390612
30 *311:8 *494:10 0
31 *339:16 *494:10 0.000229061
32 *423:63 *494:10 0.000974567
33 *445:28 *494:10 0
34 *450:16 *494:10 0
35 *452:8 *494:10 0
36 *459:22 *494:10 0
37 *477:40 *494:12 0.000919185
38 *493:8 *494:10 0
39 *493:24 *494:16 0
*RES
1 *2110:X *494:6 40 
2 *494:6 *494:10 47.7894 
3 *494:10 *494:12 43.1467 
4 *494:12 *494:16 35.9238 
5 *494:16 *2319:A 40 
*END

*D_NET *495 0.0204794
*CONN
*I *2320:A I *D sg13g2_buf_1
*I *2092:X O *D sg13g2_buf_1
*CAP
1 *2320:A 0
2 *2092:X 0.0021548
3 *495:26 0.00469574
4 *495:24 0.00618859
5 *495:16 0.00364765
6 *495:16 *1902:A0 0
7 *495:16 *1912:A0 0
8 *495:16 *1993:D 0.00056535
9 *495:16 *1998:GATE 0
10 *495:16 *496:12 0
11 *495:16 *496:18 0.00137567
12 *495:16 *496:22 0
13 *495:16 *505:8 0.000112528
14 *495:16 *546:33 0.000306896
15 *495:16 *546:43 0.000273767
16 *495:16 *546:51 4.77699e-05
17 *495:16 *547:26 0
18 *495:16 *547:32 0
19 *495:16 *549:50 0
20 *495:16 *569:6 0
21 *495:16 *572:26 0
22 *495:24 *2175:A 8.03692e-05
23 *495:24 *496:22 0
24 *495:24 *531:6 0
25 *495:24 *569:19 0.000242213
26 *495:26 *516:14 0
27 *495:26 *516:22 0
28 *495:26 *517:28 0
29 *495:26 *530:18 0
30 *495:26 *534:8 0
31 FrameData_O[2] *495:26 0
32 FrameData_O[4] *495:26 0.000128248
33 *1902:S0 *495:16 0.000209871
34 *131:25 *495:16 4.79124e-05
35 *483:12 *495:16 0.000402025
36 *483:24 *495:16 0
37 *483:24 *495:24 0
38 *483:38 *495:26 0
*RES
1 *2092:X *495:16 42.8946 
2 *495:16 *495:24 34.6157 
3 *495:24 *495:26 47.8126 
4 *495:26 *2320:A 40 
*END

*D_NET *496 0.0236187
*CONN
*I *2321:A I *D sg13g2_buf_1
*I *2111:X O *D sg13g2_buf_1
*CAP
1 *2321:A 7.03585e-05
2 *2111:X 0.000643122
3 *496:32 0.0023744
4 *496:26 0.00474171
5 *496:22 0.00453914
6 *496:18 0.00332574
7 *496:12 0.00186739
8 *2321:A *2327:A 0
9 *496:12 *511:16 7.33256e-05
10 *496:12 *546:33 0
11 *496:12 *553:69 0
12 *496:12 *564:16 0
13 *496:18 *497:8 0.000111827
14 *496:22 *2175:A 0
15 *496:22 *2361:A 0
16 *496:22 *547:16 0
17 *496:22 *569:19 0
18 *496:26 *513:30 0
19 *496:32 *498:32 0
20 *496:32 *499:18 0
21 FrameData_O[21] *2321:A 0
22 *131:25 *496:12 0.000824273
23 *131:25 *496:18 0
24 *131:25 *496:22 0.000177555
25 *483:12 *496:18 0.000337186
26 *485:20 *496:26 0
27 *491:28 *496:32 0
28 *493:24 *496:32 0
29 *494:16 *496:32 0.00315699
30 *495:16 *496:12 0
31 *495:16 *496:18 0.00137567
32 *495:16 *496:22 0
33 *495:24 *496:22 0
*RES
1 *2111:X *496:12 46.8289 
2 *496:12 *496:18 32.1334 
3 *496:18 *496:22 37.3816 
4 *496:22 *496:26 48.7782 
5 *496:26 *496:32 49.0048 
6 *496:32 *2321:A 40.6695 
*END

*D_NET *497 0.0244934
*CONN
*I *2322:A I *D sg13g2_buf_1
*I *2112:X O *D sg13g2_buf_1
*CAP
1 *2322:A 0
2 *2112:X 6.15986e-05
3 *497:18 0.00282084
4 *497:14 0.0068302
5 *497:12 0.00581824
6 *497:8 0.00187048
7 *497:12 *500:34 0
8 *497:12 *513:22 0
9 *497:12 *549:34 0
10 *497:12 *604:24 0
11 *497:12 *610:49 0
12 *497:12 *610:53 0
13 *497:12 *612:121 0
14 *497:12 *619:22 0.00214563
15 *497:14 *1889:A0 0
16 *497:14 *1893:A0 0
17 *497:14 *503:16 0
18 *497:14 *545:30 0
19 *497:14 *567:63 0.000112458
20 *497:14 *567:65 0.000160937
21 *497:18 *498:32 0
22 FrameData_O[24] *497:18 0.000340669
23 *1889:S0 *497:14 0.000792578
24 *1893:S0 *497:14 4.77425e-05
25 *110:8 *497:18 0
26 *127:17 *497:18 0.00071254
27 *129:25 *497:18 0
28 *131:25 *497:8 0.000112501
29 *133:21 *497:12 0
30 *246:10 *497:12 0
31 *264:8 *497:12 0.000282968
32 *366:8 *497:12 0
33 *466:8 *497:14 0.000823418
34 *469:14 *497:12 0.00144879
35 *474:18 *497:12 0
36 *481:14 *497:12 0
37 *486:34 *497:14 0
38 *496:18 *497:8 0.000111827
*RES
1 *2112:X *497:8 40.7519 
2 *497:8 *497:12 41.3622 
3 *497:12 *497:14 39.9022 
4 *497:14 *497:18 48.0366 
5 *497:18 *2322:A 40 
*END

*D_NET *498 0.02554
*CONN
*I *2323:A I *D sg13g2_buf_1
*I *2113:X O *D sg13g2_buf_2
*CAP
1 *2323:A 5.10268e-05
2 *2113:X 0.000133087
3 *498:32 0.0022616
4 *498:28 0.00996465
5 *498:26 0.00775407
6 *498:24 0.000699247
7 *498:16 0.00080161
8 *498:10 0.00023545
9 *2323:A *2327:A 8.00842e-05
10 *498:10 *623:28 4.77702e-05
11 *498:16 *612:38 0.000178985
12 *498:24 *561:18 0
13 *498:24 *576:10 1.54008e-05
14 *498:24 *576:74 0.000126354
15 *498:24 *612:30 0.000401903
16 *498:28 *499:14 0
17 *498:32 *499:18 0
18 FrameData_O[24] *498:32 0.000128315
19 *1939:B1 *498:24 0.000240377
20 *1945:A1 *498:24 8.00842e-05
21 *119:13 *498:28 0
22 *136:13 *498:28 0
23 *229:14 *498:10 0
24 *231:10 *498:24 0.000653113
25 *369:12 *498:10 0
26 *425:26 *498:24 0
27 *443:20 *498:28 0.00168688
28 *496:32 *498:32 0
29 *497:18 *498:32 0
*RES
1 *2113:X *498:10 41.133 
2 *498:10 *498:16 41.1845 
3 *498:16 *498:24 47.8074 
4 *498:24 *498:26 20 
5 *498:26 *498:28 77.971 
6 *498:28 *498:32 40.1262 
7 *498:32 *2323:A 40.5356 
*END

*D_NET *499 0.0228353
*CONN
*I *2324:A I *D sg13g2_buf_1
*I *2114:X O *D sg13g2_buf_1
*CAP
1 *2324:A 0.000419496
2 *2114:X 0.000389512
3 *499:18 0.00244834
4 *499:14 0.00710296
5 *499:12 0.00507411
6 *499:10 0.000389512
7 *499:10 *511:55 0
8 FrameData_O[21] *2324:A 0
9 FrameData_O[22] *2324:A 0.0001773
10 FrameData_O[22] *499:18 7.52158e-05
11 FrameData_O[23] *2324:A 0
12 FrameData_O[24] *499:18 0
13 FrameData_O[25] *2324:A 0
14 FrameData_O[26] *2324:A 4.77702e-05
15 *119:13 *499:14 0.00106484
16 *129:25 *2324:A 0
17 *159:13 *499:14 0.00552537
18 *306:10 *499:10 0.000120838
19 *326:14 *499:10 0
20 *329:12 *499:10 0
21 *494:16 *499:18 0
22 *496:32 *499:18 0
23 *498:28 *499:14 0
24 *498:32 *499:18 0
*RES
1 *2114:X *499:10 43.3887 
2 *499:10 *499:12 20 
3 *499:12 *499:14 63.9115 
4 *499:14 *499:18 38.643 
5 *499:18 *2324:A 43.914 
*END

*D_NET *500 0.0351514
*CONN
*I *1987:D I *D sg13g2_dlhq_1
*I *1955:D I *D sg13g2_dlhq_1
*I *2019:D I *D sg13g2_dlhq_1
*I *2113:A I *D sg13g2_buf_2
*I *2051:D I *D sg13g2_dlhq_1
*I *2198:X O *D sg13g2_buf_2
*CAP
1 *1987:D 0
2 *1955:D 0
3 *2019:D 0
4 *2113:A 0
5 *2051:D 0
6 *2198:X 0.000153822
7 *500:101 5.07987e-05
8 *500:83 0.000614684
9 *500:66 0.00147667
10 *500:58 0.00121175
11 *500:50 0.00188185
12 *500:44 0.00239776
13 *500:36 0.00175642
14 *500:34 0.0011487
15 *500:28 0.000438192
16 *500:24 0.00217165
17 *500:12 0.00325676
18 *500:8 0.00136838
19 *500:8 *608:20 0
20 *500:12 *511:12 0.00225296
21 *500:12 *608:16 0.00163723
22 *500:24 *612:111 0.00134216
23 *500:24 *612:121 2.20966e-05
24 *500:24 *614:24 0.00181732
25 *500:24 *619:22 0
26 *500:36 *539:24 0.00142058
27 *500:44 *1968:GATE 7.33225e-05
28 *500:44 *2032:GATE 0
29 *500:44 *518:12 0
30 *500:44 *539:24 0.000997691
31 *500:44 *579:20 0
32 *500:50 *1972:D 0
33 *500:50 *2004:D 0.000369886
34 *500:50 *2094:A 0.000209171
35 *500:50 *556:16 0
36 *500:50 *556:32 0
37 *500:50 *556:47 0
38 *500:50 *585:90 0
39 *500:50 *605:36 4.77699e-05
40 *500:50 *612:99 0.000403827
41 *500:58 *598:22 0
42 *500:66 *2056:GATE 4.77425e-05
43 *500:66 *512:12 0.00028286
44 *500:66 *585:90 0.000241049
45 *500:66 *623:34 0
46 *500:83 *545:80 0
47 *500:83 *588:34 0.0001122
48 *500:83 *588:49 0.000322791
49 *500:83 *590:26 0
50 *500:83 *612:38 0
51 *500:83 *623:28 4.77425e-05
52 *500:101 *1982:GATE 4.77425e-05
53 *500:101 *602:71 7.30101e-05
54 *1859:B *500:83 0
55 *1927:S1 *500:50 4.24755e-05
56 *1944:C *500:83 4.77425e-05
57 *1944:A *500:83 0
58 *2045:D *500:101 7.30101e-05
59 *2082:A *500:58 0.000272858
60 *2084:A *500:28 0.000176365
61 *62:11 *500:24 0
62 *211:58 *500:24 0.000281284
63 *286:10 *500:44 0.000176485
64 *300:8 *500:44 0.000436724
65 *327:8 *500:50 8.03417e-05
66 *369:12 *500:83 7.52149e-05
67 *369:24 *500:83 0.00011101
68 *406:8 *500:83 0.000125963
69 *408:8 *500:83 0.000129077
70 *422:57 *500:50 0.000482293
71 *422:57 *500:58 0.00061441
72 *422:65 *500:50 0.00104922
73 *425:26 *500:58 7.51285e-05
74 *425:26 *500:66 0.000305017
75 *434:8 *500:24 0
76 *434:12 *500:12 0.00014514
77 *455:14 *500:36 0
78 *456:22 *500:24 0
79 *477:14 *500:66 0.000283363
80 *478:16 *500:24 0.000128113
81 *481:14 *500:34 0
82 *486:8 *500:24 0.000343583
83 *497:12 *500:34 0
*RES
1 *2198:X *500:8 41.5862 
2 *500:8 *500:12 35.0277 
3 *500:12 *500:24 42.7012 
4 *500:24 *500:28 21.1845 
5 *500:28 *500:34 42.3278 
6 *500:34 *500:36 9.4039 
7 *500:36 *500:44 49.6614 
8 *500:44 *500:50 15.9135 
9 *500:50 *500:58 44.0067 
10 *500:58 *500:66 48.1473 
11 *500:66 *2051:D 20 
12 *500:66 *500:83 46.4684 
13 *500:83 *2113:A 20 
14 *500:50 *2019:D 20 
15 *500:36 *500:101 40.6695 
16 *500:101 *1955:D 20 
17 *500:28 *1987:D 20 
*END

*D_NET *501 0.025763
*CONN
*I *2325:A I *D sg13g2_buf_1
*I *2115:X O *D sg13g2_buf_1
*CAP
1 *2325:A 0
2 *2115:X 0
3 *501:22 0.0045315
4 *501:14 0.00577459
5 *501:10 0.00335097
6 *501:6 0.00210787
7 *501:10 *507:8 0
8 *501:10 *510:14 0
9 *501:10 *557:24 0
10 *501:10 *558:33 0
11 *501:10 *613:12 0
12 *501:14 *504:12 0.00201983
13 *501:14 *560:10 0
14 *501:14 *560:16 0.000822717
15 *501:22 *2328:A 0.00137509
16 *501:22 *2332:A 0
17 *501:22 *504:12 0
18 *501:22 *508:16 0.00166455
19 *501:22 *514:16 0.00152752
20 *501:22 *515:34 0
21 *2301:A *501:22 0
22 *243:18 *501:10 0
23 *437:16 *501:10 0
24 *440:16 *501:10 0
25 *464:18 *501:22 0
26 *490:16 *501:22 0.00258839
*RES
1 *2115:X *501:6 40 
2 *501:6 *501:10 38.1486 
3 *501:10 *501:14 13.8638 
4 *501:14 *501:22 45.6187 
5 *501:22 *2325:A 20 
*END

*D_NET *502 0.0288742
*CONN
*I *2326:A I *D sg13g2_buf_1
*I *2116:X O *D sg13g2_buf_1
*CAP
1 *2326:A 5.1837e-05
2 *2116:X 0
3 *502:24 0.00200105
4 *502:18 0.00213229
5 *502:12 0.00420477
6 *502:10 0.00481089
7 *502:6 0.000789192
8 *2326:A *2327:A 0
9 *502:10 *507:8 0.0022956
10 *502:24 *2348:A 0.000112499
11 *502:24 *506:14 0
12 *502:24 *524:10 0.0001773
13 *502:24 *527:12 0.000766325
14 FrameData_O[28] *502:24 7.56308e-05
15 FrameData_O[29] *502:24 0
16 FrameData_O[30] *2326:A 0
17 *2138:A *502:12 0.00169846
18 *124:13 *502:24 0.00156776
19 *125:5 *502:12 0
20 *126:5 *502:12 0
21 *126:5 *502:24 0
22 *212:83 *502:10 0.000760478
23 *431:12 *502:10 0
24 *443:34 *502:10 0
25 *457:12 *502:12 0.00376324
26 *472:14 *502:12 0.00366689
27 *487:20 *502:18 0
28 *488:10 *502:18 0
*RES
1 *2116:X *502:6 40 
2 *502:6 *502:10 30.7326 
3 *502:10 *502:12 45.526 
4 *502:12 *502:18 41.339 
5 *502:18 *502:24 40.2292 
6 *502:24 *2326:A 40.5356 
*END

*D_NET *503 0.0305458
*CONN
*I *2327:A I *D sg13g2_buf_1
*I *2117:X O *D sg13g2_buf_1
*CAP
1 *2327:A 0.00197468
2 *2117:X 0.00230875
3 *503:20 0.00378573
4 *503:16 0.00468972
5 *503:8 0.00518741
6 *2327:A *2332:A 0
7 *2327:A *2351:A 0.000241167
8 *2327:A *517:28 0.000519258
9 *503:8 *1895:A2 0.000515323
10 *503:8 *1927:A0 0
11 *503:8 *2024:GATE 0
12 *503:8 *567:63 0
13 *503:8 *582:42 0.000144915
14 *503:8 *582:51 0.00159571
15 *503:8 *607:26 0.000402879
16 *503:8 *625:28 0
17 *503:16 *2044:D 4.77699e-05
18 *503:20 *513:30 0
19 FrameData_O[11] *2327:A 0
20 FrameData_O[15] *2327:A 8.005e-05
21 FrameData_O[16] *2327:A 0
22 FrameData_O[18] *2327:A 0
23 FrameData_O[20] *2327:A 0
24 FrameData_O[22] *2327:A 0
25 FrameData_O[24] *2327:A 8.00842e-05
26 FrameData_O[26] *2327:A 0
27 *1899:S1 *503:8 0
28 *1904:S1 *503:8 0
29 *1915:S1 *503:16 0.000114722
30 *1920:S1 *503:8 0.0011725
31 *2014:D *503:8 0.000289747
32 *2085:A *503:16 8.02269e-05
33 *2086:A *503:8 0
34 *2310:A *2327:A 0
35 *2314:A *2327:A 0
36 *2317:A *2327:A 0
37 *2321:A *2327:A 0
38 *2323:A *2327:A 8.00842e-05
39 *2326:A *2327:A 0
40 *127:17 *2327:A 0
41 *129:25 *2327:A 0.000176741
42 *286:10 *503:8 0
43 *334:10 *503:8 8.01116e-05
44 *351:10 *503:16 0.000337879
45 *422:79 *503:8 0
46 *422:87 *503:16 0
47 *434:31 *503:8 0.000144915
48 *455:20 *503:16 0
49 *466:8 *503:16 0.000403767
50 *484:10 *503:20 0.00581735
51 *486:30 *503:16 0
52 *486:34 *503:16 0
53 *487:20 *2327:A 0.000274297
54 *497:14 *503:16 0
*RES
1 *2117:X *503:8 43.8136 
2 *503:8 *503:16 46.0796 
3 *503:16 *503:20 47.0478 
4 *503:20 *2327:A 40.7339 
*END

*D_NET *504 0.0350919
*CONN
*I *2328:A I *D sg13g2_buf_1
*I *2118:X O *D sg13g2_buf_2
*CAP
1 *2328:A 0.00141091
2 *2118:X 0
3 *504:12 0.00785721
4 *504:10 0.00890336
5 *504:6 0.00245706
6 *2328:A *2329:A 0
7 *2328:A *2350:A 0
8 *2328:A *505:18 0
9 *504:10 *2056:D 0
10 *504:10 *584:18 0
11 *504:10 *584:20 0
12 *504:10 *628:16 0
13 *504:12 *505:18 0.00619139
14 *504:12 *508:16 0.00166457
15 *504:12 *560:10 0
16 *504:12 *595:12 0.000921014
17 *504:12 *614:16 0
18 FrameData_O[27] *2328:A 1.53846e-05
19 FrameData_O[28] *2328:A 0
20 *111:8 *2328:A 0
21 *127:9 *504:12 0
22 *128:21 *2328:A 0
23 *424:14 *504:12 0
24 *435:16 *504:12 0.00227604
25 *501:14 *504:12 0.00201983
26 *501:22 *2328:A 0.00137509
27 *501:22 *504:12 0
*RES
1 *2118:X *504:6 40 
2 *504:6 *504:10 41.8566 
3 *504:10 *504:12 67.3723 
4 *504:12 *2328:A 33.4518 
*END

*D_NET *505 0.0374291
*CONN
*I *2329:A I *D sg13g2_buf_1
*I *2119:X O *D sg13g2_buf_1
*CAP
1 *2329:A 2.79904e-05
2 *2119:X 8.01523e-05
3 *505:18 0.00532748
4 *505:16 0.00529949
5 *505:14 0.00343613
6 *505:8 0.00351628
7 *505:8 *547:26 0
8 *505:14 *2025:GATE 0
9 *505:14 *583:47 0
10 *505:14 *586:31 0.000340616
11 *505:18 *506:14 0
12 *505:18 *614:16 0.0018235
13 *2275:A *505:14 0.00012785
14 *2328:A *2329:A 0
15 *2328:A *505:18 0
16 *127:9 *505:18 0
17 *267:8 *505:14 0
18 *434:16 *505:14 0
19 *446:16 *505:14 0.00456544
20 *449:20 *505:14 0.00108032
21 *455:14 *505:14 0.00278119
22 *491:10 *505:14 0
23 *492:12 *505:14 0.0027188
24 *495:16 *505:8 0.000112528
25 *504:12 *505:18 0.00619139
*RES
1 *2119:X *505:8 40.7519 
2 *505:8 *505:14 44.496 
3 *505:14 *505:16 20 
4 *505:16 *505:18 51.7987 
5 *505:18 *2329:A 20.3502 
*END

*D_NET *506 0.036138
*CONN
*I *2330:A I *D sg13g2_buf_1
*I *2120:X O *D sg13g2_buf_8
*CAP
1 *2330:A 0
2 *2120:X 0.000166237
3 *506:14 0.00897141
4 *506:12 0.00897141
5 *506:10 0.00433682
6 *506:8 0.00450305
7 *506:8 *2028:D 0
8 *506:10 *1897:A2 0
9 *506:10 *623:18 0
10 *506:10 *629:32 0
11 *506:14 *2348:A 0
12 *506:14 *509:12 0.00525885
13 FrameData_O[29] *506:14 0
14 *124:13 *506:14 0
15 *127:9 *506:14 0
16 *130:9 *506:8 0
17 *137:13 *506:10 0
18 *269:8 *506:10 0
19 *328:22 *506:10 0.00114938
20 *331:12 *506:10 0
21 *427:14 *506:10 0
22 *459:28 *506:14 0.00278083
23 *502:24 *506:14 0
24 *505:18 *506:14 0
*RES
1 *2120:X *506:8 41.4008 
2 *506:8 *506:10 37.183 
3 *506:10 *506:12 20 
4 *506:12 *506:14 92.1815 
5 *506:14 *2330:A 20 
*END

*D_NET *507 0.0249128
*CONN
*I *2331:A I *D sg13g2_buf_1
*I *2093:X O *D sg13g2_buf_1
*CAP
1 *2331:A 0.00257842
2 *2093:X 0
3 *507:22 0.00403029
4 *507:8 0.00510451
5 *507:6 0.00365264
6 *2331:A *2337:A 0
7 *2331:A *510:26 0
8 *2331:A *512:26 0
9 *507:8 *2032:GATE 0.000444964
10 *507:8 *2093:A 0.000182517
11 *507:8 *548:52 0.000977373
12 *507:8 *571:10 0
13 *507:8 *579:20 0.00138926
14 *507:8 *579:24 0
15 *507:8 *609:57 0
16 *507:8 *613:12 0
17 *507:22 *512:26 0
18 *507:22 *515:34 0
19 *507:22 *603:10 0
20 *507:22 *611:12 0
21 E2BEGb[0] *507:22 0
22 E2BEGb[4] *507:22 0
23 E2BEGb[5] *507:22 7.93968e-05
24 E2BEGb[6] *507:22 0
25 E6BEG[10] *2331:A 0.000112528
26 E6BEG[1] *2331:A 0.000112501
27 E6BEG[2] *2331:A 0
28 E6BEG[3] *2331:A 0.00014417
29 E6BEG[5] *2331:A 0.000177442
30 E6BEG[7] *2331:A 0.000209871
31 EE4BEG[10] *2331:A 0.000144197
32 EE4BEG[12] *2331:A 0.000177212
33 EE4BEG[14] *2331:A 0.000209899
34 EE4BEG[15] *2331:A 0
35 EE4BEG[6] *2331:A 8.0185e-05
36 EE4BEG[8] *2331:A 0.000112386
37 FrameData_O[0] *2331:A 0.000144985
38 FrameData_O[2] *2331:A 0.000177442
39 *2275:A *507:22 0
40 *2278:A *507:22 0
41 *2291:A *2331:A 0
42 *2293:A *507:22 0.000208826
43 *2297:A *2331:A 0
44 *2298:A *2331:A 0
45 *2301:A *2331:A 7.99721e-05
46 *2303:A *2331:A 0.000112315
47 *2308:A *2331:A 0
48 *130:21 *507:8 7.61838e-05
49 *212:83 *507:8 0
50 *218:10 *507:8 0
51 *225:8 *507:8 0.000554526
52 *236:8 *507:8 0.000446525
53 *243:18 *507:8 0
54 *348:10 *507:8 0.000128248
55 *438:18 *507:8 0.000656113
56 *440:16 *507:8 0
57 *442:26 *507:22 0
58 *443:34 *507:8 0
59 *448:20 *507:22 0
60 *450:16 *507:22 0
61 *453:16 *2331:A 0
62 *460:54 *2331:A 0.000112315
63 *461:16 *2331:A 0
64 *464:18 *2331:A 0
65 *501:10 *507:8 0
66 *502:10 *507:8 0.0022956
*RES
1 *2093:X *507:6 40 
2 *507:6 *507:8 39.655 
3 *507:8 *507:22 34.0286 
4 *507:22 *2331:A 45.1429 
*END

*D_NET *508 0.0264096
*CONN
*I *2332:A I *D sg13g2_buf_1
*I *2121:X O *D sg13g2_buf_1
*CAP
1 *2332:A 0.00229992
2 *2121:X 0
3 *508:22 0.00235998
4 *508:16 0.000957741
5 *508:12 0.00522789
6 *508:6 0.00433021
7 *2332:A *2337:A 0
8 *2332:A *517:28 0
9 *508:12 *2102:A 0
10 *508:12 *509:8 0.004479
11 *508:12 *575:64 0
12 *508:12 *602:91 0.000235153
13 *508:12 *605:114 0.000341216
14 *508:12 *627:49 0.000498508
15 *2327:A *2332:A 0
16 *211:40 *508:12 0
17 *211:46 *508:12 0
18 *452:16 *508:12 0
19 *454:10 *508:22 0.000180807
20 *469:18 *508:12 0
21 *470:12 *508:12 0
22 *490:16 *2332:A 0.00217007
23 *501:22 *2332:A 0
24 *501:22 *508:16 0.00166455
25 *504:12 *508:16 0.00166457
*RES
1 *2121:X *508:6 40 
2 *508:6 *508:12 41.3133 
3 *508:12 *508:16 31.1343 
4 *508:16 *508:22 40.8446 
5 *508:22 *2332:A 43.381 
*END

*D_NET *509 0.0264888
*CONN
*I *2333:A I *D sg13g2_buf_1
*I *2122:X O *D sg13g2_buf_1
*CAP
1 *2333:A 0
2 *2122:X 0
3 *509:18 0.000177551
4 *509:12 0.00346432
5 *509:10 0.00328677
6 *509:8 0.0033571
7 *509:6 0.0033571
8 *509:8 *2039:GATE 0
9 *509:8 *566:14 0.00172296
10 *509:8 *575:64 0
11 *509:12 *516:22 0.000176883
12 *124:13 *509:12 0
13 *128:21 *509:18 0
14 *211:10 *509:8 0
15 *216:10 *509:8 0
16 *220:14 *509:8 0
17 *296:8 *509:8 0
18 *297:12 *509:8 0
19 *341:10 *509:8 0.000128199
20 *469:18 *509:8 0.00108002
21 *506:14 *509:12 0.00525885
22 *508:12 *509:8 0.004479
*RES
1 *2122:X *509:6 40 
2 *509:6 *509:8 38.9134 
3 *509:8 *509:10 20 
4 *509:10 *509:12 35.3599 
5 *509:12 *509:18 41.8334 
6 *509:18 *2333:A 20 
*END

*D_NET *510 0.021621
*CONN
*I *2334:A I *D sg13g2_buf_1
*I *2094:X O *D sg13g2_buf_1
*CAP
1 *2334:A 0
2 *2094:X 0
3 *510:26 0.000822064
4 *510:16 0.00436196
5 *510:14 0.00676411
6 *510:6 0.00322421
7 *510:14 *518:12 0.000550765
8 *510:14 *557:14 0
9 *510:14 *557:24 0
10 *510:14 *558:16 0
11 *510:14 *558:20 0
12 *510:14 *558:33 0
13 *510:14 *607:20 0
14 *510:16 *512:26 0.00157048
15 *510:16 *512:38 0.00153799
16 *510:16 *515:24 0
17 *510:16 *515:38 0
18 *510:26 *2339:A 0
19 *510:26 *515:46 7.52149e-05
20 E2BEG[2] *510:14 0
21 E2BEG[3] *510:14 0
22 E6BEG[10] *510:26 0.00047378
23 E6BEG[11] *510:26 0
24 EE4BEG[11] *510:16 0
25 EE4BEG[13] *510:16 0
26 EE4BEG[15] *510:16 0
27 EE4BEG[1] *510:16 0
28 FrameData_O[0] *510:26 0.000144843
29 FrameData_O[1] *510:26 0
30 FrameData_O[2] *510:26 0.0001773
31 FrameData_O[3] *510:26 0
32 FrameData_O[4] *510:26 0.000209756
33 FrameData_O[5] *510:26 0
34 *2283:A *510:26 0.000274555
35 *2291:A *510:26 0.00014436
36 *2310:A *510:26 0
37 *2331:A *510:26 0
38 *437:16 *510:14 7.56299e-05
39 *439:12 *510:14 0
40 *463:16 *510:16 0.001214
41 *465:26 *510:16 0
42 *468:34 *510:16 0
43 *501:10 *510:14 0
*RES
1 *2094:X *510:6 40 
2 *510:6 *510:14 47.7173 
3 *510:14 *510:16 34.4947 
4 *510:16 *510:26 49.1114 
5 *510:26 *2334:A 20 
*END

*D_NET *511 0.035527
*CONN
*I *1988:D I *D sg13g2_dlhq_1
*I *2114:A I *D sg13g2_buf_1
*I *2020:D I *D sg13g2_dlhq_1
*I *2052:D I *D sg13g2_dlhq_1
*I *1956:D I *D sg13g2_dlhq_1
*I *2199:X O *D sg13g2_buf_2
*CAP
1 *1988:D 2.18538e-05
2 *2114:A 0
3 *2020:D 0.000104626
4 *2052:D 0.00112346
5 *1956:D 3.04198e-05
6 *2199:X 0.000143842
7 *511:69 0.00140759
8 *511:65 0.00066109
9 *511:55 0.00310499
10 *511:24 0.00298626
11 *511:20 0.000398694
12 *511:16 0.00272779
13 *511:12 0.00455278
14 *511:8 0.00201323
15 *1956:D *559:47 4.77425e-05
16 *1988:D *567:106 4.77425e-05
17 *1988:D *585:98 3.23417e-05
18 *2020:D *616:16 0.000473722
19 *2020:D *620:16 0.000495819
20 *2052:D *2053:D 0
21 *2052:D *522:55 0.000273394
22 *2052:D *570:14 4.77425e-05
23 *2052:D *615:14 0
24 *511:12 *546:16 0.00335523
25 *511:16 *2024:D 0
26 *511:16 *2182:A 0
27 *511:16 *513:22 0
28 *511:16 *545:51 0.000280657
29 *511:16 *553:48 0
30 *511:16 *553:69 0
31 *511:16 *555:49 0.000444536
32 *511:16 *564:16 0
33 *511:16 *564:35 0.000181891
34 *511:16 *567:55 0.000493241
35 *511:16 *567:106 0.000280657
36 *511:16 *572:65 0
37 *511:16 *573:79 0
38 *511:16 *573:96 0
39 *511:16 *574:16 0
40 *511:16 *608:8 0
41 *511:20 *567:106 7.98582e-05
42 *511:20 *585:98 7.98582e-05
43 *511:24 *545:51 0.000388526
44 *511:24 *567:106 0.000655181
45 *511:55 *2045:GATE 0
46 *511:55 *522:24 0.000338538
47 *511:55 *534:24 0
48 *511:55 *534:30 0
49 *511:55 *557:16 0.000208826
50 *511:55 *559:47 0.000179079
51 *511:55 *561:38 0.00103238
52 *511:55 *571:121 0.000629315
53 *511:55 *578:18 0.000161669
54 *511:55 *580:12 0
55 *511:65 *559:30 0.000112426
56 *511:65 *578:18 0.000530036
57 *511:65 *583:32 0.000112426
58 *511:65 *595:20 0.000177891
59 *511:69 *616:16 0.000754501
60 *511:69 *620:16 0.000754085
61 *2109:A *511:16 0
62 *2151:A *2052:D 0
63 *2272:A *511:16 0
64 *260:12 *511:65 0.000178046
65 *306:10 *511:55 4.78772e-05
66 *434:12 *511:12 0
67 *443:26 *511:55 0.00104888
68 *445:22 *511:16 0
69 *445:28 *511:16 0
70 *459:22 *511:24 0
71 *459:22 *511:55 0
72 *473:16 *511:16 0
73 *473:16 *511:24 0
74 *493:8 *511:16 0
75 *496:12 *511:16 7.33256e-05
76 *499:10 *511:55 0
77 *500:12 *511:12 0.00225296
*RES
1 *2199:X *511:8 41.339 
2 *511:8 *511:12 42.3819 
3 *511:12 *511:16 45.5646 
4 *511:16 *511:20 20.5356 
5 *511:20 *511:24 24.3054 
6 *511:24 *1956:D 40.3193 
7 *511:24 *511:55 46.1826 
8 *511:55 *511:65 45.1603 
9 *511:65 *511:69 23.5638 
10 *511:69 *2052:D 49.6202 
11 *511:69 *2020:D 42.3278 
12 *511:55 *2114:A 20 
13 *511:20 *1988:D 20.3193 
*END

*D_NET *512 0.0400983
*CONN
*I *2335:A I *D sg13g2_buf_1
*I *2095:X O *D sg13g2_buf_2
*CAP
1 *2335:A 0
2 *2095:X 2.6501e-05
3 *512:38 0.00179319
4 *512:32 0.00200609
5 *512:26 0.00466222
6 *512:16 0.00615854
7 *512:12 0.00523843
8 *512:8 0.00355572
9 *512:12 *1922:A0 0.000392883
10 *512:12 *2054:GATE 0.000229435
11 *512:12 *546:59 0.000181145
12 *512:12 *547:52 0
13 *512:12 *561:18 0
14 *512:12 *576:40 0
15 *512:12 *576:78 0.00034024
16 *512:12 *576:87 0.00012601
17 *512:12 *578:90 0
18 *512:12 *591:42 0
19 *512:12 *617:10 0
20 *512:16 *617:10 0
21 *512:26 *515:24 0.000857667
22 *512:26 *594:18 0.00105195
23 *512:26 *599:28 0.00072807
24 *512:26 *611:12 0.00147308
25 *512:26 *622:18 0.000306822
26 *512:26 *625:16 0
27 *512:38 *515:38 0.00157034
28 *512:38 *515:46 0
29 E2BEGb[6] *512:26 0
30 E2BEGb[7] *512:26 0.000111712
31 EE4BEG[11] *512:26 0
32 EE4BEG[13] *512:26 0
33 EE4BEG[14] *512:32 0
34 EE4BEG[15] *512:32 0
35 EE4BEG[1] *512:26 0.000144169
36 EE4BEG[3] *512:26 0.000143407
37 EE4BEG[5] *512:26 0.000208397
38 EE4BEG[6] *512:26 0
39 EE4BEG[7] *512:26 0.000241567
40 EE4BEG[8] *512:26 0
41 EE4BEG[9] *512:26 0.000241337
42 FrameData_O[6] *512:38 0.000606278
43 FrameData_O[7] *512:38 0
44 *1861:B_N *512:12 0.000753194
45 *1879:B1 *512:12 0
46 *2255:A *512:16 0
47 *2270:A *512:16 7.51811e-05
48 *2271:A *512:16 0
49 *2297:A *512:26 0
50 *2308:A *512:26 0
51 *2331:A *512:26 0
52 *231:57 *512:12 0.00020869
53 *234:12 *512:12 0
54 *376:10 *512:12 0.000599574
55 *379:8 *512:12 0.000916277
56 *415:8 *512:12 0.000231161
57 *425:14 *512:16 0
58 *426:8 *512:12 0.000234311
59 *442:16 *512:26 0.00111663
60 *444:12 *512:12 0
61 *450:16 *512:26 0
62 *465:26 *512:26 0
63 *468:34 *512:26 0.000176714
64 *476:12 *512:12 0
65 *476:12 *512:16 0
66 *477:14 *512:12 0
67 *500:66 *512:12 0.00028286
68 *507:22 *512:26 0
69 *510:16 *512:26 0.00157048
70 *510:16 *512:38 0.00153799
*RES
1 *2095:X *512:8 40.3193 
2 *512:8 *512:12 35.0303 
3 *512:12 *512:16 36.9126 
4 *512:16 *512:26 48.719 
5 *512:26 *512:32 41.5862 
6 *512:32 *512:38 40.0129 
7 *512:38 *2335:A 40 
*END

*D_NET *513 0.0226108
*CONN
*I *2336:A I *D sg13g2_buf_1
*I *2096:X O *D sg13g2_buf_2
*CAP
1 *2336:A 0
2 *2096:X 0
3 *513:30 0.00287121
4 *513:28 0.00287121
5 *513:26 0.00231654
6 *513:22 0.0041384
7 *513:10 0.00502187
8 *513:8 0.00320001
9 *513:6 0
10 *513:10 *518:14 0
11 *513:10 *547:38 0
12 *513:22 *1899:A0 0.000177977
13 *513:22 *567:20 0
14 *513:22 *572:65 0
15 *513:22 *602:79 0
16 *513:22 *604:24 0
17 *513:26 *533:102 0
18 *513:26 *544:43 0.000505451
19 FrameData_O[9] *513:30 0
20 *245:10 *513:22 0.000396822
21 *246:10 *513:22 0
22 *255:8 *513:22 0
23 *423:12 *513:10 0
24 *445:22 *513:22 0
25 *473:16 *513:22 0
26 *475:12 *513:22 0.000875053
27 *483:12 *513:22 0.000236276
28 *484:10 *513:30 0
29 *489:24 *513:10 0
30 *496:26 *513:30 0
31 *497:12 *513:22 0
32 *503:20 *513:30 0
33 *511:16 *513:22 0
*RES
1 *2096:X *513:6 40 
2 *513:6 *513:8 20 
3 *513:8 *513:10 40.1185 
4 *513:10 *513:22 38.9623 
5 *513:22 *513:26 48.4383 
6 *513:26 *513:28 20 
7 *513:28 *513:30 31.4974 
8 *513:30 *2336:A 40 
*END

*D_NET *514 0.0222185
*CONN
*I *2337:A I *D sg13g2_buf_1
*I *2097:X O *D sg13g2_buf_1
*CAP
1 *2337:A 0.00161942
2 *2097:X 0
3 *514:22 0.00173986
4 *514:16 0.000966188
5 *514:12 0.00285721
6 *514:6 0.00201147
7 *2337:A *517:28 0
8 *514:12 *604:24 0.000602117
9 *514:12 *623:46 0.000177442
10 E6BEG[9] *2337:A 7.97574e-05
11 FrameData_O[6] *2337:A 7.97219e-05
12 *2331:A *2337:A 0
13 *2332:A *2337:A 0
14 *422:87 *514:12 0
15 *453:16 *2337:A 0
16 *460:54 *2337:A 0
17 *463:8 *514:22 0.000396709
18 *464:18 *2337:A 0
19 *464:18 *514:16 0.00143053
20 *474:18 *514:12 0.00232746
21 *475:12 *514:12 0.0064031
22 *501:22 *514:16 0.00152752
*RES
1 *2097:X *514:6 40 
2 *514:6 *514:12 30.9 
3 *514:12 *514:16 30.2691 
4 *514:16 *514:22 41.8334 
5 *514:22 *2337:A 35.5942 
*END

*D_NET *515 0.0252009
*CONN
*I *2338:A I *D sg13g2_buf_1
*I *2098:X O *D sg13g2_buf_1
*CAP
1 *2338:A 0
2 *2098:X 0
3 *515:54 0.000268699
4 *515:46 0.00123713
5 *515:38 0.00291646
6 *515:34 0.00268936
7 *515:24 0.0029218
8 *515:18 0.00476556
9 *515:6 0.00258508
10 *515:18 *1989:GATE 0
11 *515:18 *563:53 0
12 *515:18 *604:8 0
13 *515:18 *609:16 0
14 *515:18 *618:24 0.000300519
15 *515:24 *611:16 0
16 *515:54 *2339:A 0.000144217
17 *515:54 *517:28 0.000144956
18 E2BEGb[7] *515:24 0
19 E6BEG[11] *515:46 0
20 EE4BEG[0] *515:24 0
21 EE4BEG[2] *515:34 0
22 EE4BEG[3] *515:34 0.000181608
23 EE4BEG[4] *515:34 0
24 FrameData_O[1] *515:46 0
25 FrameData_O[3] *515:46 0.000339421
26 FrameData_O[5] *515:46 0
27 FrameData_O[7] *515:54 0.000394151
28 FrameData_O[8] *515:54 0
29 *2242:A *515:18 0
30 *2243:A *515:18 0.00012816
31 *2293:A *515:34 0.000209526
32 *2301:A *515:34 4.77702e-05
33 *430:26 *515:18 0.00342324
34 *454:18 *515:46 0
35 *473:16 *515:34 0
36 *501:22 *515:34 0
37 *507:22 *515:34 0
38 *510:16 *515:24 0
39 *510:16 *515:38 0
40 *510:26 *515:46 7.52149e-05
41 *512:26 *515:24 0.000857667
42 *512:38 *515:38 0.00157034
43 *512:38 *515:46 0
*RES
1 *2098:X *515:6 40 
2 *515:6 *515:18 47.398 
3 *515:18 *515:24 40.7236 
4 *515:24 *515:34 46.9834 
5 *515:34 *515:38 40.0026 
6 *515:38 *515:46 48.5181 
7 *515:46 *515:54 43.296 
8 *515:54 *2338:A 20 
*END

*D_NET *516 0.0181048
*CONN
*I *2339:A I *D sg13g2_buf_1
*I *2099:X O *D sg13g2_buf_1
*CAP
1 *2339:A 0.000676663
2 *2099:X 3.15674e-05
3 *516:22 0.00153499
4 *516:14 0.00162944
5 *516:8 0.00481174
6 *516:6 0.00407219
7 *2339:A *517:28 0
8 *516:6 *602:60 0
9 *516:8 *1958:GATE 0.000339353
10 *516:8 *517:10 0.000499301
11 *516:8 *534:16 0
12 *516:8 *559:60 0.000257713
13 *516:8 *582:68 0
14 *516:8 *602:60 0.000177332
15 *516:14 *517:28 0.00172501
16 FrameData_O[4] *2339:A 0.0001773
17 FrameData_O[6] *516:22 0
18 FrameData_O[7] *2339:A 0.00011123
19 FrameData_O[9] *2339:A 0.000144985
20 *1934:A1 *516:8 0
21 *2145:A *516:8 0
22 *2310:A *2339:A 4.7885e-05
23 *124:13 *516:22 0
24 *212:46 *516:8 0
25 *212:54 *516:8 0.000532632
26 *212:62 *516:8 0.000193425
27 *212:72 *516:8 0.000370116
28 *367:10 *516:8 0.000208968
29 *430:22 *516:8 0.000241868
30 *431:6 *516:8 0
31 *481:14 *516:8 0
32 *483:38 *516:14 0
33 *484:10 *516:22 0
34 *494:12 *516:8 0
35 *495:26 *516:14 0
36 *495:26 *516:22 0
37 *509:12 *516:22 0.000176883
38 *510:26 *2339:A 0
39 *515:54 *2339:A 0.000144217
*RES
1 *2099:X *516:6 20.3502 
2 *516:6 *516:8 39.6859 
3 *516:8 *516:14 49.991 
4 *516:14 *516:22 47.7147 
5 *516:22 *2339:A 26.6744 
*END

*D_NET *517 0.0174151
*CONN
*I *2340:A I *D sg13g2_buf_1
*I *2100:X O *D sg13g2_buf_1
*CAP
1 *2340:A 0
2 *2100:X 0.000371322
3 *517:28 0.00211593
4 *517:20 0.00476277
5 *517:16 0.00374707
6 *517:10 0.00147156
7 FrameData_O[6] *517:28 7.99037e-05
8 *1888:S1 *517:16 7.48093e-05
9 *1932:S *517:16 4.77425e-05
10 *2135:A *517:20 0
11 *2327:A *517:28 0.000519258
12 *2332:A *517:28 0
13 *2337:A *517:28 0
14 *2339:A *517:28 0
15 *122:25 *517:16 0
16 *122:25 *517:20 0
17 *342:10 *517:16 8.02267e-05
18 *430:14 *517:10 0.00012816
19 *430:22 *517:10 0.000499273
20 *443:34 *517:10 0.00034024
21 *444:24 *517:16 0.000339441
22 *444:28 *517:10 0
23 *451:20 *517:16 0.000468122
24 *477:40 *517:16 0
25 *483:38 *517:28 0
26 *494:12 *517:16 0
27 *494:12 *517:20 0
28 *495:26 *517:28 0
29 *515:54 *517:28 0.000144956
30 *516:8 *517:10 0.000499301
31 *516:14 *517:28 0.00172501
*RES
1 *2100:X *517:10 44.9337 
2 *517:10 *517:16 30.6193 
3 *517:16 *517:20 44.5449 
4 *517:20 *517:28 40.8884 
5 *517:28 *2340:A 20 
*END

*D_NET *518 0.0160265
*CONN
*I *2341:A I *D sg13g2_buf_1
*I *2123:X O *D sg13g2_buf_1
*CAP
1 *2341:A 0
2 *2123:X 0.000129114
3 *518:18 0
4 *518:14 0.00472243
5 *518:12 0.00717955
6 *518:8 0.00258624
7 *518:8 *559:36 0.000176369
8 *518:8 *583:32 0
9 *518:12 *551:25 0
10 *518:12 *555:43 0
11 *518:12 *557:14 0
12 *518:12 *566:49 0
13 *518:12 *625:41 0.000553766
14 *278:8 *518:12 0.000128248
15 *287:8 *518:12 0
16 *288:12 *518:12 0
17 *445:38 *518:12 0
18 *500:44 *518:12 0
19 *510:14 *518:12 0.000550765
20 *513:10 *518:14 0
*RES
1 *2123:X *518:8 41.1845 
2 *518:8 *518:12 44.0814 
3 *518:12 *518:14 60.8833 
4 *518:14 *518:18 40 
5 *518:18 *2341:A 20 
*END

*D_NET *519 0.00191887
*CONN
*I *2342:A I *D sg13g2_buf_1
*I *2133:X O *D sg13g2_buf_1
*CAP
1 *2342:A 0.000154901
2 *2133:X 0.000715645
3 *519:10 0.000870547
4 *2342:A *540:10 0
5 *519:10 *520:10 0
6 *519:10 *523:18 4.86125e-05
7 *519:10 *538:8 0.000129163
*RES
1 *2133:X *519:10 48.8271 
2 *519:10 *2342:A 41.4008 
*END

*D_NET *520 0.0010904
*CONN
*I *2343:A I *D sg13g2_buf_1
*I *2134:X O *D sg13g2_buf_1
*CAP
1 *2343:A 0
2 *2134:X 0.000545199
3 *520:10 0.000545199
4 *520:10 *2344:A 0
5 *520:10 *2345:A 0
6 *519:10 *520:10 0
*RES
1 *2134:X *520:10 46.1697 
2 *520:10 *2343:A 40 
*END

*D_NET *521 0.000482452
*CONN
*I *2344:A I *D sg13g2_buf_1
*I *2135:X O *D sg13g2_buf_1
*CAP
1 *2344:A 0.000241226
2 *2135:X 0.000241226
3 *520:10 *2344:A 0
*RES
1 *2135:X *2344:A 42.3175 
*END

*D_NET *522 0.0279954
*CONN
*I *1957:D I *D sg13g2_dlhq_1
*I *2115:A I *D sg13g2_buf_1
*I *2053:D I *D sg13g2_dlhq_1
*I *2021:D I *D sg13g2_dlhq_1
*I *1989:D I *D sg13g2_dlhq_1
*I *2200:X O *D sg13g2_buf_2
*CAP
1 *1957:D 0.000240631
2 *2115:A 0
3 *2053:D 0.00129856
4 *2021:D 0
5 *1989:D 0.000272276
6 *2200:X 0.000778943
7 *522:61 0.00132465
8 *522:55 0.00159711
9 *522:38 0.00230661
10 *522:34 0.00182546
11 *522:24 0.00372892
12 *522:16 0.00486564
13 *522:12 0.00351845
14 *1957:D *562:10 0
15 *1989:D *571:121 0
16 *1989:D *605:53 8.00842e-05
17 *1989:D *612:87 8.02267e-05
18 *2053:D *615:14 0
19 *522:12 *545:8 0.000177442
20 *522:12 *547:16 0
21 *522:12 *549:12 0.000372182
22 *522:16 *541:10 0
23 *522:16 *544:20 0
24 *522:16 *572:97 0
25 *522:16 *608:20 0
26 *522:16 *608:24 0
27 *522:24 *534:24 0
28 *522:24 *561:38 0
29 *522:34 *559:36 0
30 *522:34 *561:38 0
31 *522:34 *562:10 0
32 *522:34 *580:22 0.000564862
33 *522:38 *2123:A 8.00842e-05
34 *522:38 *559:36 0
35 *522:38 *561:38 0
36 *522:38 *578:6 0.000338192
37 *522:55 *1989:GATE 0
38 *522:55 *534:36 0
39 *522:55 *534:51 0
40 *522:55 *571:121 0
41 *522:55 *615:22 4.77425e-05
42 *522:61 *2006:GATE 0.00012785
43 *522:61 *599:32 0.00012785
44 *1924:S0 *522:55 0
45 *2046:D *522:34 4.77699e-05
46 *2052:D *2053:D 0
47 *2052:D *522:55 0.000273394
48 *2151:A *2053:D 0
49 *2162:A *522:24 0.000144772
50 *2169:A *522:24 0
51 *2170:A *522:24 0
52 *321:10 *522:24 8.00842e-05
53 *326:14 *522:55 0
54 *326:24 *522:55 0.000370419
55 *419:8 *522:16 0
56 *432:14 *1957:D 0
57 *444:18 *522:55 0
58 *447:12 *1989:D 0
59 *447:12 *522:55 0
60 *450:8 *522:24 0.000724053
61 *453:16 *522:16 0
62 *490:10 *522:16 0
63 *491:28 *522:24 0.00153385
64 *494:10 *1957:D 0.000498171
65 *494:10 *522:34 0.000230615
66 *511:55 *522:24 0.000338538
*RES
1 *2200:X *522:12 47.2615 
2 *522:12 *522:16 49.2726 
3 *522:16 *522:24 41.7536 
4 *522:24 *522:34 32.8956 
5 *522:34 *522:38 24.2127 
6 *522:38 *1989:D 42.369 
7 *522:38 *522:55 33.8912 
8 *522:55 *522:61 40.5974 
9 *522:61 *2021:D 20 
10 *522:61 *2053:D 30.403 
11 *522:34 *2115:A 20 
12 *522:24 *1957:D 43.0797 
*END

*D_NET *523 0.000881676
*CONN
*I *2345:A I *D sg13g2_buf_1
*I *2136:X O *D sg13g2_buf_1
*CAP
1 *2345:A 0.000102078
2 *2136:X 0.000314454
3 *523:18 0.000416532
4 *519:10 *523:18 4.86125e-05
5 *520:10 *2345:A 0
*RES
1 *2136:X *523:18 43.7389 
2 *523:18 *2345:A 40.9682 
*END

*D_NET *524 0.00121298
*CONN
*I *2346:A I *D sg13g2_buf_1
*I *2137:X O *D sg13g2_buf_1
*CAP
1 *2346:A 0
2 *2137:X 0.000517842
3 *524:10 0.000517842
4 *524:10 *2347:A 0
5 *524:10 *2348:A 0
6 *524:10 *526:8 0
7 *502:24 *524:10 0.0001773
*RES
1 *2137:X *524:10 46.1697 
2 *524:10 *2346:A 40 
*END

*D_NET *525 0.00049816
*CONN
*I *2347:A I *D sg13g2_buf_1
*I *2138:X O *D sg13g2_buf_1
*CAP
1 *2347:A 0.00024908
2 *2138:X 0.00024908
3 *2139:A *2347:A 0
4 *524:10 *2347:A 0
*RES
1 *2138:X *2347:A 42.5647 
*END

*D_NET *526 0.00100605
*CONN
*I *2348:A I *D sg13g2_buf_1
*I *2139:X O *D sg13g2_buf_1
*CAP
1 *2348:A 0.000211753
2 *2139:X 0.000235023
3 *526:8 0.000446775
4 *128:21 *526:8 0
5 *502:24 *2348:A 0.000112499
6 *506:14 *2348:A 0
7 *524:10 *2348:A 0
8 *524:10 *526:8 0
*RES
1 *2139:X *526:8 42.575 
2 *526:8 *2348:A 42.0703 
*END

*D_NET *527 0.00206254
*CONN
*I *2349:A I *D sg13g2_buf_1
*I *2140:X O *D sg13g2_buf_1
*CAP
1 *2349:A 8.42111e-05
2 *2140:X 0.000365983
3 *527:12 0.000450194
4 *527:12 *2350:A 0
5 *527:12 *2351:A 0
6 FrameData_O[28] *527:12 0.00039583
7 FrameData_O[29] *2349:A 0
8 *111:8 *2349:A 0
9 *128:21 *527:12 0
10 *502:24 *527:12 0.000766325
*RES
1 *2140:X *527:12 45.1294 
2 *527:12 *2349:A 40.7519 
*END

*D_NET *528 0.000552065
*CONN
*I *2350:A I *D sg13g2_buf_1
*I *2141:X O *D sg13g2_buf_1
*CAP
1 *2350:A 0.000220365
2 *2141:X 0.000220365
3 *2350:A *2351:A 0
4 FrameData_O[28] *2350:A 0.000111334
5 *2328:A *2350:A 0
6 *527:12 *2350:A 0
*RES
1 *2141:X *2350:A 42.2145 
*END

*D_NET *529 0.000726173
*CONN
*I *2351:A I *D sg13g2_buf_1
*I *2142:X O *D sg13g2_buf_1
*CAP
1 *2351:A 0.000242503
2 *2142:X 0.000242503
3 FrameStrobe_O[19] *2351:A 0
4 *2327:A *2351:A 0.000241167
5 *2350:A *2351:A 0
6 *527:12 *2351:A 0
*RES
1 *2142:X *2351:A 42.4617 
*END

*D_NET *530 0.00712103
*CONN
*I *2352:A I *D sg13g2_buf_1
*I *2124:X O *D sg13g2_buf_1
*CAP
1 *2352:A 0
2 *2124:X 0.000555609
3 *530:18 0.0025276
4 *530:8 0.00308321
5 *530:18 *531:6 0
6 *530:18 *531:14 0
7 *530:18 *534:8 0
8 *485:16 *530:8 0.000954607
9 *493:20 *530:8 0
10 *495:26 *530:18 0
*RES
1 *2124:X *530:8 46.3757 
2 *530:8 *530:18 47.604 
3 *530:18 *2352:A 20 
*END

*D_NET *531 0.00667732
*CONN
*I *2353:A I *D sg13g2_buf_1
*I *2125:X O *D sg13g2_buf_1
*CAP
1 *2353:A 0
2 *2125:X 0.00259983
3 *531:14 0.000738832
4 *531:6 0.00333866
5 *483:24 *531:6 0
6 *495:24 *531:6 0
7 *530:18 *531:6 0
8 *530:18 *531:14 0
*RES
1 *2125:X *531:6 48.4383 
2 *531:6 *531:14 48.4872 
3 *531:14 *2353:A 20 
*END

*D_NET *532 0.0118042
*CONN
*I *2354:A I *D sg13g2_buf_1
*I *2126:X O *D sg13g2_buf_1
*CAP
1 *2354:A 0
2 *2126:X 0
3 *532:16 0
4 *532:12 0.00400302
5 *532:10 0.00590211
6 *532:6 0.00189909
7 *532:10 *1904:A3 0
8 *532:10 *533:98 0
9 *532:10 *562:16 0
10 *532:10 *579:70 0
11 *532:10 *603:14 0
12 *532:12 *566:14 0
13 *133:11 *532:12 0
14 *247:8 *532:10 0
15 *474:16 *532:12 0
16 *494:10 *532:10 0
*RES
1 *2126:X *532:6 40 
2 *532:6 *532:10 35.4294 
3 *532:10 *532:12 50.2846 
4 *532:12 *532:16 40 
5 *532:16 *2354:A 20 
*END

*D_NET *533 0.0270295
*CONN
*I *1904:A3 I *D sg13g2_mux4_1
*I *1933:A1 I *D sg13g2_mux2_1
*I *2063:D I *D sg13g2_dfrbpq_2
*I *1914:A3 I *D sg13g2_mux4_1
*I *1898:A3 I *D sg13g2_mux4_1
*I *1894:A3 I *D sg13g2_mux4_1
*I *1896:A3 I *D sg13g2_mux4_1
*I *2201:X O *D sg13g2_buf_2
*CAP
1 *1904:A3 2.60454e-05
2 *1933:A1 0.000245357
3 *2063:D 0.000790902
4 *1914:A3 3.34444e-05
5 *1898:A3 2.96211e-05
6 *1894:A3 4.9749e-05
7 *1896:A3 0
8 *2201:X 0.000360304
9 *533:112 0.00137242
10 *533:108 0.000396571
11 *533:102 0.00109908
12 *533:98 0.00233693
13 *533:83 0.00156376
14 *533:70 0.000287726
15 *533:68 0.000455593
16 *533:60 0.00171538
17 *533:45 0.00221381
18 *533:28 0.0010829
19 *533:20 0.00166719
20 *533:8 0.00184887
21 *1904:A3 *603:14 5.33604e-05
22 *1914:A3 *597:18 4.77425e-05
23 *1933:A1 *561:42 0
24 *2063:D *1889:A1 0.000337622
25 *2063:D *1991:GATE 0
26 *2063:D *2061:RESET_B 0
27 *2063:D *545:30 0
28 *533:20 *2001:GATE 0.000129537
29 *533:20 *2002:GATE 0.000145247
30 *533:20 *2120:A 0
31 *533:20 *547:42 0
32 *533:20 *547:52 0
33 *533:20 *549:64 0.00160095
34 *533:20 *578:78 0
35 *533:28 *549:64 0
36 *533:45 *549:64 0
37 *533:45 *571:42 0
38 *533:45 *606:67 0
39 *533:45 *616:34 0
40 *533:60 *1918:A1 0
41 *533:60 *1978:D 0.000594805
42 *533:60 *2173:A 0.000144875
43 *533:60 *549:50 0
44 *533:60 *563:8 0
45 *533:60 *597:18 0
46 *533:60 *606:50 0
47 *533:68 *573:22 0.000126302
48 *533:68 *611:39 0
49 *533:83 *1914:A0 0.000233706
50 *533:83 *1914:A2 0.0001122
51 *533:83 *586:47 0
52 *533:83 *597:8 0
53 *533:98 *1914:A0 5.15366e-05
54 *533:98 *564:16 0
55 *533:98 *603:14 0.000134877
56 *533:98 *603:16 0
57 *533:98 *611:24 0.00102488
58 *533:98 *611:26 0.00128984
59 *533:102 *544:43 0
60 *533:112 *561:42 0
61 *533:112 *605:65 0
62 *1889:S0 *2063:D 0
63 *1918:S1 *533:60 0
64 *2048:D *533:60 0
65 *2050:D *533:20 0
66 *2061:D *2063:D 0
67 *2068:A *533:45 0.000304869
68 *2068:A *533:60 0
69 *131:21 *533:20 0
70 *214:10 *533:20 0
71 *226:14 *533:20 0
72 *328:16 *533:28 0
73 *328:16 *533:45 0.000305114
74 *344:10 *533:45 0.000286493
75 *351:10 *533:112 0
76 *422:87 *533:108 0.000112501
77 *423:16 *533:68 0.000126302
78 *427:14 *533:8 0
79 *428:16 *533:28 0
80 *449:16 *533:60 0
81 *455:14 *533:102 0
82 *456:50 *1898:A3 4.77425e-05
83 *456:50 *533:60 0
84 *456:50 *533:83 0.000272718
85 *456:64 *533:60 0
86 *465:16 *1933:A1 0.000603641
87 *466:16 *1933:A1 0.000918954
88 *466:16 *533:112 0.000335652
89 *486:30 *533:108 0.000112359
90 *494:10 *533:98 0
91 *513:26 *533:102 0
92 *532:10 *1904:A3 0
93 *532:10 *533:98 0
*RES
1 *2201:X *533:8 44.5526 
2 *533:8 *533:20 36.3976 
3 *533:20 *533:28 41.8746 
4 *533:28 *1896:A3 20 
5 *533:28 *533:45 49.682 
6 *533:45 *1894:A3 20.5974 
7 *533:45 *533:60 32.051 
8 *533:60 *533:68 45.2427 
9 *533:68 *533:70 20 
10 *533:70 *1898:A3 20.3193 
11 *533:70 *533:83 22.9252 
12 *533:83 *1914:A3 40.3193 
13 *533:83 *533:98 13.6269 
14 *533:98 *533:102 30.918 
15 *533:102 *533:108 40.7519 
16 *533:108 *533:112 23.3166 
17 *533:112 *2063:D 47.6735 
18 *533:112 *1933:A1 44.3054 
19 *533:98 *1904:A3 40.3502 
*END

*D_NET *534 0.026356
*CONN
*I *1958:D I *D sg13g2_dlhq_1
*I *2116:A I *D sg13g2_buf_1
*I *2022:D I *D sg13g2_dlhq_1
*I *2054:D I *D sg13g2_dlhq_1
*I *1990:D I *D sg13g2_dlhq_1
*I *2202:X O *D sg13g2_buf_2
*CAP
1 *1958:D 0
2 *2116:A 0
3 *2022:D 0
4 *2054:D 0.00021628
5 *1990:D 0
6 *2202:X 0
7 *534:68 0.000178702
8 *534:53 0.00114345
9 *534:51 0.00135669
10 *534:36 0.00152583
11 *534:30 0.00183886
12 *534:24 0.00188522
13 *534:22 0.00107254
14 *534:16 0.0022195
15 *534:8 0.0050134
16 *534:6 0.00290248
17 *2054:D *593:18 0.000305966
18 *2054:D *615:14 0
19 *534:8 *544:8 0
20 *534:30 *2045:GATE 8.01995e-05
21 *534:30 *579:8 4.75166e-05
22 *534:30 *580:12 0.000272718
23 *534:36 *1888:A1 0
24 *534:36 *1989:GATE 0
25 *534:36 *581:25 4.77425e-05
26 *534:36 *581:34 0.000614933
27 *534:36 *615:29 0
28 *534:51 *610:18 0.000229431
29 *534:51 *612:20 0.000229431
30 *534:51 *615:29 0
31 *534:53 *2006:GATE 4.77425e-05
32 *534:53 *584:96 4.75151e-05
33 *534:53 *593:18 0.000498792
34 *534:53 *615:14 0
35 *534:68 *598:18 0.000340288
36 *1916:S0 *534:36 0.000128618
37 *1924:A2 *534:51 0.000175693
38 *1934:S *534:24 0.000240492
39 *2166:A *534:16 0
40 *2169:A *534:24 0
41 *2170:A *534:16 0
42 *212:18 *534:22 0.00012816
43 *212:46 *534:22 0.00018091
44 *326:14 *534:51 0.000466373
45 *367:10 *534:16 0
46 *421:10 *534:16 0
47 *424:33 *534:53 7.98567e-05
48 *432:14 *534:24 0.00156476
49 *432:14 *534:30 0
50 *432:14 *534:36 0
51 *443:26 *534:30 0
52 *443:26 *534:36 0
53 *450:8 *534:24 0
54 *461:8 *534:16 0.00127586
55 *465:16 *534:22 0
56 *484:10 *534:8 0
57 *491:28 *534:16 0
58 *495:26 *534:8 0
59 *511:55 *534:24 0
60 *511:55 *534:30 0
61 *516:8 *534:16 0
62 *522:24 *534:24 0
63 *522:55 *534:36 0
64 *522:55 *534:51 0
65 *530:18 *534:8 0
*RES
1 *2202:X *534:6 40 
2 *534:6 *534:8 31.2502 
3 *534:8 *534:16 42.0626 
4 *534:16 *534:22 41.339 
5 *534:22 *534:24 10.4854 
6 *534:24 *534:30 8.6211 
7 *534:30 *534:36 9.3009 
8 *534:36 *1990:D 20 
9 *534:36 *534:51 46.5199 
10 *534:51 *534:53 6.592 
11 *534:53 *2054:D 22.0497 
12 *534:53 *534:68 41.9055 
13 *534:68 *2022:D 20 
14 *534:30 *2116:A 20 
15 *534:24 *1958:D 20 
*END

*D_NET *535 0.00217552
*CONN
*I *2355:A I *D sg13g2_buf_1
*I *2127:X O *D sg13g2_buf_1
*CAP
1 *2355:A 0.000236557
2 *2127:X 0.000851202
3 *535:8 0.00108776
4 *133:31 *2355:A 0
5 *133:37 *535:8 0
*RES
1 *2127:X *535:8 48.5078 
2 *535:8 *2355:A 42.6986 
*END

*D_NET *536 0.0253296
*CONN
*I *2356:A I *D sg13g2_buf_1
*I *2128:X O *D sg13g2_buf_8
*CAP
1 *2356:A 0
2 *2128:X 0
3 *536:28 0
4 *536:24 0.00261073
5 *536:22 0.00628642
6 *536:18 0.00520725
7 *536:14 0.00415761
8 *536:10 0.00425862
9 *536:6 0.00163257
10 *536:10 *593:14 0
11 *536:22 *620:22 0.000343891
12 *536:22 *620:38 0
13 *2222:A *536:10 0
14 *121:13 *536:14 0
15 *122:11 *536:10 0
16 *123:11 *536:10 0
17 *124:11 *536:10 0
18 *128:11 *536:10 0
19 *273:16 *536:22 0
20 *279:22 *536:22 0
21 *280:32 *536:22 0
22 *394:14 *536:22 0.000832509
*RES
1 *2128:X *536:6 40 
2 *536:6 *536:10 34.6878 
3 *536:10 *536:14 48.6546 
4 *536:14 *536:18 38.8902 
5 *536:18 *536:22 42.1991 
6 *536:22 *536:24 33.6295 
7 *536:24 *536:28 40 
8 *536:28 *2356:A 20 
*END

*D_NET *537 0.00121431
*CONN
*I *2357:A I *D sg13g2_buf_1
*I *2129:X O *D sg13g2_buf_1
*CAP
1 *2357:A 6.73327e-05
2 *2129:X 0.000539824
3 *537:10 0.000607157
4 *2357:A *2358:A 0
5 *537:10 *2358:A 0
6 *537:10 *538:8 0
7 *537:10 *539:30 0
8 *133:37 *537:10 0
*RES
1 *2129:X *537:10 46.0152 
2 *537:10 *2357:A 40.7519 
*END

*D_NET *538 0.00178129
*CONN
*I *2358:A I *D sg13g2_buf_1
*I *2130:X O *D sg13g2_buf_1
*CAP
1 *2358:A 0.000163545
2 *2130:X 0.000662519
3 *538:8 0.000826064
4 *538:8 *540:10 0
5 *2357:A *2358:A 0
6 *133:37 *538:8 0
7 *519:10 *538:8 0.000129163
8 *537:10 *2358:A 0
9 *537:10 *538:8 0
*RES
1 *2130:X *538:8 48.0134 
2 *538:8 *2358:A 41.6171 
*END

*D_NET *539 0.0311318
*CONN
*I *2359:A I *D sg13g2_buf_1
*I *2131:X O *D sg13g2_buf_2
*CAP
1 *2359:A 0
2 *2131:X 0
3 *539:30 8.34852e-05
4 *539:24 0.0058126
5 *539:22 0.00667701
6 *539:18 0.00313353
7 *539:10 0.0041717
8 *539:6 0.00198606
9 *539:10 *590:16 0
10 *539:10 *590:26 0
11 *539:10 *600:12 0
12 *539:10 *629:14 0
13 *539:18 *557:38 0.000112198
14 *539:18 *582:14 0
15 *539:18 *584:96 0
16 *539:18 *593:18 0
17 *539:22 *551:67 0.000487118
18 *539:22 *605:36 0
19 *539:22 *615:22 0.000229428
20 *539:22 *625:26 0.00243218
21 *539:22 *627:20 0
22 *539:24 *545:66 0.00358816
23 *2254:A *539:10 0
24 *135:13 *539:24 0
25 *455:14 *539:24 0
26 *477:20 *539:18 0
27 *479:10 *539:24 0
28 *480:16 *539:22 0
29 *500:36 *539:24 0.00142058
30 *500:44 *539:24 0.000997691
31 *537:10 *539:30 0
*RES
1 *2131:X *539:6 40 
2 *539:6 *539:10 35.9238 
3 *539:10 *539:18 39.5906 
4 *539:18 *539:22 31.4742 
5 *539:22 *539:24 68.2459 
6 *539:24 *539:30 40.8446 
7 *539:30 *2359:A 20 
*END

*D_NET *540 0.000682633
*CONN
*I *2360:A I *D sg13g2_buf_1
*I *2132:X O *D sg13g2_buf_1
*CAP
1 *2360:A 0
2 *2132:X 0.000341316
3 *540:10 0.000341316
4 *2342:A *540:10 0
5 *538:8 *540:10 0
*RES
1 *2132:X *540:10 43.6977 
2 *540:10 *2360:A 40 
*END

*D_NET *541 0.0149474
*CONN
*I *2361:A I *D sg13g2_buf_1
*I *2143:X O *D sg13g2_buf_1
*CAP
1 *2361:A 0.00300043
2 *2143:X 0
3 *541:10 0.00550568
4 *541:6 0.00250525
5 *2361:A *544:14 0.00144132
6 *2361:A *547:16 0
7 *2361:A *549:12 0
8 *2361:A *550:10 0
9 *2361:A *550:12 0
10 *541:10 *2043:D 0
11 *541:10 *572:97 0
12 *541:10 *608:20 0
13 *541:10 *608:24 0
14 *541:10 *608:35 0
15 *541:10 *619:52 0
16 *460:44 *541:10 0.00109043
17 *460:54 *541:10 0
18 *490:10 *541:10 0.00140429
19 *496:22 *2361:A 0
20 *522:16 *541:10 0
*RES
1 *2143:X *541:6 40 
2 *541:6 *541:10 46.8006 
3 *541:10 *2361:A 49.9524 
*END

*D_NET *542 0.000737713
*CONN
*I *2061:RESET_B I *D sg13g2_dfrbpq_2
*I *2062:L_HI O *D sg13g2_tiehi
*CAP
1 *2061:RESET_B 0.000312572
2 *2062:L_HI 0.000312572
3 *2061:RESET_B *545:30 0
4 *2061:D *2061:RESET_B 0.000112568
5 *2063:D *2061:RESET_B 0
*RES
1 *2062:L_HI *2061:RESET_B 43.0282 
*END

*D_NET *543 0.000716125
*CONN
*I *2063:RESET_B I *D sg13g2_dfrbpq_2
*I *2064:L_HI O *D sg13g2_tiehi
*CAP
1 *2063:RESET_B 0.000253127
2 *2064:L_HI 0.000253127
3 *2063:RESET_B *545:30 0
4 *2063:RESET_B *579:76 0
5 *2063:CLK *2063:RESET_B 0
6 *220:14 *2063:RESET_B 0.000209871
*RES
1 *2064:L_HI *2063:RESET_B 42.8634 
*END

*D_NET *544 0.0307398
*CONN
*I *1991:D I *D sg13g2_dlhq_1
*I *2117:A I *D sg13g2_buf_1
*I *2055:D I *D sg13g2_dlhq_1
*I *1959:D I *D sg13g2_dlhq_1
*I *2023:D I *D sg13g2_dlhq_1
*I *2203:X O *D sg13g2_buf_2
*CAP
1 *1991:D 0
2 *2117:A 0
3 *2055:D 5.61002e-05
4 *1959:D 0.000752752
5 *2023:D 0.000304976
6 *2203:X 9.85415e-05
7 *544:75 0.000240009
8 *544:47 0.00221039
9 *544:43 0.00377074
10 *544:28 0.00333533
11 *544:20 0.00343221
12 *544:14 0.0032864
13 *544:8 0.000853894
14 *1959:D *1860:B 0.000112456
15 *1959:D *576:26 0
16 *1959:D *591:26 0.00017625
17 *1959:D *600:30 0
18 *2023:D *2035:D 4.77425e-05
19 *2023:D *610:49 0.000390334
20 *2023:D *612:111 0
21 *2023:D *627:34 0
22 *2055:D *589:68 8.00842e-05
23 *544:14 *547:16 0.00144146
24 *544:20 *1905:A2 0
25 *544:20 *2043:D 0
26 *544:20 *2106:A 0
27 *544:20 *545:12 0
28 *544:20 *580:62 1.54008e-05
29 *544:20 *580:90 0.000583166
30 *544:28 *1905:A2 8.01995e-05
31 *544:28 *2035:GATE 0.000209083
32 *544:28 *580:62 0
33 *544:28 *606:97 0.000175721
34 *544:28 *609:77 0
35 *544:43 *551:12 0.00132438
36 *544:47 *551:12 0.000442684
37 *544:47 *626:26 0
38 *544:47 *626:43 0
39 *544:75 *578:35 0.000497331
40 *544:75 *609:26 7.30101e-05
41 *544:75 *610:24 0
42 *1860:A *1959:D 0.000370676
43 *1905:A3 *544:20 0.000242213
44 *1923:S1 *1959:D 0
45 *2084:A *544:28 0.000272718
46 *2361:A *544:14 0.00144132
47 *234:12 *1959:D 0.000234744
48 *241:10 *544:28 0.000176511
49 *268:14 *1959:D 0.0001396
50 *273:16 *544:43 0
51 *278:22 *544:75 0
52 *280:32 *544:43 0
53 *325:10 *544:47 0.00207254
54 *325:16 *1959:D 7.34121e-05
55 *326:14 *544:75 0
56 *366:8 *2023:D 0
57 *366:8 *544:28 0
58 *374:12 *1959:D 0
59 *423:30 *544:43 0
60 *446:10 *544:28 0.000208035
61 *455:14 *544:43 0
62 *477:10 *1959:D 0
63 *477:14 *1959:D 0.000493471
64 *481:14 *2023:D 0.000393495
65 *481:14 *544:28 0.000125015
66 *483:28 *544:20 0
67 *486:34 *544:20 0
68 *513:26 *544:43 0.000505451
69 *522:16 *544:20 0
70 *533:102 *544:43 0
71 *534:8 *544:8 0
*RES
1 *2203:X *544:8 41.0918 
2 *544:8 *544:14 49.6202 
3 *544:14 *544:20 47.707 
4 *544:20 *544:28 28.8683 
5 *544:28 *2023:D 43.6359 
6 *544:28 *544:43 45.1938 
7 *544:43 *544:47 36.3255 
8 *544:47 *1959:D 48.0546 
9 *544:47 *2055:D 40.5356 
10 *544:43 *544:75 42.8634 
11 *544:75 *2117:A 20 
12 *544:20 *1991:D 20 
*END

*D_NET *545 0.038425
*CONN
*I *2118:A I *D sg13g2_buf_2
*I *2056:D I *D sg13g2_dlhq_1
*I *1960:D I *D sg13g2_dlhq_1
*I *2024:D I *D sg13g2_dlhq_1
*I *1992:D I *D sg13g2_dlhq_1
*I *2204:X O *D sg13g2_buf_2
*CAP
1 *2118:A 0
2 *2056:D 0.000568272
3 *1960:D 0.00019927
4 *2024:D 0.000323656
5 *1992:D 0.000126612
6 *2204:X 0.0010707
7 *545:101 0.000747629
8 *545:88 0.000580662
9 *545:80 0.00111244
10 *545:68 0.000910408
11 *545:66 0.00282136
12 *545:64 0.00282136
13 *545:51 0.00136058
14 *545:30 0.0028796
15 *545:12 0.00436646
16 *545:8 0.0037211
17 *1960:D *1931:A2 0.000175693
18 *1960:D *601:12 0
19 *1992:D *1889:A1 0.000217391
20 *2024:D *602:79 0
21 *2056:D *583:32 0.000273394
22 *2056:D *584:20 0.000286638
23 *2056:D *584:22 0.000548043
24 *2056:D *628:16 0
25 *545:8 *547:16 0.00170082
26 *545:8 *549:12 0
27 *545:30 *1889:A1 0
28 *545:30 *605:114 0
29 *545:51 *1889:A1 0.000176997
30 *545:51 *2036:D 0.000660056
31 *545:51 *605:59 0.000402316
32 *545:51 *605:61 0.000515848
33 *545:66 *596:16 0
34 *545:66 *617:16 0.00263492
35 *545:80 *576:18 0.000240377
36 *545:80 *576:26 7.98582e-05
37 *545:80 *588:60 0
38 *545:80 *589:43 7.30101e-05
39 *545:88 *1960:GATE 7.5081e-05
40 *545:88 *596:16 0.000605729
41 *545:88 *629:24 0
42 *545:101 *589:43 0.00022762
43 *1859:A *545:80 4.78578e-05
44 *1889:S0 *545:30 0
45 *1889:A3 *545:30 0
46 *1893:A3 *545:30 0
47 *1893:A3 *545:51 0
48 *2061:RESET_B *545:30 0
49 *2063:RESET_B *545:30 0
50 *2063:D *545:30 0
51 *135:13 *545:88 0
52 *211:36 *545:30 0
53 *220:14 *545:30 0.00014514
54 *223:77 *545:80 0
55 *230:16 *545:80 4.77425e-05
56 *230:38 *545:88 0
57 *232:8 *545:80 0.000337174
58 *233:12 *545:80 0.000208063
59 *233:18 *545:66 0
60 *268:8 *2056:D 0
61 *388:16 *545:80 0
62 *446:10 *2024:D 4.77425e-05
63 *452:8 *545:51 0
64 *473:16 *2024:D 0.000652642
65 *473:16 *545:51 0
66 *479:10 *545:66 0
67 *483:28 *545:12 0
68 *497:14 *545:30 0
69 *500:83 *545:80 0
70 *504:10 *2056:D 0
71 *511:16 *2024:D 0
72 *511:16 *545:51 0.000280657
73 *511:24 *545:51 0.000388526
74 *522:12 *545:8 0.000177442
75 *539:24 *545:66 0.00358816
76 *544:20 *545:12 0
*RES
1 *2204:X *545:8 31.948 
2 *545:8 *545:12 44.823 
3 *545:12 *545:30 37.4482 
4 *545:30 *1992:D 21.5656 
5 *545:30 *545:51 31.7935 
6 *545:51 *2024:D 43.3887 
7 *545:51 *545:64 20 
8 *545:64 *545:66 32.7643 
9 *545:66 *545:68 20 
10 *545:68 *545:80 47.1791 
11 *545:80 *545:88 44.3466 
12 *545:88 *1960:D 41.9673 
13 *545:68 *545:101 1.5862 
14 *545:101 *2056:D 46.18 
15 *545:101 *2118:A 40 
*END

*D_NET *546 0.0301081
*CONN
*I *1993:D I *D sg13g2_dlhq_1
*I *2119:A I *D sg13g2_buf_1
*I *1961:D I *D sg13g2_dlhq_1
*I *2057:D I *D sg13g2_dlhq_1
*I *2025:D I *D sg13g2_dlhq_1
*I *2205:X O *D sg13g2_buf_2
*CAP
1 *1993:D 0.000434676
2 *2119:A 0
3 *1961:D 0
4 *2057:D 0
5 *2025:D 0
6 *2205:X 0.000104617
7 *546:59 0.000218153
8 *546:51 0.0024784
9 *546:43 0.00252488
10 *546:33 0.000463385
11 *546:29 0.000964625
12 *546:20 0.000429235
13 *546:16 0.0035353
14 *546:10 0.00343727
15 *546:8 0.000104617
16 *1993:D *2025:GATE 1.55212e-05
17 *1993:D *547:26 0
18 *1993:D *549:50 0
19 *1993:D *567:30 0
20 *1993:D *567:36 0
21 *546:16 *547:16 0
22 *546:16 *550:12 0.00377731
23 *546:16 *553:48 0.000501678
24 *546:16 *564:12 0.000469478
25 *546:29 *547:26 0
26 *546:43 *575:10 0
27 *546:43 *586:12 0
28 *546:51 *547:32 0
29 *546:51 *547:52 0
30 *546:51 *565:12 0.000290998
31 *546:51 *565:22 0.000579485
32 *546:51 *578:57 0.000777752
33 *546:51 *578:61 0.00027467
34 *546:51 *578:70 0
35 *546:51 *578:78 0
36 *546:51 *578:90 0.000274642
37 *546:59 *547:52 0
38 *1894:S0 *546:51 0
39 *2050:D *546:51 0.0023154
40 *2050:D *546:59 0.000274555
41 *2193:A *546:16 0
42 *2245:A *546:20 0
43 *2256:A *546:20 0
44 *2272:A *546:16 0
45 *131:25 *546:33 0
46 *131:25 *546:43 0
47 *131:25 *546:51 0
48 *213:14 *546:51 1.54008e-05
49 *278:14 *546:51 0.00111586
50 *423:8 *546:16 0
51 *423:16 *1993:D 0
52 *423:16 *546:29 0
53 *434:12 *546:16 0
54 *445:10 *546:16 0
55 *467:40 *546:16 0
56 *478:16 *546:16 0
57 *489:8 *546:16 0
58 *495:16 *1993:D 0.00056535
59 *495:16 *546:33 0.000306896
60 *495:16 *546:43 0.000273767
61 *495:16 *546:51 4.77699e-05
62 *496:12 *546:33 0
63 *511:12 *546:16 0.00335523
64 *512:12 *546:59 0.000181145
*RES
1 *2205:X *546:8 41.0918 
2 *546:8 *546:10 20 
3 *546:10 *546:16 41.2206 
4 *546:16 *546:20 21.0918 
5 *546:20 *2025:D 40 
6 *546:20 *546:29 2.575 
7 *546:29 *546:33 22.0497 
8 *546:33 *546:43 42.7501 
9 *546:43 *546:51 26.4298 
10 *546:51 *546:59 42.678 
11 *546:59 *2057:D 20 
12 *546:51 *1961:D 20 
13 *546:33 *2119:A 20 
14 *546:29 *1993:D 44.6968 
*END

*D_NET *547 0.0262725
*CONN
*I *1994:D I *D sg13g2_dlhq_1
*I *2026:D I *D sg13g2_dlhq_1
*I *1962:D I *D sg13g2_dlhq_1
*I *2058:D I *D sg13g2_dlhq_1
*I *2120:A I *D sg13g2_buf_8
*I *2206:X O *D sg13g2_buf_2
*CAP
1 *1994:D 0
2 *2026:D 2.8155e-05
3 *1962:D 0
4 *2058:D 0
5 *2120:A 0.000941111
6 *2206:X 6.68694e-05
7 *547:79 4.4634e-05
8 *547:73 0.000225818
9 *547:52 0.00179602
10 *547:42 0.000698686
11 *547:38 0.00137788
12 *547:32 0.00213784
13 *547:26 0.0015373
14 *547:16 0.00481124
15 *547:6 0.00415389
16 *2120:A *2001:GATE 0.000144257
17 *2120:A *2002:GATE 0.000144913
18 *2120:A *549:64 0.000271952
19 *2120:A *549:78 0
20 *2120:A *577:14 0.000112099
21 *547:16 *549:12 0
22 *547:16 *619:8 0
23 *547:26 *1894:A0 0
24 *547:26 *2025:GATE 7.52149e-05
25 *547:32 *1894:A0 0
26 *547:32 *565:12 0.000306338
27 *547:32 *565:22 0.00014436
28 *547:32 *566:57 0
29 *547:38 *549:56 0
30 *547:38 *578:78 7.51285e-05
31 *547:38 *587:63 0.000126358
32 *547:38 *606:44 0
33 *547:42 *578:78 3.23417e-05
34 *547:52 *549:64 0.000128409
35 *547:52 *577:14 0.000143998
36 *547:52 *578:78 1.54008e-05
37 *547:79 *577:14 0
38 *1898:S0 *2026:D 0
39 *1918:S0 *547:32 0.000565147
40 *1993:D *547:26 0
41 *2017:D *547:16 0.000112782
42 *2050:D *547:52 0
43 *2361:A *547:16 0
44 *130:9 *2120:A 0
45 *131:21 *2120:A 0
46 *131:25 *547:16 0
47 *278:14 *547:32 0.000273421
48 *328:16 *2120:A 0
49 *328:16 *547:79 7.99388e-05
50 *423:16 *547:26 0
51 *426:26 *547:52 0
52 *456:14 *547:16 0.000825379
53 *467:40 *547:16 0
54 *467:40 *547:26 0
55 *478:8 *547:16 0
56 *478:16 *547:16 7.93436e-05
57 *478:28 *547:16 0.00131484
58 *478:28 *547:26 0.000339123
59 *489:8 *547:16 0
60 *489:16 *547:16 0
61 *495:16 *547:26 0
62 *495:16 *547:32 0
63 *496:22 *547:16 0
64 *505:8 *547:26 0
65 *512:12 *547:52 0
66 *513:10 *547:38 0
67 *522:12 *547:16 0
68 *533:20 *2120:A 0
69 *533:20 *547:42 0
70 *533:20 *547:52 0
71 *544:14 *547:16 0.00144146
72 *545:8 *547:16 0.00170082
73 *546:16 *547:16 0
74 *546:29 *547:26 0
75 *546:51 *547:32 0
76 *546:51 *547:52 0
77 *546:59 *547:52 0
*RES
1 *2206:X *547:6 20.8446 
2 *547:6 *547:16 41.8248 
3 *547:16 *547:26 46.6744 
4 *547:26 *547:32 48.1061 
5 *547:32 *547:38 37.5718 
6 *547:38 *547:42 20.3193 
7 *547:42 *547:52 45.7213 
8 *547:52 *2120:A 28.9919 
9 *547:52 *547:73 42.0085 
10 *547:73 *547:79 40.5356 
11 *547:79 *2058:D 20 
12 *547:42 *1962:D 20 
13 *547:26 *2026:D 20.3502 
14 *547:16 *1994:D 20 
*END

*D_NET *548 0.0143431
*CONN
*I *2031:D I *D sg13g2_dlhq_1
*I *1967:D I *D sg13g2_dlhq_1
*I *2093:A I *D sg13g2_buf_1
*I *1999:D I *D sg13g2_dlhq_1
*I *2207:X O *D sg13g2_buf_1
*CAP
1 *2031:D 2.87101e-05
2 *1967:D 0.000414194
3 *2093:A 8.32532e-05
4 *1999:D 7.26651e-05
5 *2207:X 0.000352068
6 *548:52 0.000724609
7 *548:39 0.00127804
8 *548:22 0.00209515
9 *548:18 0.00228785
10 *548:14 0.00153051
11 *1967:D *555:49 8.00842e-05
12 *1967:D *620:34 0.000498857
13 *1967:D *626:61 0.000584988
14 *1999:D *2173:A 0
15 *2031:D *626:61 3.15716e-05
16 *2093:A *2042:D 0.000237211
17 *548:14 *553:10 0.000242355
18 *548:14 *553:30 0
19 *548:18 *553:30 8.0342e-05
20 *548:18 *553:48 0.000242511
21 *548:22 *555:20 0
22 *548:22 *556:10 0
23 *548:22 *556:14 0
24 *548:22 *587:73 0
25 *548:22 *606:36 0
26 *548:22 *606:44 0
27 *548:22 *616:55 0
28 *548:39 *563:38 0
29 *548:39 *571:16 0
30 *548:39 *571:26 0
31 *548:39 *606:36 0
32 *548:52 *566:43 0
33 *548:52 *579:24 0.000340704
34 *2049:D *548:18 0
35 *2207:A *548:14 0
36 *2210:A *548:14 0
37 *2210:A *548:18 0.00115081
38 *2214:A *548:18 0
39 *2215:A *548:18 0
40 *2216:A *548:22 0.00012816
41 *2364:A *548:14 0.000404341
42 *281:10 *548:39 0
43 *291:14 *548:22 0
44 *428:16 *548:14 2.20736e-05
45 *445:52 *1999:D 0
46 *445:52 *548:39 0.000272134
47 *449:16 *548:39 0
48 *456:64 *548:22 0
49 *489:46 *548:22 0
50 *507:8 *2093:A 0.000182517
51 *507:8 *548:52 0.000977373
*RES
1 *2207:X *548:14 44.2127 
2 *548:14 *548:18 33.7299 
3 *548:18 *548:22 30.7326 
4 *548:22 *1999:D 40.7519 
5 *548:22 *548:39 47.6838 
6 *548:39 *2093:A 41.339 
7 *548:39 *548:52 24.5526 
8 *548:52 *1967:D 24.9131 
9 *548:52 *2031:D 20.5613 
*END

*D_NET *549 0.0288013
*CONN
*I *1995:D I *D sg13g2_dlhq_1
*I *2121:A I *D sg13g2_buf_1
*I *1963:D I *D sg13g2_dlhq_1
*I *2059:D I *D sg13g2_dlhq_1
*I *2027:D I *D sg13g2_dlhq_1
*I *2208:X O *D sg13g2_buf_2
*CAP
1 *1995:D 0
2 *2121:A 8.24867e-05
3 *1963:D 0.000406809
4 *2059:D 0
5 *2027:D 0
6 *2208:X 0.00292009
7 *549:86 0.000379609
8 *549:78 0.000878666
9 *549:64 0.00204998
10 *549:56 0.00218303
11 *549:50 0.00284405
12 *549:34 0.00362202
13 *549:24 0.00118952
14 *549:22 0.000755228
15 *549:12 0.00357155
16 *1963:D *551:8 0
17 *549:12 *550:10 0
18 *549:12 *550:12 0
19 *549:22 *567:12 0
20 *549:22 *569:19 0.000338954
21 *549:22 *569:28 0.000287706
22 *549:24 *567:12 0
23 *549:34 *2102:A 8.00496e-05
24 *549:34 *2122:A 4.77425e-05
25 *549:34 *567:12 0
26 *549:34 *586:47 0.000207743
27 *549:34 *597:57 0
28 *549:34 *604:24 0
29 *549:50 *1894:A0 0
30 *549:50 *1898:A0 8.01118e-05
31 *549:50 *1898:A1 0
32 *549:50 *1898:A2 0
33 *549:50 *1912:A2 0.000112763
34 *549:50 *1918:A1 0
35 *549:50 *1918:A2 4.77083e-05
36 *549:50 *1965:GATE 0
37 *549:50 *1977:D 0.000338708
38 *549:50 *565:36 0.000176394
39 *549:50 *567:12 0.000305475
40 *549:50 *567:30 0
41 *549:50 *567:36 0
42 *549:50 *573:41 0.000306223
43 *549:50 *586:47 0
44 *549:50 *616:38 0
45 *549:50 *616:55 0
46 *549:56 *606:44 5.02734e-05
47 *549:64 *1961:GATE 0
48 *549:64 *576:40 0.000240361
49 *549:64 *577:14 0
50 *549:64 *578:57 0
51 *549:64 *578:61 0
52 *549:64 *606:67 0.000241023
53 *549:64 *616:38 0
54 *549:64 *624:43 0.0002085
55 *1894:S0 *549:64 0
56 *1896:S1 *549:64 1.73259e-05
57 *1898:S0 *549:50 0
58 *1902:A3 *549:34 8.00842e-05
59 *1912:A3 *549:34 0.000433241
60 *1912:A3 *549:50 0
61 *1914:S0 *549:50 0
62 *1926:S1 *549:64 0
63 *1993:D *549:50 0
64 *2120:A *549:64 0.000271952
65 *2120:A *549:78 0
66 *2197:A *549:12 1.54282e-05
67 *2198:A *549:12 0.000144217
68 *2199:A *549:12 8.00842e-05
69 *2200:A *549:12 0.00027467
70 *2202:A *549:12 0.00014436
71 *2203:A *549:12 8.02269e-05
72 *2204:A *549:12 0.00027467
73 *2205:A *549:12 0.000144217
74 *2206:A *549:12 8.02269e-05
75 *2208:A *549:12 0.00027467
76 *2361:A *549:12 0
77 *130:9 *549:86 0
78 *214:10 *549:64 0
79 *240:10 *1963:D 0
80 *245:10 *549:50 0
81 *291:14 *549:50 0.000111112
82 *315:14 *549:64 0
83 *328:16 *549:64 0
84 *328:16 *549:78 0
85 *328:16 *549:86 0
86 *344:10 *549:64 0
87 *456:64 *549:50 0.000240438
88 *483:24 *549:50 0
89 *485:12 *2121:A 8.00842e-05
90 *485:12 *549:34 0
91 *489:8 *549:12 0
92 *495:16 *549:50 0
93 *497:12 *549:34 0
94 *522:12 *549:12 0.000372182
95 *533:20 *549:64 0.00160095
96 *533:28 *549:64 0
97 *533:45 *549:64 0
98 *533:60 *549:50 0
99 *545:8 *549:12 0
100 *547:16 *549:12 0
101 *547:38 *549:56 0
102 *547:52 *549:64 0.000128409
*RES
1 *2208:X *549:12 48.4074 
2 *549:12 *549:22 47.9104 
3 *549:22 *549:24 1.1845 
4 *549:24 *549:34 49.579 
5 *549:34 *549:50 45.2865 
6 *549:50 *549:56 42.6986 
7 *549:56 *549:64 36.9407 
8 *549:64 *549:78 44.5629 
9 *549:78 *549:86 43.6668 
10 *549:86 *2027:D 20 
11 *549:78 *2059:D 20 
12 *549:56 *1963:D 43.3166 
13 *549:24 *2121:A 20.9682 
14 *549:22 *1995:D 20 
*END

*D_NET *550 0.0330744
*CONN
*I *1964:D I *D sg13g2_dlhq_1
*I *2028:D I *D sg13g2_dlhq_1
*I *2060:D I *D sg13g2_dlhq_1
*I *1996:D I *D sg13g2_dlhq_1
*I *2122:A I *D sg13g2_buf_1
*I *2209:X O *D sg13g2_buf_2
*CAP
1 *1964:D 0
2 *2028:D 0.000653356
3 *2060:D 0.000102374
4 *1996:D 0
5 *2122:A 2.60565e-05
6 *2209:X 0.000192303
7 *550:70 6.85777e-05
8 *550:46 0.00269585
9 *550:40 0.00445617
10 *550:38 0.00251588
11 *550:27 0.000172988
12 *550:16 0.000657062
13 *550:12 0.00340418
14 *550:10 0.00307007
15 *2028:D *571:42 0.00020894
16 *2122:A *567:12 4.77425e-05
17 *550:16 *566:14 0.000180885
18 *550:16 *572:26 0
19 *550:27 *566:14 0.00042576
20 *550:38 *566:14 0.000373934
21 *550:40 *611:39 0.00235922
22 *550:46 *611:39 0.00146162
23 *550:70 *563:38 0.00018016
24 *2194:A *550:12 0.000177597
25 *2197:A *550:12 0.000242483
26 *2198:A *550:12 0.000144998
27 *2199:A *550:12 8.00842e-05
28 *2200:A *550:12 0.000274968
29 *2202:A *550:12 0.00014514
30 *2203:A *550:12 8.02269e-05
31 *2204:A *550:12 0.000274968
32 *2205:A *550:12 0.000144998
33 *2206:A *550:12 8.02269e-05
34 *2208:A *550:12 0.000274968
35 *2209:A *550:10 0.00014436
36 *2361:A *550:10 0
37 *2361:A *550:12 0
38 *130:13 *550:46 0
39 *271:8 *2060:D 0.000498866
40 *271:8 *550:46 0.000177998
41 *324:14 *2028:D 0
42 *328:16 *2028:D 0
43 *429:12 *2060:D 0.000498866
44 *429:12 *550:46 0.000158253
45 *445:32 *550:40 0.00191212
46 *456:64 *550:70 0
47 *485:12 *550:27 0.000289155
48 *485:12 *550:38 0.000395968
49 *489:8 *550:12 0
50 *506:8 *2028:D 0
51 *546:16 *550:12 0.00377731
52 *549:12 *550:10 0
53 *549:12 *550:12 0
54 *549:34 *2122:A 4.77425e-05
*RES
1 *2209:X *550:10 22.3484 
2 *550:10 *550:12 31.6828 
3 *550:12 *550:16 25.5414 
4 *550:16 *2122:A 40.3193 
5 *550:16 *550:27 2.0806 
6 *550:27 *1996:D 40 
7 *550:27 *550:38 21.8334 
8 *550:38 *550:40 29.5198 
9 *550:40 *550:46 42.145 
10 *550:46 *2060:D 42.3278 
11 *550:46 *2028:D 46.1594 
12 *550:40 *550:70 40.8446 
13 *550:70 *1964:D 20 
*END

*D_NET *551 0.0175285
*CONN
*I *2000:D I *D sg13g2_dlhq_1
*I *2094:A I *D sg13g2_buf_1
*I *2032:D I *D sg13g2_dlhq_1
*I *1968:D I *D sg13g2_dlhq_1
*I *2210:X O *D sg13g2_buf_1
*CAP
1 *2000:D 0
2 *2094:A 0.000337493
3 *2032:D 7.39084e-05
4 *1968:D 8.08442e-05
5 *2210:X 0
6 *551:67 0.00139212
7 *551:25 0.000803599
8 *551:14 0.000473041
9 *551:12 0.000943245
10 *551:8 0.00456967
11 *551:6 0.00223431
12 *1968:D *1899:A1 0
13 *1968:D *606:89 0
14 *2094:A *585:90 0
15 *551:8 *1926:A0 0
16 *551:8 *554:8 0
17 *551:8 *554:23 0
18 *551:8 *571:26 0.000447747
19 *551:8 *578:57 0
20 *551:8 *595:28 0
21 *551:8 *595:30 0
22 *551:8 *616:34 0
23 *551:8 *624:43 0
24 *551:25 *1968:GATE 0.000712544
25 *551:25 *607:36 0
26 *551:25 *609:41 7.35515e-05
27 *551:67 *585:90 0
28 *551:67 *595:28 0
29 *551:67 *612:30 0
30 *551:67 *623:40 0
31 *551:67 *627:20 0
32 *1900:S1 *551:67 4.96676e-05
33 *1908:S1 *551:67 4.23604e-05
34 *1925:S0 *551:8 0
35 *1925:S0 *551:67 0.000711129
36 *1963:D *551:8 0
37 *240:10 *551:8 0
38 *261:14 *551:67 0
39 *288:12 *551:25 0
40 *300:8 *2094:A 0.000330693
41 *300:8 *551:25 0.000126974
42 *317:8 *551:8 0.000548792
43 *358:12 *551:67 7.96809e-05
44 *422:57 *551:67 0.000633545
45 *422:65 *2094:A 0
46 *422:65 *551:67 7.98582e-05
47 *425:26 *551:67 0.00020815
48 *425:67 *2032:D 0.0001122
49 *448:14 *2094:A 0
50 *460:10 *551:8 0
51 *500:50 *2094:A 0.000209171
52 *518:12 *551:25 0
53 *539:22 *551:67 0.000487118
54 *544:43 *551:12 0.00132438
55 *544:47 *551:12 0.000442684
*RES
1 *2210:X *551:6 40 
2 *551:6 *551:8 19.6318 
3 *551:8 *551:12 31.5669 
4 *551:12 *551:14 20 
5 *551:14 *1968:D 40.7519 
6 *551:14 *551:25 4.3054 
7 *551:25 *2032:D 40.7519 
8 *551:25 *2094:A 43.5355 
9 *551:8 *551:67 34.8938 
10 *551:67 *2000:D 20 
*END

*D_NET *552 0.00614992
*CONN
*I *1969:D I *D sg13g2_dlhq_1
*I *2033:D I *D sg13g2_dlhq_1
*I *2001:D I *D sg13g2_dlhq_1
*I *2095:A I *D sg13g2_buf_2
*I *2211:X O *D sg13g2_buf_1
*CAP
1 *1969:D 0.000302423
2 *2033:D 0.000152583
3 *2001:D 0.000447554
4 *2095:A 2.77263e-05
5 *2211:X 0.000184751
6 *552:34 0.000455005
7 *552:14 0.00144113
8 *552:8 0.0011506
9 *1969:D *554:23 0
10 *2001:D *2002:D 0.000209083
11 *2001:D *2096:A 0
12 *2001:D *554:29 0
13 *552:14 *554:29 0.000210012
14 *2195:A *552:14 0
15 *2211:A *2033:D 0
16 *2364:A *2001:D 0
17 *2364:A *552:14 0
18 *131:25 *552:8 0.000242186
19 *131:25 *552:14 0.000954878
20 *467:10 *552:14 0.000371998
21 *467:19 *552:8 0
22 *467:19 *552:14 0
*RES
1 *2211:X *552:8 21.9673 
2 *552:8 *552:14 10.0734 
3 *552:14 *2095:A 20.3502 
4 *552:14 *2001:D 24.4496 
5 *552:8 *552:34 20 
6 *552:34 *2033:D 41.5862 
7 *552:34 *1969:D 42.8222 
*END

*D_NET *553 0.0126587
*CONN
*I *2029:D I *D sg13g2_dlhq_1
*I *1965:D I *D sg13g2_dlhq_1
*I *1997:D I *D sg13g2_dlhq_1
*I *2091:A I *D sg13g2_buf_1
*I *2212:X O *D sg13g2_buf_1
*CAP
1 *2029:D 0
2 *1965:D 0
3 *1997:D 0
4 *2091:A 0
5 *2212:X 0.000394974
6 *553:69 0.00024587
7 *553:52 0.000274574
8 *553:48 0.00196762
9 *553:36 0.0020791
10 *553:30 0.00168641
11 *553:10 0.0019412
12 *553:30 *555:16 0.000231701
13 *553:48 *564:12 0
14 *553:48 *564:16 0.00049853
15 *553:48 *608:8 0
16 *2030:D *553:30 0
17 *2049:D *553:30 0.000435487
18 *2049:D *553:48 0
19 *2207:A *553:10 0.000242213
20 *2210:A *553:30 0
21 *2211:A *553:30 0.000435713
22 *2215:A *553:48 4.77702e-05
23 *2223:A *553:48 0.000177367
24 *2256:A *553:48 0
25 *2267:A *553:48 0.000128576
26 *2364:A *553:10 0
27 *131:25 *553:52 4.3635e-05
28 *131:25 *553:69 8.44769e-05
29 *428:16 *553:30 0.000145247
30 *467:19 *553:30 0.000241983
31 *467:40 *553:48 0
32 *478:28 *553:52 0
33 *478:28 *553:69 0.000209083
34 *478:34 *553:48 0
35 *489:24 *553:69 8.03146e-05
36 *496:12 *553:69 0
37 *511:16 *553:48 0
38 *511:16 *553:69 0
39 *546:16 *553:48 0.000501678
40 *548:14 *553:10 0.000242355
41 *548:14 *553:30 0
42 *548:18 *553:30 8.0342e-05
43 *548:18 *553:48 0.000242511
*RES
1 *2212:X *553:10 24.2642 
2 *553:10 *553:30 16.4182 
3 *553:30 *553:36 41.339 
4 *553:36 *553:48 40.291 
5 *553:48 *553:52 20.291 
6 *553:52 *2091:A 20 
7 *553:52 *553:69 42.6342 
8 *553:69 *1997:D 20 
9 *553:30 *1965:D 20 
10 *553:10 *2029:D 20 
*END

*D_NET *554 0.00745807
*CONN
*I *1970:D I *D sg13g2_dlhq_1
*I *2002:D I *D sg13g2_dlhq_1
*I *2096:A I *D sg13g2_buf_2
*I *2034:D I *D sg13g2_dlhq_1
*I *2213:X O *D sg13g2_buf_1
*CAP
1 *1970:D 3.82253e-05
2 *2002:D 0.000388873
3 *2096:A 3.07381e-05
4 *2034:D 0.000231136
5 *2213:X 0.000102693
6 *554:29 0.00169471
7 *554:23 0.00140722
8 *554:8 0.000427727
9 *1970:D *587:67 8.02269e-05
10 *554:29 *587:67 0.00105172
11 *1969:D *554:23 0
12 *2001:D *2002:D 0.000209083
13 *2001:D *2096:A 0
14 *2001:D *554:29 0
15 *2050:D *554:29 0
16 *2213:A *2034:D 0
17 *2364:A *2002:D 0
18 *131:21 *2002:D 0
19 *131:21 *554:29 0
20 *131:25 *1970:D 6.48261e-05
21 *131:25 *2034:D 0
22 *131:25 *554:29 0.00121386
23 *426:26 *2002:D 0
24 *467:19 *2034:D 0.000307012
25 *551:8 *554:8 0
26 *551:8 *554:23 0
27 *552:14 *554:29 0.000210012
*RES
1 *2213:X *554:8 41.0918 
2 *554:8 *2034:D 42.369 
3 *554:8 *554:23 20.8446 
4 *554:23 *554:29 13.9668 
5 *554:29 *2096:A 20.3502 
6 *554:29 *2002:D 23.9964 
7 *554:23 *1970:D 20.5356 
*END

*D_NET *555 0.0155243
*CONN
*I *2003:D I *D sg13g2_dlhq_1
*I *2035:D I *D sg13g2_dlhq_1
*I *2097:A I *D sg13g2_buf_1
*I *1971:D I *D sg13g2_dlhq_1
*I *2214:X O *D sg13g2_buf_1
*CAP
1 *2003:D 0
2 *2035:D 0.000648753
3 *2097:A 0
4 *1971:D 3.04198e-05
5 *2214:X 0.000919627
6 *555:53 0.000993212
7 *555:49 0.00182786
8 *555:43 0.00153626
9 *555:37 0.000505338
10 *555:20 0.00125412
11 *555:16 0.00169085
12 *1971:D *571:16 4.77425e-05
13 *2035:D *602:91 3.15716e-05
14 *2035:D *620:63 0
15 *2035:D *627:34 0
16 *555:16 *557:10 0.000209899
17 *555:16 *558:10 0
18 *555:16 *565:26 0.000406664
19 *555:16 *587:73 0
20 *555:20 *565:26 0
21 *555:20 *565:56 0
22 *555:20 *565:82 0.000394409
23 *555:20 *565:91 0.000211949
24 *555:20 *606:36 0
25 *555:37 *1971:GATE 0.000265805
26 *555:37 *565:91 0.000340836
27 *555:37 *590:102 0.000112541
28 *555:37 *606:36 0
29 *555:49 *573:79 0
30 *555:49 *590:102 0.000498782
31 *555:49 *620:34 0
32 *555:49 *626:61 0
33 *555:49 *627:34 0
34 *555:53 *602:91 0.000112418
35 *1967:D *555:49 8.00842e-05
36 *2023:D *2035:D 4.77425e-05
37 *2049:D *555:16 0
38 *217:12 *555:49 0
39 *279:10 *555:37 0.000370765
40 *282:8 *555:20 0.000128248
41 *282:8 *555:37 0.000105736
42 *287:8 *555:43 0.00012816
43 *423:63 *555:49 0.000499043
44 *445:52 *555:20 0
45 *460:22 *2035:D 9.6255e-05
46 *460:22 *555:53 0
47 *460:32 *2035:D 0.000143351
48 *460:44 *2035:D 0.000595882
49 *467:19 *555:16 0.000533796
50 *469:8 *2035:D 0
51 *481:8 *555:53 0
52 *489:46 *555:16 0
53 *493:18 *555:49 7.99004e-05
54 *511:16 *555:49 0.000444536
55 *518:12 *555:43 0
56 *548:22 *555:20 0
57 *553:30 *555:16 0.000231701
*RES
1 *2214:X *555:16 49.9704 
2 *555:16 *555:20 7.5293 
3 *555:20 *1971:D 40.3193 
4 *555:20 *555:37 25.6547 
5 *555:37 *555:43 40.5974 
6 *555:43 *555:49 34.729 
7 *555:49 *555:53 22.9149 
8 *555:53 *2097:A 20 
9 *555:53 *2035:D 26.6435 
10 *555:37 *2003:D 20 
*END

*D_NET *556 0.0180154
*CONN
*I *2036:D I *D sg13g2_dlhq_1
*I *2098:A I *D sg13g2_buf_1
*I *2004:D I *D sg13g2_dlhq_1
*I *1972:D I *D sg13g2_dlhq_1
*I *2215:X O *D sg13g2_buf_1
*CAP
1 *2036:D 0.00138449
2 *2098:A 0
3 *2004:D 0.000370614
4 *1972:D 2.79385e-05
5 *2215:X 0.000488497
6 *556:55 0.0015675
7 *556:47 0.00124777
8 *556:32 0.00116975
9 *556:16 0.000544544
10 *556:14 0.00268899
11 *556:10 0.00292652
12 *2004:D *605:28 0.000305175
13 *2004:D *605:53 0.00019424
14 *2004:D *612:87 0
15 *2036:D *1889:A1 0
16 *2036:D *562:16 0.000290477
17 *2036:D *562:22 4.77425e-05
18 *2036:D *605:59 0
19 *2036:D *612:99 0.000112359
20 *556:14 *563:38 0
21 *556:14 *563:53 0
22 *556:14 *578:35 0
23 *556:14 *609:16 0
24 *556:16 *612:87 0
25 *556:32 *612:87 0
26 *556:47 *579:12 7.51285e-05
27 *556:47 *605:59 0
28 *556:47 *612:87 0.000726057
29 *556:47 *612:99 0
30 *1935:A1 *556:55 0.000179957
31 *2046:D *556:55 0
32 *138:13 *556:55 0
33 *273:16 *556:14 0.000281583
34 *277:12 *556:14 0
35 *278:22 *556:10 0
36 *318:8 *556:14 0.00123791
37 *327:8 *556:47 0
38 *422:69 *556:55 0
39 *425:71 *2036:D 0
40 *456:64 *556:14 0
41 *459:8 *556:47 7.33225e-05
42 *459:18 *2036:D 0.000628162
43 *468:20 *2036:D 0.000337517
44 *471:10 *556:55 0
45 *492:8 *2036:D 7.9225e-05
46 *500:50 *1972:D 0
47 *500:50 *2004:D 0.000369886
48 *500:50 *556:16 0
49 *500:50 *556:32 0
50 *500:50 *556:47 0
51 *545:51 *2036:D 0.000660056
52 *548:22 *556:10 0
53 *548:22 *556:14 0
*RES
1 *2215:X *556:10 44.6865 
2 *556:10 *556:14 41.7948 
3 *556:14 *556:16 1.1845 
4 *556:16 *1972:D 20.3502 
5 *556:16 *2004:D 23.9964 
6 *556:14 *556:32 0.9682 
7 *556:32 *2098:A 20 
8 *556:32 *556:47 49.888 
9 *556:47 *556:55 42.2454 
10 *556:55 *2036:D 33.4621 
*END

*D_NET *557 0.0181563
*CONN
*I *2037:D I *D sg13g2_dlhq_1
*I *2099:A I *D sg13g2_buf_1
*I *1973:D I *D sg13g2_dlhq_1
*I *2005:D I *D sg13g2_dlhq_1
*I *2216:X O *D sg13g2_buf_1
*CAP
1 *2037:D 0
2 *2099:A 0
3 *1973:D 0
4 *2005:D 0
5 *2216:X 0.000274483
6 *557:38 0.000499215
7 *557:30 0.00114049
8 *557:24 0.00125517
9 *557:16 0.000729602
10 *557:14 0.00253297
11 *557:10 0.00269175
12 *557:14 *558:10 0
13 *557:14 *558:16 0.00539097
14 *557:14 *612:87 0.000181608
15 *557:16 *561:38 0.000208968
16 *557:24 *558:20 0.000336958
17 *557:24 *602:60 0.000306524
18 *557:30 *584:96 0
19 *557:30 *602:37 0.000597434
20 *557:30 *602:60 0.000348477
21 *557:38 *582:18 0.000235141
22 *557:38 *584:96 8.00842e-05
23 *557:38 *602:37 0.000209056
24 *1924:S1 *557:38 0
25 *2049:D *557:10 0
26 *278:8 *557:14 0
27 *424:16 *557:38 0.000235141
28 *424:54 *557:24 0.000291123
29 *424:54 *557:30 8.02267e-05
30 *467:19 *557:10 0
31 *501:10 *557:24 0
32 *510:14 *557:14 0
33 *510:14 *557:24 0
34 *511:55 *557:16 0.000208826
35 *518:12 *557:14 0
36 *539:18 *557:38 0.000112198
37 *555:16 *557:10 0.000209899
*RES
1 *2216:X *557:10 42.6162 
2 *557:10 *557:14 49.2726 
3 *557:14 *557:16 1.4008 
4 *557:16 *557:24 45.8607 
5 *557:24 *557:30 6.6435 
6 *557:30 *557:38 45.0882 
7 *557:38 *2005:D 20 
8 *557:30 *1973:D 20 
9 *557:24 *2099:A 20 
10 *557:16 *2037:D 20 
*END

*D_NET *558 0.0208487
*CONN
*I *2038:D I *D sg13g2_dlhq_1
*I *1974:D I *D sg13g2_dlhq_1
*I *2006:D I *D sg13g2_dlhq_1
*I *2100:A I *D sg13g2_buf_1
*I *2217:X O *D sg13g2_buf_1
*CAP
1 *2038:D 0.000444439
2 *1974:D 0
3 *2006:D 0.000976021
4 *2100:A 0
5 *2217:X 0.000513893
6 *558:46 0.000221133
7 *558:33 0.00232356
8 *558:20 0.00134046
9 *558:16 0.00289554
10 *558:10 0.00275095
11 *2006:D *582:14 0
12 *2038:D *1888:A1 0
13 *2038:D *1892:A0 0
14 *558:10 *565:26 0.000405893
15 *558:16 *1888:A1 0
16 *558:16 *1971:GATE 0
17 *558:16 *565:56 0
18 *558:16 *565:71 0
19 *558:16 *565:91 0
20 *558:16 *606:36 0
21 *558:16 *607:20 0.00165316
22 *558:16 *607:26 0
23 *558:16 *617:22 0
24 *558:33 *1990:GATE 0
25 *558:46 *602:22 0
26 *558:46 *609:16 0
27 *1892:S0 *2038:D 8.03692e-05
28 *1916:S1 *558:33 0
29 *2155:A *2006:D 8.00842e-05
30 *122:13 *2006:D 0
31 *122:13 *558:33 0
32 *122:25 *558:33 0
33 *289:8 *558:16 0
34 *338:10 *558:33 8.02269e-05
35 *432:14 *2038:D 0.000613469
36 *432:14 *558:16 0.000209499
37 *444:24 *558:33 0
38 *451:12 *558:33 0
39 *451:20 *558:33 0.000532065
40 *477:20 *2006:D 0
41 *501:10 *558:33 0
42 *510:14 *558:16 0
43 *510:14 *558:20 0
44 *510:14 *558:33 0
45 *555:16 *558:10 0
46 *557:14 *558:10 0
47 *557:14 *558:16 0.00539097
48 *557:24 *558:20 0.000336958
*RES
1 *2217:X *558:10 44.6865 
2 *558:10 *558:16 48.8812 
3 *558:16 *558:20 22.0806 
4 *558:20 *2100:A 40 
5 *558:20 *558:33 30.0013 
6 *558:33 *2006:D 27.8898 
7 *558:33 *558:46 42.0806 
8 *558:46 *1974:D 20 
9 *558:16 *2038:D 24.5629 
*END

*D_NET *559 0.0264037
*CONN
*I *2172:A I *D sg13g2_buf_8
*I *1958:GATE I *D sg13g2_dlhq_1
*I *1956:GATE I *D sg13g2_dlhq_1
*I *1957:GATE I *D sg13g2_dlhq_1
*I *2218:X O *D sg13g2_buf_2
*CAP
1 *2172:A 4.72978e-05
2 *1958:GATE 0.000202846
3 *1956:GATE 0
4 *1957:GATE 0
5 *2218:X 0
6 *559:60 0.000582645
7 *559:47 0.000706501
8 *559:36 0.00247445
9 *559:30 0.00608358
10 *559:14 0.00567668
11 *559:6 0.00169355
12 *559:14 *561:18 0
13 *559:14 *583:20 0
14 *559:14 *583:32 0
15 *559:30 *2000:GATE 0.000352918
16 *559:30 *2053:GATE 0
17 *559:30 *2054:GATE 0.000596416
18 *559:30 *2184:A 0.000294629
19 *559:30 *561:18 0
20 *559:30 *570:31 3.23694e-05
21 *559:30 *571:121 1.54008e-05
22 *559:30 *578:18 0.00114395
23 *559:30 *583:32 0
24 *559:36 *2123:A 8.02267e-05
25 *559:36 *578:6 0
26 *559:36 *580:22 4.78853e-05
27 *559:36 *583:32 1.51734e-05
28 *559:36 *583:47 0
29 *559:47 *580:22 0.000273766
30 *1935:A1 *559:36 0.0001773
31 *1956:D *559:47 4.77425e-05
32 *120:9 *559:14 0.00034245
33 *134:9 *559:14 0
34 *135:11 *559:14 0
35 *136:9 *559:14 0.00194287
36 *212:46 *559:60 0.000144217
37 *231:10 *559:30 0.000241052
38 *268:8 *559:30 9.477e-05
39 *443:10 *559:30 1.52427e-05
40 *459:22 *559:47 0
41 *459:22 *559:60 0
42 *473:16 *559:47 0.000653527
43 *473:16 *559:60 0.000553875
44 *477:40 *1958:GATE 4.77702e-05
45 *477:40 *2172:A 0
46 *477:40 *559:60 0
47 *491:18 *559:36 0.000757639
48 *491:18 *559:47 0
49 *511:55 *559:47 0.000179079
50 *511:65 *559:30 0.000112426
51 *516:8 *1958:GATE 0.000339353
52 *516:8 *559:60 0.000257713
53 *518:8 *559:36 0.000176369
54 *522:34 *559:36 0
55 *522:38 *559:36 0
*RES
1 *2218:X *559:6 40 
2 *559:6 *559:14 42.2789 
3 *559:14 *559:30 37.3478 
4 *559:30 *559:36 19.8687 
5 *559:36 *1957:GATE 20 
6 *559:36 *559:47 24.9028 
7 *559:47 *1956:GATE 40 
8 *559:47 *559:60 24.4084 
9 *559:60 *1958:GATE 22.266 
10 *559:60 *2172:A 20.5974 
*END

*D_NET *560 0.0234055
*CONN
*I *1932:A0 I *D sg13g2_mux2_1
*I *1888:A0 I *D sg13g2_mux4_1
*I *1892:A0 I *D sg13g2_mux4_1
*I *2219:X O *D sg13g2_buf_1
*CAP
1 *1932:A0 0
2 *1888:A0 0
3 *1892:A0 0.000724173
4 *2219:X 2.9025e-05
5 *560:22 0.00123832
6 *560:16 0.00189222
7 *560:10 0.00605353
8 *560:6 0.00470449
9 *1892:A0 *1888:A1 0.0005319
10 *1892:A0 *602:60 0
11 *560:10 *588:12 0
12 *560:10 *592:8 7.91919e-05
13 *560:10 *595:12 0
14 *560:10 *602:14 0
15 *560:10 *603:10 0.00114224
16 *560:10 *606:14 0
17 *560:10 *609:14 0
18 *560:10 *613:10 0
19 *560:10 *620:14 0.000819577
20 *560:10 *628:10 0
21 *560:10 *629:12 0
22 *560:16 *603:10 0
23 *560:16 *603:14 0.00238145
24 *560:22 *562:10 0.000180675
25 *560:22 *602:60 0
26 *560:22 *603:14 0.000974644
27 *1888:S0 *1892:A0 8.01995e-05
28 *1892:S0 *1892:A0 1.54556e-05
29 *2038:D *1892:A0 0
30 *2231:A *560:10 0.00030488
31 *2235:A *560:10 0
32 *2242:A *560:10 0
33 *2252:A *560:10 0
34 *2268:A *560:10 0
35 *2270:A *560:10 0
36 *127:9 *560:10 0
37 *137:13 *560:10 0
38 *424:14 *560:10 0.00143082
39 *431:6 *560:22 0
40 *432:14 *1892:A0 0
41 *432:14 *560:22 0
42 *435:16 *560:10 0
43 *451:24 *560:16 0
44 *451:24 *560:22 0
45 *494:10 *560:22 0
46 *501:14 *560:10 0
47 *501:14 *560:16 0.000822717
48 *504:12 *560:10 0
*RES
1 *2219:X *560:6 20.3502 
2 *560:6 *560:10 45.2065 
3 *560:10 *560:16 36.7375 
4 *560:16 *560:22 26.386 
5 *560:22 *1892:A0 26.8598 
6 *560:22 *1888:A0 20 
7 *560:16 *1932:A0 40 
*END

*D_NET *561 0.0348423
*CONN
*I *1933:A0 I *D sg13g2_mux2_1
*I *1889:A0 I *D sg13g2_mux4_1
*I *1893:A0 I *D sg13g2_mux4_1
*I *2220:X O *D sg13g2_buf_2
*CAP
1 *1933:A0 0.000107293
2 *1889:A0 0.00032581
3 *1893:A0 9.86966e-05
4 *2220:X 6.93252e-05
5 *561:42 0.000830072
6 *561:38 0.0037506
7 *561:32 0.00341955
8 *561:26 0.00183773
9 *561:18 0.00447167
10 *561:12 0.00379584
11 *561:8 0.00104941
12 *1889:A0 *1991:GATE 0.000466438
13 *1893:A0 *1991:GATE 0.000144024
14 *561:12 *582:12 0.00233652
15 *561:12 *583:20 0.00378198
16 *561:18 *2054:GATE 0.000112198
17 *561:26 *583:32 0.000468121
18 *561:26 *584:73 0.000402835
19 *561:26 *605:53 0
20 *561:26 *612:30 0
21 *561:26 *612:87 0.00011101
22 *561:26 *616:16 0.000144883
23 *561:32 *563:61 7.48178e-05
24 *561:32 *578:35 0.00028427
25 *561:32 *609:16 0
26 *561:38 *563:57 0.000241052
27 *561:38 *578:6 0
28 *561:38 *580:22 0.000984937
29 *561:38 *580:24 0
30 *561:42 *580:43 0
31 *561:42 *605:65 0.000601042
32 *1889:S0 *1889:A0 1.54556e-05
33 *1893:S0 *1893:A0 4.77425e-05
34 *1933:A1 *561:42 0
35 *2046:D *561:38 4.77699e-05
36 *2061:CLK *1933:A0 0.00014391
37 *2090:A *561:26 0.000112426
38 *2162:A *561:38 0.000144772
39 *2221:A *561:8 0
40 *120:9 *561:12 0
41 *120:9 *561:18 0
42 *121:11 *561:18 0.000112228
43 *128:11 *561:8 0.000111908
44 *128:11 *561:12 0
45 *211:27 *561:38 0.000230928
46 *211:27 *561:42 0.000499073
47 *212:18 *561:38 0
48 *326:14 *561:32 0
49 *329:8 *561:26 8.00842e-05
50 *435:8 *561:26 0.000854666
51 *443:10 *561:18 0.00120979
52 *472:8 *561:26 8.00425e-05
53 *491:24 *561:38 0
54 *497:14 *1889:A0 0
55 *497:14 *1893:A0 0
56 *498:24 *561:18 0
57 *511:55 *561:38 0.00103238
58 *512:12 *561:18 0
59 *522:24 *561:38 0
60 *522:34 *561:38 0
61 *522:38 *561:38 0
62 *533:112 *561:42 0
63 *557:16 *561:38 0.000208968
64 *559:14 *561:18 0
65 *559:30 *561:18 0
*RES
1 *2220:X *561:8 40.7519 
2 *561:8 *561:12 37.407 
3 *561:12 *561:18 45.853 
4 *561:18 *561:26 35.6972 
5 *561:26 *561:32 41.8334 
6 *561:32 *561:38 49.0975 
7 *561:38 *561:42 24.7998 
8 *561:42 *1893:A0 20.9682 
9 *561:42 *1889:A0 23.1312 
10 *561:38 *1933:A0 40.9682 
*END

*D_NET *562 0.0270886
*CONN
*I *2126:A I *D sg13g2_buf_1
*I *1955:GATE I *D sg13g2_dlhq_1
*I *1964:GATE I *D sg13g2_dlhq_1
*I *1963:GATE I *D sg13g2_dlhq_1
*I *1962:GATE I *D sg13g2_dlhq_1
*I *1961:GATE I *D sg13g2_dlhq_1
*I *1960:GATE I *D sg13g2_dlhq_1
*I *1959:GATE I *D sg13g2_dlhq_1
*I *2172:X O *D sg13g2_buf_8
*CAP
1 *2126:A 1.15009e-05
2 *1955:GATE 0
3 *1964:GATE 0
4 *1963:GATE 0
5 *1962:GATE 2.59006e-05
6 *1961:GATE 0.000432276
7 *1960:GATE 0.000584497
8 *1959:GATE 4.65649e-05
9 *2172:X 0.0008463
10 *562:74 0.000842745
11 *562:50 0.00264167
12 *562:44 0.0030565
13 *562:42 0.00110098
14 *562:34 0.000931028
15 *562:28 0.00185904
16 *562:22 0.00211615
17 *562:16 0.00104999
18 *562:10 0.0011593
19 *1960:GATE *600:12 0.00127569
20 *1960:GATE *629:14 0
21 *1960:GATE *629:24 0
22 *562:10 *603:14 0
23 *562:16 *579:70 0
24 *562:16 *603:14 0
25 *562:16 *605:59 0.000305735
26 *562:22 *2014:GATE 0
27 *562:22 *573:50 0.00012785
28 *562:22 *583:47 0.00297082
29 *562:22 *605:59 4.77425e-05
30 *562:28 *1983:GATE 0
31 *562:28 *571:16 0
32 *562:28 *571:90 0
33 *562:28 *574:16 0
34 *562:28 *607:36 0.00104931
35 *562:34 *578:41 1.54556e-05
36 *562:34 *578:51 0.000112426
37 *562:42 *1867:A0 0.000126724
38 *562:42 *1946:A 4.79124e-05
39 *562:42 *616:24 0
40 *562:50 *590:49 0
41 *562:50 *592:10 0
42 *562:50 *600:12 0.000179762
43 *562:50 *629:24 0
44 *562:74 *576:40 0
45 *562:74 *587:63 0
46 *1931:S0 *1959:GATE 0
47 *1953:B *562:50 0
48 *1957:D *562:10 0
49 *2036:D *562:16 0.000290477
50 *2036:D *562:22 4.77425e-05
51 *2045:D *562:22 0.00157408
52 *2183:A *562:28 0
53 *130:21 *562:28 0
54 *133:11 *562:50 0
55 *223:12 *562:44 0
56 *223:123 *562:44 0
57 *224:12 *562:34 0
58 *224:12 *562:42 0
59 *237:40 *562:44 4.85985e-05
60 *237:64 *562:42 0
61 *257:28 *562:28 0
62 *257:28 *562:34 0
63 *269:8 *562:50 0
64 *279:10 *562:28 0
65 *281:20 *562:74 0
66 *282:12 *562:44 0
67 *282:12 *562:50 0
68 *315:14 *1961:GATE 0
69 *315:14 *1962:GATE 4.77079e-05
70 *323:10 *1960:GATE 0.000208035
71 *325:22 *1959:GATE 8.02269e-05
72 *328:16 *1961:GATE 0
73 *328:16 *1962:GATE 4.77079e-05
74 *381:10 *562:42 0
75 *423:24 *562:22 0.000922437
76 *431:6 *562:10 0
77 *432:14 *562:10 0
78 *445:58 *562:28 0
79 *445:58 *562:34 0
80 *445:58 *562:42 0
81 *445:58 *562:74 0.000601915
82 *494:10 *562:10 0
83 *522:34 *562:10 0
84 *532:10 *562:16 0
85 *545:88 *1960:GATE 7.5081e-05
86 *549:64 *1961:GATE 0
87 *560:22 *562:10 0.000180675
*RES
1 *2172:X *562:10 47.5911 
2 *562:10 *562:16 23.1415 
3 *562:16 *562:22 34.2655 
4 *562:22 *562:28 32.8745 
5 *562:28 *562:34 4.944 
6 *562:34 *562:42 44.1612 
7 *562:42 *562:44 6.3757 
8 *562:44 *562:50 39.1489 
9 *562:50 *1959:GATE 40.5356 
10 *562:50 *1960:GATE 47.4366 
11 *562:44 *562:74 24.3054 
12 *562:74 *1961:GATE 44.2333 
13 *562:74 *1962:GATE 40.3193 
14 *562:34 *1963:GATE 20 
15 *562:28 *1964:GATE 20 
16 *562:16 *1955:GATE 20 
17 *562:10 *2126:A 40.1056 
*END

*D_NET *563 0.016534
*CONN
*I *1989:GATE I *D sg13g2_dlhq_1
*I *1972:GATE I *D sg13g2_dlhq_1
*I *1990:GATE I *D sg13g2_dlhq_1
*I *1974:GATE I *D sg13g2_dlhq_1
*I *1973:GATE I *D sg13g2_dlhq_1
*I *1967:GATE I *D sg13g2_dlhq_1
*I *1970:GATE I *D sg13g2_dlhq_1
*I *1969:GATE I *D sg13g2_dlhq_1
*I *2173:X O *D sg13g2_buf_8
*CAP
1 *1989:GATE 0.000316451
2 *1972:GATE 0
3 *1990:GATE 0.00021482
4 *1974:GATE 0
5 *1973:GATE 0
6 *1967:GATE 0.000439447
7 *1970:GATE 0
8 *1969:GATE 0
9 *2173:X 7.90768e-05
10 *563:72 0.000631974
11 *563:61 0.000544951
12 *563:57 0.000295492
13 *563:53 0.00171304
14 *563:38 0.00266913
15 *563:31 0.000125701
16 *563:20 0.000241238
17 *563:14 0.00101381
18 *563:8 0.00172673
19 *1967:GATE *588:114 0.000467536
20 *1967:GATE *609:41 0
21 *1989:GATE *571:121 0.000338865
22 *1989:GATE *618:24 0.000229428
23 *563:8 *2173:A 8.01995e-05
24 *563:31 *606:67 0.000392974
25 *563:31 *616:34 0.000498771
26 *563:38 *1920:A1 5.18521e-05
27 *563:38 *571:26 0
28 *563:38 *571:90 0
29 *563:38 *626:61 0.000599211
30 *563:53 *1920:A1 7.4773e-05
31 *563:53 *609:16 0
32 *563:53 *618:24 0.000438183
33 *563:53 *618:30 2.22695e-05
34 *563:57 *578:6 0.00020871
35 *563:61 *609:16 0
36 *563:72 *609:16 0
37 *1916:S0 *1989:GATE 0
38 *280:24 *1967:GATE 0
39 *285:8 *1967:GATE 0
40 *318:8 *563:38 0.00123543
41 *326:14 *563:61 0.00033605
42 *326:14 *563:72 0.00036908
43 *329:12 *563:72 0
44 *334:10 *563:53 0.000334588
45 *477:20 *563:72 7.52158e-05
46 *477:40 *1990:GATE 0.000272949
47 *515:18 *1989:GATE 0
48 *515:18 *563:53 0
49 *522:55 *1989:GATE 0
50 *533:60 *563:8 0
51 *534:36 *1989:GATE 0
52 *548:39 *563:38 0
53 *550:70 *563:38 0.00018016
54 *556:14 *563:38 0
55 *556:14 *563:53 0
56 *558:33 *1990:GATE 0
57 *561:32 *563:61 7.48178e-05
58 *561:38 *563:57 0.000241052
*RES
1 *2173:X *563:8 40.7519 
2 *563:8 *563:14 25.8607 
3 *563:14 *563:20 42.266 
4 *563:20 *1969:GATE 20 
5 *563:14 *563:31 42.3278 
6 *563:31 *1970:GATE 20 
7 *563:8 *563:38 11.4742 
8 *563:38 *1967:GATE 43.7463 
9 *563:38 *563:53 10.6605 
10 *563:53 *563:57 21.8334 
11 *563:57 *563:61 21.5862 
12 *563:61 *1973:GATE 40 
13 *563:61 *563:72 24.3054 
14 *563:72 *1974:GATE 20 
15 *563:72 *1990:GATE 22.1836 
16 *563:57 *1972:GATE 20 
17 *563:53 *1989:GATE 43.3578 
*END

*D_NET *564 0.012124
*CONN
*I *2039:D I *D sg13g2_dlhq_1
*I *2101:A I *D sg13g2_buf_1
*I *1975:D I *D sg13g2_dlhq_1
*I *2007:D I *D sg13g2_dlhq_1
*I *2223:X O *D sg13g2_buf_1
*CAP
1 *2039:D 0
2 *2101:A 0.00022184
3 *1975:D 0
4 *2007:D 0
5 *2223:X 0.000165673
6 *564:46 0.00154224
7 *564:35 0.00155711
8 *564:20 0.000315626
9 *564:16 0.00121113
10 *564:12 0.00208786
11 *564:8 0.00112131
12 *564:8 *575:10 0
13 *564:16 *567:30 0.000340443
14 *564:16 *597:8 0
15 *564:20 *574:16 0.000144361
16 *564:35 *574:16 0.000208179
17 *564:35 *575:41 0
18 *564:46 *1996:GATE 0
19 *564:46 *572:55 0
20 *564:46 *572:59 0
21 *564:46 *574:20 0
22 *564:46 *605:77 0
23 *564:46 *619:22 0
24 *1903:S0 *564:46 0
25 *1906:S0 *564:46 0
26 *1913:S1 *564:46 0
27 *2217:A *564:8 0
28 *2223:A *564:8 0
29 *298:8 *564:16 0.000605886
30 *302:10 *564:46 0.000208681
31 *434:12 *564:12 0.000891186
32 *445:28 *564:16 0
33 *473:10 *564:20 0.000144361
34 *473:10 *564:35 0.000192848
35 *473:10 *564:46 1.53311e-05
36 *496:12 *564:16 0
37 *511:16 *564:16 0
38 *511:16 *564:35 0.000181891
39 *533:98 *564:16 0
40 *546:16 *564:12 0.000469478
41 *553:48 *564:12 0
42 *553:48 *564:16 0.00049853
*RES
1 *2223:X *564:8 41.5862 
2 *564:8 *564:12 30.4854 
3 *564:12 *564:16 32.2158 
4 *564:16 *564:20 20.9682 
5 *564:20 *2007:D 20 
6 *564:20 *564:35 42.781 
7 *564:35 *1975:D 20 
8 *564:35 *564:46 12.4836 
9 *564:46 *2101:A 22.3999 
10 *564:46 *2039:D 20 
*END

*D_NET *565 0.0118107
*CONN
*I *1985:GATE I *D sg13g2_dlhq_1
*I *1971:GATE I *D sg13g2_dlhq_1
*I *1983:GATE I *D sg13g2_dlhq_1
*I *1978:GATE I *D sg13g2_dlhq_1
*I *1984:GATE I *D sg13g2_dlhq_1
*I *2173:A I *D sg13g2_buf_8
*I *1986:GATE I *D sg13g2_dlhq_1
*I *1965:GATE I *D sg13g2_dlhq_1
*I *2174:X O *D sg13g2_buf_8
*CAP
1 *1985:GATE 0
2 *1971:GATE 0.000152547
3 *1983:GATE 0.000240342
4 *1978:GATE 0
5 *1984:GATE 0.000214605
6 *2173:A 0.000451747
7 *1986:GATE 0
8 *1965:GATE 0.000433538
9 *2174:X 6.27316e-05
10 *565:91 0.000592152
11 *565:82 0.000335003
12 *565:71 0.000533748
13 *565:56 0.00108527
14 *565:36 0.000557931
15 *565:32 0.000212151
16 *565:26 0.000646406
17 *565:22 0.00050773
18 *565:12 0.000559657
19 *565:8 0.000223187
20 *1965:GATE *1894:A0 0.000656819
21 *1965:GATE *616:38 0.000177474
22 *1971:GATE *606:36 0
23 *565:8 *575:10 0
24 *565:8 *586:12 0
25 *565:36 *1894:A0 0
26 *1918:S1 *2173:A 8.21586e-05
27 *1999:D *2173:A 0
28 *2048:D *2173:A 0
29 *2161:A *2173:A 0
30 *131:25 *565:22 0
31 *279:10 *1983:GATE 0
32 *291:14 *1965:GATE 0
33 *445:52 *1984:GATE 0
34 *449:16 *1984:GATE 0.000337322
35 *449:16 *2173:A 0
36 *533:60 *2173:A 0.000144875
37 *546:51 *565:12 0.000290998
38 *546:51 *565:22 0.000579485
39 *547:32 *565:12 0.000306338
40 *547:32 *565:22 0.00014436
41 *549:50 *1965:GATE 0
42 *549:50 *565:36 0.000176394
43 *555:16 *565:26 0.000406664
44 *555:20 *565:26 0
45 *555:20 *565:56 0
46 *555:20 *565:82 0.000394409
47 *555:20 *565:91 0.000211949
48 *555:37 *1971:GATE 0.000265805
49 *555:37 *565:91 0.000340836
50 *558:10 *565:26 0.000405893
51 *558:16 *1971:GATE 0
52 *558:16 *565:56 0
53 *558:16 *565:71 0
54 *558:16 *565:91 0
55 *562:28 *1983:GATE 0
56 *563:8 *2173:A 8.01995e-05
*RES
1 *2174:X *565:8 40.5974 
2 *565:8 *565:12 22.0497 
3 *565:12 *565:22 44.4805 
4 *565:22 *565:26 22.0806 
5 *565:26 *565:32 40.9682 
6 *565:32 *565:36 21.1845 
7 *565:36 *1965:GATE 25.047 
8 *565:36 *1986:GATE 20 
9 *565:26 *565:56 3.3166 
10 *565:56 *2173:A 44.5629 
11 *565:56 *565:71 1.4111 
12 *565:71 *1984:GATE 42.266 
13 *565:71 *565:82 1.8334 
14 *565:82 *1978:GATE 40 
15 *565:82 *565:91 2.575 
16 *565:91 *1983:GATE 42.266 
17 *565:91 *1971:GATE 41.8334 
18 *565:12 *1985:GATE 20 
*END

*D_NET *566 0.0200219
*CONN
*I *1976:GATE I *D sg13g2_dlhq_1
*I *1968:GATE I *D sg13g2_dlhq_1
*I *1977:GATE I *D sg13g2_dlhq_1
*I *2174:A I *D sg13g2_buf_8
*I *1966:GATE I *D sg13g2_dlhq_1
*I *1975:GATE I *D sg13g2_dlhq_1
*I *2175:X O *D sg13g2_buf_8
*CAP
1 *1976:GATE 0
2 *1968:GATE 0.000616676
3 *1977:GATE 4.96192e-05
4 *2174:A 0.000185338
5 *1966:GATE 0
6 *1975:GATE 0
7 *2175:X 0.000193561
8 *566:57 0.000372478
9 *566:49 0.000919726
10 *566:43 0.00148216
11 *566:41 0.00207392
12 *566:37 0.0004113
13 *566:33 0.00124904
14 *566:20 0.0016158
15 *566:14 0.00149087
16 *566:8 0.00129298
17 *1968:GATE *1895:A1 8.00842e-05
18 *1968:GATE *579:20 0
19 *1968:GATE *582:34 8.00842e-05
20 *1968:GATE *609:41 0
21 *1977:GATE *597:18 1.54008e-05
22 *2174:A *1898:A1 0.000289323
23 *566:8 *2017:GATE 4.77699e-05
24 *566:8 *567:12 0
25 *566:14 *572:20 0
26 *566:14 *575:64 0.000547962
27 *566:14 *620:38 0
28 *566:20 *590:102 0
29 *566:20 *607:36 0
30 *566:20 *607:45 0
31 *566:33 *1976:D 0.000128247
32 *566:33 *607:36 0
33 *566:33 *609:57 0
34 *566:37 *610:45 4.77699e-05
35 *566:41 *609:45 0.000370243
36 *566:41 *610:45 0.000661383
37 *566:43 *2042:D 0
38 *566:43 *579:24 0
39 *566:43 *607:36 0
40 *566:43 *620:34 7.33225e-05
41 *566:49 *1898:A1 0.000112099
42 *566:49 *1978:D 0
43 *566:57 *1894:A0 0.000307126
44 *566:57 *575:10 0
45 *1907:S0 *566:33 0.000240377
46 *1918:S0 *566:57 0.000209899
47 *211:58 *566:20 0.000208738
48 *211:58 *566:33 0
49 *279:10 *566:33 0.00107915
50 *288:12 *566:43 0
51 *434:16 *566:33 0
52 *445:38 *566:43 0
53 *449:16 *1977:GATE 8.00842e-05
54 *449:20 *566:33 0
55 *456:50 *2174:A 0
56 *456:50 *566:49 0
57 *460:22 *566:41 0
58 *470:12 *566:14 0
59 *474:16 *566:14 0
60 *483:24 *566:8 0
61 *485:12 *566:14 0
62 *500:44 *1968:GATE 7.33225e-05
63 *509:8 *566:14 0.00172296
64 *518:12 *566:49 0
65 *532:12 *566:14 0
66 *547:32 *566:57 0
67 *548:52 *566:43 0
68 *550:16 *566:14 0.000180885
69 *550:27 *566:14 0.00042576
70 *550:38 *566:14 0.000373934
71 *551:25 *1968:GATE 0.000712544
*RES
1 *2175:X *566:8 41.6171 
2 *566:8 *566:14 35.6251 
3 *566:14 *566:20 43.5638 
4 *566:20 *1975:GATE 20 
5 *566:20 *566:33 31.8347 
6 *566:33 *566:37 20.3193 
7 *566:37 *566:41 24.429 
8 *566:41 *566:43 9.0022 
9 *566:43 *566:49 23.5741 
10 *566:49 *566:57 43.8831 
11 *566:57 *1966:GATE 20 
12 *566:49 *2174:A 22.0497 
13 *566:43 *1977:GATE 40.5356 
14 *566:41 *1968:GATE 46.3242 
15 *566:37 *1976:GATE 20 
*END

*D_NET *567 0.026652
*CONN
*I *1993:GATE I *D sg13g2_dlhq_1
*I *1994:GATE I *D sg13g2_dlhq_1
*I *1982:GATE I *D sg13g2_dlhq_1
*I *1988:GATE I *D sg13g2_dlhq_1
*I *1987:GATE I *D sg13g2_dlhq_1
*I *1991:GATE I *D sg13g2_dlhq_1
*I *1992:GATE I *D sg13g2_dlhq_1
*I *1981:GATE I *D sg13g2_dlhq_1
*I *2176:X O *D sg13g2_buf_8
*CAP
1 *1993:GATE 4.95132e-05
2 *1994:GATE 0
3 *1982:GATE 0.000513716
4 *1988:GATE 0
5 *1987:GATE 2.37578e-05
6 *1991:GATE 0.000835151
7 *1992:GATE 0
8 *1981:GATE 7.29463e-05
9 *2176:X 0.00145809
10 *567:106 0.000385309
11 *567:73 0.000378178
12 *567:65 0.00132077
13 *567:63 0.000678524
14 *567:55 0.00154749
15 *567:47 0.001439
16 *567:36 0.00184511
17 *567:30 0.00183516
18 *567:20 0.000784386
19 *567:12 0.00181954
20 *1981:GATE *610:45 0.000112198
21 *1982:GATE *602:71 0.000367175
22 *1982:GATE *611:16 0
23 *1991:GATE *1889:A1 0
24 *567:12 *1902:A2 0
25 *567:12 *1912:A2 0
26 *567:12 *2017:GATE 0
27 *567:12 *586:47 0
28 *567:20 *586:47 0.00038601
29 *567:30 *586:47 0.000175778
30 *567:30 *597:8 0
31 *567:36 *1914:A2 0
32 *567:36 *2014:GATE 0
33 *567:36 *597:8 0
34 *567:36 *613:36 0
35 *567:47 *2014:GATE 0
36 *567:47 *602:71 0.000287036
37 *567:47 *613:36 0.000337717
38 *567:55 *2024:GATE 0
39 *567:55 *573:96 0
40 *567:63 *2024:GATE 0.00014391
41 *567:73 *612:111 0.000391104
42 *567:73 *614:24 0.000390358
43 *567:106 *2024:GATE 0
44 *567:106 *612:107 0.00014391
45 *1889:S0 *1991:GATE 0
46 *1889:A0 *1991:GATE 0.000466438
47 *1893:A0 *1991:GATE 0.000144024
48 *1899:S1 *567:63 0.000175693
49 *1912:A3 *567:12 0.000530612
50 *1917:S0 *567:63 0
51 *1988:D *567:106 4.77425e-05
52 *1993:D *567:30 0
53 *1993:D *567:36 0
54 *2014:D *1982:GATE 0.00030506
55 *2063:D *1991:GATE 0
56 *2088:A *567:12 0.000242186
57 *2122:A *567:12 4.77425e-05
58 *245:10 *567:12 0.000111037
59 *258:16 *567:12 0
60 *299:8 *567:36 0
61 *339:16 *567:63 0.000144883
62 *339:16 *567:106 0
63 *422:79 *567:55 0
64 *423:16 *567:36 0.00224865
65 *425:67 *1982:GATE 0
66 *425:86 *567:63 0
67 *425:86 *567:65 0
68 *434:31 *1982:GATE 4.77699e-05
69 *445:22 *567:20 3.23417e-05
70 *445:28 *567:20 0.000207956
71 *455:20 *567:73 0.000144728
72 *456:35 *567:20 0
73 *456:50 *567:30 0
74 *464:8 *567:55 0.000628571
75 *473:16 *567:106 0.000655181
76 *483:24 *567:12 0
77 *486:30 *567:73 0.000273536
78 *494:10 *567:106 0
79 *497:14 *567:63 0.000112458
80 *497:14 *567:65 0.000160937
81 *500:101 *1982:GATE 4.77425e-05
82 *503:8 *567:63 0
83 *511:16 *567:55 0.000493241
84 *511:16 *567:106 0.000280657
85 *511:20 *567:106 7.98582e-05
86 *511:24 *567:106 0.000655181
87 *513:22 *567:20 0
88 *549:22 *567:12 0
89 *549:24 *567:12 0
90 *549:34 *567:12 0
91 *549:50 *567:12 0.000305475
92 *549:50 *567:30 0
93 *549:50 *567:36 0
94 *564:16 *567:30 0.000340443
95 *566:8 *567:12 0
*RES
1 *2176:X *567:12 33.85 
2 *567:12 *567:20 43.7904 
3 *567:20 *567:30 43.9552 
4 *567:30 *567:36 34.8835 
5 *567:36 *1981:GATE 40.7519 
6 *567:36 *567:47 3.3166 
7 *567:47 *567:55 46.5405 
8 *567:55 *567:63 25.3148 
9 *567:63 *567:65 1.1845 
10 *567:65 *567:73 44.7483 
11 *567:73 *1992:GATE 20 
12 *567:65 *1991:GATE 27.7559 
13 *567:63 *1987:GATE 20.3502 
14 *567:55 *567:106 45.6238 
15 *567:106 *1988:GATE 40 
16 *567:47 *1982:GATE 45.0985 
17 *567:30 *1994:GATE 20 
18 *567:20 *1993:GATE 20.5974 
*END

*D_NET *568 0.00413963
*CONN
*I *1979:GATE I *D sg13g2_dlhq_1
*I *1980:GATE I *D sg13g2_dlhq_1
*I *1995:GATE I *D sg13g2_dlhq_1
*I *1996:GATE I *D sg13g2_dlhq_1
*I *2177:X O *D sg13g2_buf_1
*CAP
1 *1979:GATE 0.000199945
2 *1980:GATE 0
3 *1995:GATE 0
4 *1996:GATE 0.000301687
5 *2177:X 0.000747442
6 *568:41 0.000168061
7 *568:35 0.000497732
8 *568:31 0.000722593
9 *568:6 0.000456262
10 *1979:GATE *2124:A 0
11 *568:31 *2012:GATE 0
12 *568:31 *2181:A 0
13 *568:31 *574:41 0
14 *568:31 *619:52 0
15 *568:35 *619:41 0
16 *568:35 *619:52 0
17 *568:41 *2012:GATE 0
18 *568:41 *619:52 0.000497316
19 *252:8 *568:41 0
20 *493:20 *1979:GATE 0.000338981
21 *493:20 *568:35 0.000209614
22 *564:46 *1996:GATE 0
*RES
1 *2177:X *568:6 21.6171 
2 *568:6 *1996:GATE 23.5226 
3 *568:6 *1995:GATE 20 
4 *2177:X *568:31 45.5414 
5 *568:31 *568:35 21.4008 
6 *568:35 *568:41 42.3278 
7 *568:41 *1980:GATE 20 
8 *568:35 *1979:GATE 22.266 
*END

*D_NET *569 0.00243028
*CONN
*I *2177:A I *D sg13g2_buf_1
*I *2176:A I *D sg13g2_buf_8
*I *2125:A I *D sg13g2_buf_1
*I *2175:A I *D sg13g2_buf_8
*I *2178:X O *D sg13g2_buf_1
*CAP
1 *2177:A 6.98887e-05
2 *2176:A 3.38418e-05
3 *2125:A 0
4 *2175:A 4.36798e-05
5 *2178:X 7.19921e-05
6 *569:28 0.000374094
7 *569:19 0.000521117
8 *569:6 0.000366425
9 *495:16 *569:6 0
10 *495:24 *2175:A 8.03692e-05
11 *495:24 *569:19 0.000242213
12 *496:22 *2175:A 0
13 *496:22 *569:19 0
14 *549:22 *569:19 0.000338954
15 *549:22 *569:28 0.000287706
*RES
1 *2178:X *569:6 20.8446 
2 *569:6 *2175:A 20.5356 
3 *569:6 *569:19 23.2033 
4 *569:19 *2125:A 40 
5 *569:19 *569:28 3.5638 
6 *569:28 *2176:A 40.3193 
7 *569:28 *2177:A 40.8446 
*END

*D_NET *570 0.00744272
*CONN
*I *2006:GATE I *D sg13g2_dlhq_1
*I *2004:GATE I *D sg13g2_dlhq_1
*I *2005:GATE I *D sg13g2_dlhq_1
*I *2020:GATE I *D sg13g2_dlhq_1
*I *2019:GATE I *D sg13g2_dlhq_1
*I *2021:GATE I *D sg13g2_dlhq_1
*I *2000:GATE I *D sg13g2_dlhq_1
*I *2022:GATE I *D sg13g2_dlhq_1
*I *2179:X O *D sg13g2_buf_2
*CAP
1 *2006:GATE 0.000366136
2 *2004:GATE 0
3 *2005:GATE 0
4 *2020:GATE 0
5 *2019:GATE 0
6 *2021:GATE 0
7 *2000:GATE 0.000207121
8 *2022:GATE 0
9 *2179:X 3.02958e-05
10 *570:77 0.000196939
11 *570:71 0.000397547
12 *570:64 0.00020296
13 *570:56 0.000518645
14 *570:47 0.000310563
15 *570:31 0.00029481
16 *570:25 0.000397222
17 *570:23 0.000701431
18 *570:14 0.00015553
19 *570:6 0.000407073
20 *2000:GATE *571:121 0
21 *2000:GATE *578:18 0.000144542
22 *2006:GATE *599:32 0
23 *2006:GATE *615:14 4.77425e-05
24 *570:14 *598:18 0.000285868
25 *570:31 *578:18 4.77425e-05
26 *570:47 *571:121 0
27 *570:47 *578:18 7.98567e-05
28 *570:64 *1924:A0 0.000112426
29 *570:64 *595:20 0.00028128
30 *570:64 *620:16 0
31 *570:71 *571:121 8.00842e-05
32 *570:77 *582:18 0.00049391
33 *570:77 *612:20 0
34 *1900:S0 *2006:GATE 0.000158331
35 *1900:S0 *570:25 0.000207659
36 *1900:S0 *570:31 0.000124949
37 *2052:D *570:14 4.77425e-05
38 *260:12 *570:64 7.33225e-05
39 *274:10 *570:77 0.000124859
40 *326:24 *570:14 1.54008e-05
41 *435:12 *570:14 0
42 *443:10 *570:6 4.77702e-05
43 *443:10 *570:23 0.000322088
44 *458:14 *2006:GATE 0
45 *458:14 *570:25 0
46 *458:14 *570:31 0
47 *522:61 *2006:GATE 0.00012785
48 *534:53 *2006:GATE 4.77425e-05
49 *559:30 *2000:GATE 0.000352918
50 *559:30 *570:31 3.23694e-05
*RES
1 *2179:X *570:6 20.3193 
2 *570:6 *570:14 41.6583 
3 *570:14 *2022:GATE 20 
4 *570:6 *570:23 22.266 
5 *570:23 *570:25 1.0918 
6 *570:25 *570:31 20.9167 
7 *570:31 *2000:GATE 22.266 
8 *570:31 *2021:GATE 20 
9 *570:25 *570:47 21.6171 
10 *570:47 *2019:GATE 20 
11 *570:47 *570:56 1.1021 
12 *570:56 *570:64 42.0909 
13 *570:64 *2020:GATE 20 
14 *570:56 *570:71 1.6171 
15 *570:71 *570:77 42.3278 
16 *570:77 *2005:GATE 20 
17 *570:71 *2004:GATE 20 
18 *570:23 *2006:GATE 43.1415 
*END

*D_NET *571 0.026864
*CONN
*I *1999:GATE I *D sg13g2_dlhq_1
*I *2179:A I *D sg13g2_buf_2
*I *2003:GATE I *D sg13g2_dlhq_1
*I *2028:GATE I *D sg13g2_dlhq_1
*I *2027:GATE I *D sg13g2_dlhq_1
*I *2001:GATE I *D sg13g2_dlhq_1
*I *2002:GATE I *D sg13g2_dlhq_1
*I *2180:X O *D sg13g2_buf_8
*CAP
1 *1999:GATE 0
2 *2179:A 0
3 *2003:GATE 0.000324001
4 *2028:GATE 0.000263241
5 *2027:GATE 0
6 *2001:GATE 0.000168154
7 *2002:GATE 7.55042e-05
8 *2180:X 0.000268667
9 *571:121 0.00287199
10 *571:94 0.00370582
11 *571:90 0.000857874
12 *571:70 0.000768837
13 *571:48 0.000450772
14 *571:44 0.000712709
15 *571:42 0.00205691
16 *571:26 0.00279037
17 *571:16 0.0020009
18 *571:10 0.00118806
19 *2003:GATE *610:45 0.000596991
20 *571:26 *1926:A0 7.32897e-05
21 *571:26 *606:36 0
22 *571:26 *624:28 0
23 *571:26 *624:43 0
24 *571:42 *1896:A0 4.77699e-05
25 *571:42 *1896:A1 0
26 *571:42 *1922:A0 0
27 *571:42 *1926:A0 0
28 *571:42 *616:28 0
29 *571:42 *624:43 0
30 *571:90 *606:36 0
31 *571:94 *606:36 0
32 *571:94 *618:34 0
33 *571:94 *626:61 0
34 *571:121 *588:114 0
35 *571:121 *606:30 0
36 *571:121 *606:36 0
37 *571:121 *618:30 0
38 *1867:S *571:42 0
39 *1896:S0 *571:42 0
40 *1924:S0 *571:121 0.000208968
41 *1926:S0 *571:42 0
42 *1930:S1 *571:42 0.000114125
43 *1953:C *571:70 0
44 *1954:B *2028:GATE 0
45 *1954:B *571:70 4.75151e-05
46 *1971:D *571:16 4.77425e-05
47 *1989:D *571:121 0
48 *1989:GATE *571:121 0.000338865
49 *2000:GATE *571:121 0
50 *2028:D *571:42 0.00020894
51 *2048:D *571:26 0
52 *2120:A *2001:GATE 0.000144257
53 *2120:A *2002:GATE 0.000144913
54 *2153:A *2028:GATE 0
55 *130:21 *571:10 0.000236294
56 *257:28 *571:90 0
57 *261:8 *571:121 0.000175693
58 *272:12 *571:48 0.00050152
59 *272:12 *571:70 0.000688054
60 *279:10 *571:90 0
61 *285:8 *2003:GATE 0.000596991
62 *306:10 *571:121 0.000144169
63 *324:10 *571:42 0.00011101
64 *324:14 *2028:GATE 0
65 *324:14 *571:42 0.000371352
66 *328:16 *571:42 0
67 *370:16 *571:42 0.000177141
68 *429:12 *571:48 0
69 *429:12 *571:70 0
70 *443:10 *571:121 0.000498485
71 *444:18 *571:121 0.000650805
72 *445:52 *571:16 0
73 *445:58 *571:16 0
74 *445:58 *571:26 0.000787947
75 *447:12 *571:121 0
76 *449:16 *571:10 0
77 *449:16 *571:16 0
78 *460:10 *571:26 0
79 *507:8 *571:10 0
80 *511:55 *571:121 0.000629315
81 *522:55 *571:121 0
82 *533:20 *2001:GATE 0.000129537
83 *533:20 *2002:GATE 0.000145247
84 *533:45 *571:42 0
85 *548:39 *571:16 0
86 *548:39 *571:26 0
87 *551:8 *571:26 0.000447747
88 *559:30 *571:121 1.54008e-05
89 *562:28 *571:16 0
90 *562:28 *571:90 0
91 *563:38 *571:26 0
92 *563:38 *571:90 0
93 *570:47 *571:121 0
94 *570:71 *571:121 8.00842e-05
*RES
1 *2180:X *571:10 42.8325 
2 *571:10 *571:16 47.8333 
3 *571:16 *571:26 48.2194 
4 *571:26 *571:42 39.4779 
5 *571:42 *571:44 20 
6 *571:44 *571:48 22.8222 
7 *571:48 *2002:GATE 20.9682 
8 *571:48 *2001:GATE 21.751 
9 *571:44 *571:70 26.0152 
10 *571:70 *2027:GATE 20 
11 *571:70 *2028:GATE 22.6162 
12 *571:16 *571:90 23.4505 
13 *571:90 *571:94 24.7998 
14 *571:94 *2003:GATE 43.9964 
15 *571:94 *571:121 47.5216 
16 *571:121 *2179:A 20 
17 *571:90 *1999:GATE 20 
*END

*D_NET *572 0.0152236
*CONN
*I *2011:GATE I *D sg13g2_dlhq_1
*I *2010:GATE I *D sg13g2_dlhq_1
*I *2016:GATE I *D sg13g2_dlhq_1
*I *2015:GATE I *D sg13g2_dlhq_1
*I *1997:GATE I *D sg13g2_dlhq_1
*I *2017:GATE I *D sg13g2_dlhq_1
*I *2018:GATE I *D sg13g2_dlhq_1
*I *1998:GATE I *D sg13g2_dlhq_1
*I *2181:X O *D sg13g2_buf_8
*CAP
1 *2011:GATE 0
2 *2010:GATE 0
3 *2016:GATE 0
4 *2015:GATE 2.92584e-05
5 *1997:GATE 0
6 *2017:GATE 0.000148487
7 *2018:GATE 0
8 *1998:GATE 0.000376054
9 *2181:X 0
10 *572:97 0.000703358
11 *572:65 0.000436176
12 *572:59 0.000888147
13 *572:55 0.000857052
14 *572:26 0.000526128
15 *572:20 0.000932984
16 *572:14 0.00115635
17 *572:12 0.00109477
18 *572:4 0.00171054
19 *1998:GATE *1902:A0 0.000339124
20 *1998:GATE *1912:A0 1.54008e-05
21 *572:12 *1891:A2 0
22 *572:12 *2012:D 4.77425e-05
23 *572:12 *2040:D 0
24 *572:12 *2124:A 0
25 *572:12 *605:77 0
26 *572:20 *597:57 0
27 *572:55 *575:41 0.000278163
28 *572:55 *586:55 0.00029967
29 *572:59 *575:41 0.000594192
30 *572:97 *2043:D 0.00012816
31 *572:97 *2124:A 0.000339238
32 *572:97 *608:24 0.000712197
33 *572:97 *608:35 0.000340145
34 *1891:S0 *572:12 0.000209756
35 *1902:S0 *1998:GATE 0
36 *258:16 *2017:GATE 0.0001773
37 *258:16 *572:20 0
38 *259:8 *572:26 0
39 *302:10 *572:12 0.000496843
40 *356:8 *572:20 0
41 *359:8 *572:12 0.000286516
42 *445:22 *572:65 0.000340151
43 *470:12 *572:14 0
44 *470:12 *572:20 0
45 *474:10 *572:12 0.000240569
46 *483:24 *1998:GATE 0.00037158
47 *483:24 *2017:GATE 0.000274527
48 *483:24 *572:26 0
49 *485:16 *572:12 0.000825264
50 *485:16 *572:97 0
51 *486:30 *572:20 0
52 *493:20 *572:12 0
53 *495:16 *1998:GATE 0
54 *495:16 *572:26 0
55 *511:16 *572:65 0
56 *513:22 *572:65 0
57 *522:16 *572:97 0
58 *541:10 *572:97 0
59 *550:16 *572:26 0
60 *564:46 *572:55 0
61 *564:46 *572:59 0
62 *566:8 *2017:GATE 4.77699e-05
63 *566:14 *572:20 0
64 *567:12 *2017:GATE 0
*RES
1 *2181:X *572:4 20 
2 *572:4 *572:12 31.5566 
3 *572:12 *572:14 0.8446 
4 *572:14 *572:20 5.6856 
5 *572:20 *572:26 21.3802 
6 *572:26 *1998:GATE 23.9964 
7 *572:26 *2018:GATE 20 
8 *572:20 *2017:GATE 41.8334 
9 *572:14 *572:55 24.944 
10 *572:55 *572:59 4.841 
11 *572:59 *572:65 44.5526 
12 *572:65 *1997:GATE 20 
13 *572:59 *2015:GATE 20.3502 
14 *572:55 *2016:GATE 20 
15 *572:12 *2010:GATE 40 
16 *572:4 *572:97 48.7962 
17 *572:97 *2011:GATE 20 
*END

*D_NET *573 0.0150948
*CONN
*I *2024:GATE I *D sg13g2_dlhq_1
*I *2013:GATE I *D sg13g2_dlhq_1
*I *2023:GATE I *D sg13g2_dlhq_1
*I *2007:GATE I *D sg13g2_dlhq_1
*I *2014:GATE I *D sg13g2_dlhq_1
*I *2008:GATE I *D sg13g2_dlhq_1
*I *2026:GATE I *D sg13g2_dlhq_1
*I *2025:GATE I *D sg13g2_dlhq_1
*I *2182:X O *D sg13g2_buf_2
*CAP
1 *2024:GATE 0.000293912
2 *2013:GATE 0
3 *2023:GATE 0.000736964
4 *2007:GATE 0
5 *2014:GATE 0.000648122
6 *2008:GATE 0
7 *2026:GATE 0
8 *2025:GATE 0.000220607
9 *2182:X 0.000162691
10 *573:96 0.000738546
11 *573:79 0.00152519
12 *573:50 0.000722475
13 *573:41 0.000345956
14 *573:22 0.00146639
15 *573:18 0.00173305
16 *573:10 0.000832825
17 *573:8 0.000580236
18 *2014:GATE *1899:A1 4.77425e-05
19 *2014:GATE *606:89 1.54008e-05
20 *2023:GATE *1899:A0 0.000176252
21 *2023:GATE *1899:A1 0.000208062
22 *2023:GATE *606:89 0
23 *2025:GATE *583:47 0.000128039
24 *573:8 *590:102 0.000273394
25 *573:18 *574:16 0
26 *573:18 *607:36 0
27 *573:22 *575:37 0.00023135
28 *573:22 *583:47 0
29 *573:41 *1898:A1 0.000304869
30 *1899:S0 *2023:GATE 0
31 *1993:D *2025:GATE 1.55212e-05
32 *2045:D *2014:GATE 0.000126047
33 *2158:A *2023:GATE 0
34 *339:16 *2024:GATE 0.000273026
35 *423:16 *2014:GATE 0.000390334
36 *423:16 *2025:GATE 0
37 *423:16 *573:22 0
38 *423:24 *2014:GATE 0.000920041
39 *423:63 *2023:GATE 1.54008e-05
40 *423:63 *573:79 0.000921432
41 *423:63 *573:96 5.27212e-05
42 *446:10 *2023:GATE 0
43 *493:8 *573:18 0
44 *493:18 *573:8 0.00020871
45 *494:10 *2024:GATE 0
46 *494:10 *573:18 0
47 *494:10 *573:96 0
48 *503:8 *2024:GATE 0
49 *505:14 *2025:GATE 0
50 *511:16 *573:79 0
51 *511:16 *573:96 0
52 *533:68 *573:22 0.000126302
53 *547:26 *2025:GATE 7.52149e-05
54 *549:50 *573:41 0.000306223
55 *555:49 *573:79 0
56 *562:22 *2014:GATE 0
57 *562:22 *573:50 0.00012785
58 *567:36 *2014:GATE 0
59 *567:47 *2014:GATE 0
60 *567:55 *2024:GATE 0
61 *567:55 *573:96 0
62 *567:63 *2024:GATE 0.00014391
63 *567:106 *2024:GATE 0
*RES
1 *2182:X *573:8 41.8334 
2 *573:8 *573:10 0.5974 
3 *573:10 *573:18 46.077 
4 *573:18 *573:22 7.3439 
5 *573:22 *2025:GATE 42.3999 
6 *573:22 *573:41 43.8831 
7 *573:41 *2026:GATE 40 
8 *573:18 *573:50 0.8446 
9 *573:50 *2008:GATE 40 
10 *573:50 *2014:GATE 47.1688 
11 *573:10 *2007:GATE 40 
12 *573:8 *573:79 4.5526 
13 *573:79 *2023:GATE 46.5302 
14 *573:79 *573:96 3.5638 
15 *573:96 *2013:GATE 40 
16 *573:96 *2024:GATE 42.9252 
*END

*D_NET *574 0.0130685
*CONN
*I *2182:A I *D sg13g2_buf_2
*I *2009:GATE I *D sg13g2_dlhq_1
*I *2012:GATE I *D sg13g2_dlhq_1
*I *2124:A I *D sg13g2_buf_1
*I *2181:A I *D sg13g2_buf_8
*I *2183:X O *D sg13g2_buf_2
*CAP
1 *2182:A 0.000297446
2 *2009:GATE 0.000317243
3 *2012:GATE 0.000293747
4 *2124:A 0.000572398
5 *2181:A 0.000297106
6 *2183:X 0.00103213
7 *574:41 0.0010266
8 *574:28 0.00150159
9 *574:20 0.00186025
10 *574:16 0.00182855
11 *2009:GATE *1903:A1 0
12 *2009:GATE *1913:A2 2.18151e-05
13 *2009:GATE *607:45 0
14 *2012:GATE *2039:GATE 0
15 *2012:GATE *619:41 5.30319e-05
16 *2124:A *2012:D 1.54008e-05
17 *2124:A *619:41 0.00027444
18 *2124:A *619:52 3.24568e-05
19 *2181:A *619:26 7.33256e-05
20 *574:16 *575:24 0
21 *574:16 *607:36 0
22 *574:20 *1903:A0 0
23 *574:20 *1903:A1 0.000273997
24 *574:20 *1913:A2 0
25 *574:20 *619:22 0.000144998
26 *574:28 *619:22 4.77699e-05
27 *574:41 *619:26 0.000319022
28 *574:41 *619:41 7.51285e-05
29 *1914:S1 *574:16 0
30 *1979:GATE *2124:A 0
31 *2077:A *574:28 0.000338865
32 *211:46 *574:28 0.000161782
33 *211:58 *574:28 0.000466258
34 *473:10 *574:16 0
35 *473:16 *2182:A 0.000658428
36 *473:16 *574:16 0.000232804
37 *474:10 *2009:GATE 0.000112426
38 *474:10 *574:28 0
39 *484:6 *2181:A 0
40 *485:16 *2124:A 0
41 *485:16 *2181:A 0
42 *485:16 *574:28 0
43 *493:18 *2182:A 4.77425e-05
44 *493:20 *2124:A 0
45 *511:16 *2182:A 0
46 *511:16 *574:16 0
47 *562:28 *574:16 0
48 *564:20 *574:16 0.000144361
49 *564:35 *574:16 0.000208179
50 *564:46 *574:20 0
51 *568:31 *2012:GATE 0
52 *568:31 *2181:A 0
53 *568:31 *574:41 0
54 *568:41 *2012:GATE 0
55 *572:12 *2124:A 0
56 *572:97 *2124:A 0.000339238
57 *573:18 *574:16 0
*RES
1 *2183:X *574:16 49.8159 
2 *574:16 *574:20 24.6453 
3 *574:20 *574:28 30.3206 
4 *574:28 *2181:A 42.678 
5 *574:28 *574:41 1.8334 
6 *574:41 *2124:A 45.9431 
7 *574:41 *2012:GATE 43.0694 
8 *574:20 *2009:GATE 23.0282 
9 *574:16 *2182:A 43.3887 
*END

*D_NET *575 0.0158845
*CONN
*I *1976:D I *D sg13g2_dlhq_1
*I *2040:D I *D sg13g2_dlhq_1
*I *2102:A I *D sg13g2_buf_1
*I *2008:D I *D sg13g2_dlhq_1
*I *2234:X O *D sg13g2_buf_1
*CAP
1 *1976:D 0.000484142
2 *2040:D 0.000164611
3 *2102:A 0.000273793
4 *2008:D 0
5 *2234:X 0.000908389
6 *575:64 0.000784167
7 *575:41 0.00222508
8 *575:37 0.00141547
9 *575:24 0.000346523
10 *575:20 0.00121784
11 *575:10 0.0013793
12 *2040:D *620:63 4.77425e-05
13 *575:10 *1978:D 0
14 *575:10 *2041:D 0
15 *575:10 *586:12 0
16 *575:10 *586:23 0
17 *575:20 *597:18 0
18 *575:41 *597:42 0.00137078
19 *575:41 *597:57 0.000176442
20 *575:64 *2039:GATE 0
21 *1891:S0 *2040:D 0
22 *1913:S1 *575:64 0.000241023
23 *1914:S1 *575:41 0
24 *2109:A *575:41 0
25 *2165:A *575:41 4.77425e-05
26 *130:21 *575:10 0.000177127
27 *302:10 *575:64 0.000143998
28 *423:16 *575:37 0.00023135
29 *434:16 *1976:D 0
30 *434:16 *575:20 0
31 *449:16 *575:20 0.00043263
32 *449:16 *575:24 0
33 *449:20 *1976:D 0
34 *449:20 *575:20 0
35 *467:30 *575:10 0
36 *467:40 *575:10 0
37 *470:12 *2102:A 0.000716259
38 *470:12 *575:64 0.000479166
39 *473:10 *575:41 0
40 *478:34 *575:10 0.000112528
41 *485:12 *2102:A 1.54008e-05
42 *485:12 *575:64 0.000391087
43 *493:20 *2040:D 0.000241955
44 *508:12 *2102:A 0
45 *508:12 *575:64 0
46 *509:8 *575:64 0
47 *546:43 *575:10 0
48 *549:34 *2102:A 8.00496e-05
49 *564:8 *575:10 0
50 *564:35 *575:41 0
51 *565:8 *575:10 0
52 *566:14 *575:64 0.000547962
53 *566:33 *1976:D 0.000128247
54 *566:57 *575:10 0
55 *572:12 *2040:D 0
56 *572:55 *575:41 0.000278163
57 *572:59 *575:41 0.000594192
58 *573:22 *575:37 0.00023135
59 *574:16 *575:24 0
*RES
1 *2234:X *575:10 49.2597 
2 *575:10 *575:20 44.326 
3 *575:20 *575:24 22.1692 
4 *575:24 *2008:D 20 
5 *575:24 *575:37 41.4111 
6 *575:37 *575:41 33.9462 
7 *575:41 *2102:A 43.8522 
8 *575:41 *575:64 48.0752 
9 *575:64 *2040:D 41.9673 
10 *575:20 *1976:D 44.5526 
*END

*D_NET *576 0.0163554
*CONN
*I *2051:GATE I *D sg13g2_dlhq_1
*I *2054:GATE I *D sg13g2_dlhq_1
*I *2053:GATE I *D sg13g2_dlhq_1
*I *2052:GATE I *D sg13g2_dlhq_1
*I *2056:GATE I *D sg13g2_dlhq_1
*I *2055:GATE I *D sg13g2_dlhq_1
*I *2047:GATE I *D sg13g2_dlhq_1
*I *2057:GATE I *D sg13g2_dlhq_1
*I *2184:X O *D sg13g2_buf_8
*CAP
1 *2051:GATE 0
2 *2054:GATE 0.000462729
3 *2053:GATE 0.000231281
4 *2052:GATE 0
5 *2056:GATE 2.60565e-05
6 *2055:GATE 0
7 *2047:GATE 0.000218381
8 *2057:GATE 0
9 *2184:X 0.000331566
10 *576:87 0.000722216
11 *576:78 9.51245e-05
12 *576:74 0.000318514
13 *576:40 0.000674212
14 *576:32 0.00119722
15 *576:26 0.00149837
16 *576:18 0.00157474
17 *576:12 0.000455659
18 *576:10 0.000631766
19 *2047:GATE *590:70 0
20 *2053:GATE *583:32 0
21 *576:10 *612:30 0
22 *576:18 *588:49 7.99736e-05
23 *576:26 *584:38 0
24 *576:26 *600:26 0.000180885
25 *576:32 *590:70 1.54285e-05
26 *576:40 *578:90 0
27 *576:74 *584:73 0.00020871
28 *576:74 *612:30 0.00020871
29 *1861:B_N *576:32 8.00842e-05
30 *1872:A2 *576:18 0
31 *1879:B1 *576:40 0
32 *1953:C *576:32 0.000144542
33 *1959:D *576:26 0
34 *224:22 *2047:GATE 1.54285e-05
35 *224:32 *2047:GATE 0
36 *227:10 *576:26 0
37 *231:10 *576:12 0.000181608
38 *231:10 *576:18 0.000550038
39 *231:10 *576:74 0
40 *234:12 *576:26 0.00144787
41 *237:23 *576:32 0
42 *237:40 *2047:GATE 0.00037181
43 *268:8 *2053:GATE 0.000208035
44 *268:14 *576:26 0
45 *279:22 *576:26 0
46 *281:20 *576:40 0.000500715
47 *282:18 *2047:GATE 0
48 *325:16 *576:26 0.000235153
49 *332:8 *576:40 0.00055508
50 *375:12 *576:32 7.9225e-05
51 *425:26 *2056:GATE 4.77425e-05
52 *425:26 *576:10 0
53 *443:10 *2054:GATE 0
54 *444:12 *576:12 0
55 *444:12 *576:18 0
56 *444:12 *576:74 0
57 *476:12 *576:26 0
58 *477:14 *2054:GATE 0.000207962
59 *477:14 *576:78 0.00034024
60 *477:14 *576:87 0.000103961
61 *498:24 *576:10 1.54008e-05
62 *498:24 *576:74 0.000126354
63 *500:66 *2056:GATE 4.77425e-05
64 *512:12 *2054:GATE 0.000229435
65 *512:12 *576:40 0
66 *512:12 *576:78 0.00034024
67 *512:12 *576:87 0.00012601
68 *545:80 *576:18 0.000240377
69 *545:80 *576:26 7.98582e-05
70 *549:64 *576:40 0.000240361
71 *559:30 *2053:GATE 0
72 *559:30 *2054:GATE 0.000596416
73 *561:18 *2054:GATE 0.000112198
74 *562:74 *576:40 0
*RES
1 *2184:X *576:10 42.8325 
2 *576:10 *576:12 0.8446 
3 *576:12 *576:18 24.1921 
4 *576:18 *576:26 32.2982 
5 *576:26 *576:32 22.8325 
6 *576:32 *576:40 47.6529 
7 *576:40 *2057:GATE 20 
8 *576:32 *2047:GATE 22.4823 
9 *576:18 *2055:GATE 20 
10 *576:12 *2056:GATE 40.3193 
11 *576:10 *576:74 22.8119 
12 *576:74 *576:78 21.5862 
13 *576:78 *2052:GATE 40 
14 *576:78 *576:87 0.5974 
15 *576:87 *2053:GATE 42.266 
16 *576:87 *2054:GATE 45.0882 
17 *576:74 *2051:GATE 20 
*END

*D_NET *577 0.00371556
*CONN
*I *2050:GATE I *D sg13g2_dlhq_1
*I *2058:GATE I *D sg13g2_dlhq_1
*I *2060:GATE I *D sg13g2_dlhq_1
*I *2059:GATE I *D sg13g2_dlhq_1
*I *2185:X O *D sg13g2_buf_1
*CAP
1 *2050:GATE 0
2 *2058:GATE 0.00013755
3 *2060:GATE 0
4 *2059:GATE 0.000220829
5 *2185:X 8.53887e-05
6 *577:22 0.000385197
7 *577:18 0.000669954
8 *577:14 0.000572534
9 *577:8 0.000289887
10 *1952:B1 *577:22 0
11 *2120:A *577:14 0.000112099
12 *227:10 *2058:GATE 0
13 *227:10 *577:18 0
14 *234:12 *577:8 0.000183436
15 *237:16 *2059:GATE 0.000240332
16 *237:16 *577:22 8.00496e-05
17 *237:75 *2059:GATE 0
18 *324:14 *2059:GATE 0.00033703
19 *324:14 *577:22 0.000257274
20 *328:16 *577:14 0
21 *426:26 *2058:GATE 0
22 *426:26 *577:18 0
23 *547:52 *577:14 0.000143998
24 *547:79 *577:14 0
25 *549:64 *577:14 0
*RES
1 *2185:X *577:8 41.0918 
2 *577:8 *577:14 22.1836 
3 *577:14 *577:18 23.0694 
4 *577:18 *577:22 21.8334 
5 *577:22 *2059:GATE 22.6162 
6 *577:22 *2060:GATE 20 
7 *577:18 *2058:GATE 41.339 
8 *577:14 *2050:GATE 20 
*END

*D_NET *578 0.0233904
*CONN
*I *2048:GATE I *D sg13g2_dlhq_1
*I *2034:GATE I *D sg13g2_dlhq_1
*I *2033:GATE I *D sg13g2_dlhq_1
*I *2030:GATE I *D sg13g2_dlhq_1
*I *2029:GATE I *D sg13g2_dlhq_1
*I *2185:A I *D sg13g2_buf_1
*I *2049:GATE I *D sg13g2_dlhq_1
*I *2184:A I *D sg13g2_buf_8
*I *2186:X O *D sg13g2_buf_8
*CAP
1 *2048:GATE 0
2 *2034:GATE 0.000144999
3 *2033:GATE 0
4 *2030:GATE 0
5 *2029:GATE 0
6 *2185:A 0
7 *2049:GATE 0
8 *2184:A 0.000321748
9 *2186:X 0.000571338
10 *578:90 0.000779712
11 *578:78 0.00101802
12 *578:70 0.000479415
13 *578:61 0.000429771
14 *578:57 0.000811891
15 *578:51 0.00174832
16 *578:41 0.00111813
17 *578:35 0.00167866
18 *578:18 0.00127421
19 *578:6 0.00306442
20 *2034:GATE *616:38 0.000209198
21 *2184:A *583:32 0.000471837
22 *578:35 *609:16 0.00196811
23 *578:35 *609:26 0
24 *1894:S0 *2034:GATE 0
25 *1894:S0 *578:57 0
26 *1894:S0 *578:70 0
27 *2000:GATE *578:18 0.000144542
28 *2050:D *578:90 0.000274812
29 *213:14 *578:78 0.000111685
30 *214:10 *578:70 0
31 *224:12 *578:41 0
32 *226:14 *578:70 0.000241567
33 *226:14 *578:78 1.54556e-05
34 *240:10 *578:51 0.000654865
35 *268:8 *2184:A 0
36 *273:16 *578:35 0
37 *276:8 *578:18 0.000177891
38 *277:12 *578:35 0
39 *278:22 *578:35 0
40 *278:22 *578:51 0
41 *278:22 *578:57 0
42 *326:14 *578:35 0
43 *328:16 *578:90 0.000337422
44 *344:10 *578:57 0
45 *344:10 *578:61 0
46 *460:10 *578:51 0
47 *472:12 *578:18 0.00017812
48 *511:55 *578:18 0.000161669
49 *511:65 *578:18 0.000530036
50 *512:12 *578:90 0
51 *522:38 *578:6 0.000338192
52 *533:20 *578:78 0
53 *544:75 *578:35 0.000497331
54 *546:51 *578:57 0.000777752
55 *546:51 *578:61 0.00027467
56 *546:51 *578:70 0
57 *546:51 *578:78 0
58 *546:51 *578:90 0.000274642
59 *547:38 *578:78 7.51285e-05
60 *547:42 *578:78 3.23417e-05
61 *547:52 *578:78 1.54008e-05
62 *549:64 *578:57 0
63 *549:64 *578:61 0
64 *551:8 *578:57 0
65 *556:14 *578:35 0
66 *559:30 *2184:A 0.000294629
67 *559:30 *578:18 0.00114395
68 *559:36 *578:6 0
69 *561:32 *578:35 0.00028427
70 *561:38 *578:6 0
71 *562:34 *578:41 1.54556e-05
72 *562:34 *578:51 0.000112426
73 *563:57 *578:6 0.00020871
74 *570:31 *578:18 4.77425e-05
75 *570:47 *578:18 7.98567e-05
76 *576:40 *578:90 0
*RES
1 *2186:X *578:6 25.2942 
2 *578:6 *578:18 30.8356 
3 *578:18 *2184:A 43.5844 
4 *578:6 *578:35 36.171 
5 *578:35 *578:41 21.0986 
6 *578:41 *578:51 28.9404 
7 *578:51 *578:57 26.6332 
8 *578:57 *578:61 2.1836 
9 *578:61 *2049:GATE 20 
10 *578:61 *578:70 2.6162 
11 *578:70 *578:78 42.678 
12 *578:78 *578:90 48.7241 
13 *578:90 *2185:A 20 
14 *578:78 *2029:GATE 20 
15 *578:70 *2030:GATE 20 
16 *578:57 *2033:GATE 20 
17 *578:51 *2034:GATE 41.4008 
18 *578:41 *2048:GATE 20 
*END

*D_NET *579 0.0240819
*CONN
*I *2038:GATE I *D sg13g2_dlhq_1
*I *2046:GATE I *D sg13g2_dlhq_1
*I *2037:GATE I *D sg13g2_dlhq_1
*I *2044:GATE I *D sg13g2_dlhq_1
*I *2032:GATE I *D sg13g2_dlhq_1
*I *2031:GATE I *D sg13g2_dlhq_1
*I *2042:GATE I *D sg13g2_dlhq_1
*I *2041:GATE I *D sg13g2_dlhq_1
*I *2187:X O *D sg13g2_buf_8
*CAP
1 *2038:GATE 0.000325169
2 *2046:GATE 0
3 *2037:GATE 0.000283006
4 *2044:GATE 0
5 *2032:GATE 0.00017575
6 *2031:GATE 0
7 *2042:GATE 0
8 *2041:GATE 0
9 *2187:X 2.67539e-05
10 *579:104 0.000303272
11 *579:87 0.000586278
12 *579:85 0.000525493
13 *579:76 0.00199598
14 *579:70 0.00294948
15 *579:34 0.000281918
16 *579:24 0.000920084
17 *579:20 0.00116787
18 *579:16 0.000834803
19 *579:12 0.0015718
20 *579:8 0.00071603
21 *2032:GATE *583:32 4.77699e-05
22 *2032:GATE *605:59 4.77699e-05
23 *2037:GATE *1888:A1 0.000466931
24 *2037:GATE *602:60 0
25 *2037:GATE *613:20 0.000176393
26 *2038:GATE *613:28 5.30319e-05
27 *579:8 *581:34 4.75166e-05
28 *579:12 *2187:A 0
29 *579:12 *613:28 0.00123292
30 *579:34 *607:36 0
31 *579:34 *609:57 0.00012816
32 *579:70 *612:107 0
33 *579:76 *605:59 0
34 *579:76 *605:114 0
35 *579:85 *613:28 0.000419774
36 *579:104 *1888:A1 0.000468577
37 *579:104 *580:8 0.000124862
38 *579:104 *602:60 0.000403894
39 *1889:A3 *579:76 0
40 *1889:S1 *579:76 1.73259e-05
41 *1893:S1 *579:76 0.000235785
42 *1895:S1 *579:70 0
43 *1933:S *579:76 0.000273564
44 *1935:A1 *579:12 0
45 *1968:GATE *579:20 0
46 *2061:CLK *579:76 0
47 *2063:RESET_B *579:76 0
48 *2063:CLK *579:76 0
49 *220:14 *579:76 0
50 *279:10 *579:34 0.000274412
51 *286:10 *579:20 0.000334311
52 *319:8 *579:104 0.000124862
53 *341:10 *579:76 0
54 *424:54 *2037:GATE 0.000112418
55 *425:71 *579:70 0.00030499
56 *431:12 *2038:GATE 0.00039332
57 *443:34 *2038:GATE 0
58 *443:34 *579:12 0
59 *443:34 *579:85 0
60 *444:24 *2038:GATE 0.000144569
61 *448:14 *579:16 0.000175798
62 *448:14 *579:70 0.000743039
63 *452:12 *579:76 0.00149816
64 *453:8 *579:76 0
65 *455:24 *579:76 0
66 *459:8 *579:12 0
67 *459:18 *579:70 0.000725923
68 *460:54 *579:76 0
69 *477:40 *2038:GATE 0.000144542
70 *491:18 *579:76 0
71 *494:10 *579:70 0
72 *500:44 *2032:GATE 0
73 *500:44 *579:20 0
74 *507:8 *2032:GATE 0.000444964
75 *507:8 *579:20 0.00138926
76 *507:8 *579:24 0
77 *532:10 *579:70 0
78 *534:30 *579:8 4.75166e-05
79 *548:52 *579:24 0.000340704
80 *556:47 *579:12 7.51285e-05
81 *562:16 *579:70 0
82 *566:43 *579:24 0
*RES
1 *2187:X *579:8 40.3193 
2 *579:8 *579:12 25.7886 
3 *579:12 *579:16 21.1845 
4 *579:16 *579:20 6.8495 
5 *579:20 *579:24 25.047 
6 *579:24 *579:34 43.2136 
7 *579:34 *2041:GATE 20 
8 *579:24 *2042:GATE 20 
9 *579:20 *2031:GATE 40 
10 *579:16 *2032:GATE 42.3999 
11 *579:12 *579:70 49.7541 
12 *579:70 *579:76 39.3267 
13 *579:76 *2044:GATE 40 
14 *579:8 *579:85 2.0806 
15 *579:85 *579:87 20 
16 *579:87 *2037:GATE 23.1312 
17 *579:87 *579:104 43.8316 
18 *579:104 *2046:GATE 20 
19 *579:85 *2038:GATE 43.5432 
*END

*D_NET *580 0.0169102
*CONN
*I *2045:GATE I *D sg13g2_dlhq_1
*I *2043:GATE I *D sg13g2_dlhq_1
*I *2040:GATE I *D sg13g2_dlhq_1
*I *2039:GATE I *D sg13g2_dlhq_1
*I *2035:GATE I *D sg13g2_dlhq_1
*I *2036:GATE I *D sg13g2_dlhq_1
*I *2188:X O *D sg13g2_buf_2
*CAP
1 *2045:GATE 4.79121e-05
2 *2043:GATE 0
3 *2040:GATE 0
4 *2039:GATE 0.000403472
5 *2035:GATE 0.000179593
6 *2036:GATE 0
7 *2188:X 0.000414998
8 *580:90 0.000412756
9 *580:66 0.000754353
10 *580:62 0.00139819
11 *580:43 0.00171674
12 *580:24 0.00126313
13 *580:22 0.00108563
14 *580:12 0.000973187
15 *580:8 0.000615179
16 *2035:GATE *605:65 0.000179389
17 *2035:GATE *609:77 0.00020911
18 *2039:GATE *619:41 0
19 *580:8 *2187:A 0
20 *580:8 *2188:A 0
21 *580:43 *605:65 0.00128537
22 *580:90 *2044:D 0.000106064
23 *580:90 *619:52 7.51285e-05
24 *1905:S1 *580:90 0
25 *1917:S1 *580:24 0
26 *1933:S *580:24 0
27 *1933:S *580:43 0
28 *2012:GATE *2039:GATE 0
29 *212:18 *580:43 0.000232418
30 *241:10 *2035:GATE 7.52158e-05
31 *241:10 *580:43 0.000630055
32 *241:10 *580:62 0.000144169
33 *297:12 *580:66 0
34 *319:8 *580:8 0
35 *337:10 *580:24 0.00011101
36 *422:87 *580:62 0
37 *422:96 *580:62 0.000242071
38 *422:96 *580:90 0.000112426
39 *446:16 *580:22 0.00028128
40 *448:20 *580:22 0
41 *463:8 *580:66 0
42 *486:30 *2035:GATE 0
43 *486:30 *580:90 0
44 *491:18 *580:24 0
45 *491:24 *580:24 0.000402205
46 *491:24 *580:43 0.000402306
47 *509:8 *2039:GATE 0
48 *511:55 *2045:GATE 0
49 *511:55 *580:12 0
50 *522:34 *580:22 0.000564862
51 *534:30 *2045:GATE 8.01995e-05
52 *534:30 *580:12 0.000272718
53 *544:20 *580:62 1.54008e-05
54 *544:20 *580:90 0.000583166
55 *544:28 *2035:GATE 0.000209083
56 *544:28 *580:62 0
57 *559:36 *580:22 4.78853e-05
58 *559:47 *580:22 0.000273766
59 *561:38 *580:22 0.000984937
60 *561:38 *580:24 0
61 *561:42 *580:43 0
62 *575:64 *2039:GATE 0
63 *579:104 *580:8 0.000124862
*RES
1 *2188:X *580:8 43.5638 
2 *580:8 *580:12 21.8334 
3 *580:12 *580:22 48.5284 
4 *580:22 *580:24 3.5638 
5 *580:24 *2036:GATE 20 
6 *580:24 *580:43 31.3764 
7 *580:43 *2035:GATE 42.2454 
8 *580:43 *580:62 25.7474 
9 *580:62 *580:66 23.3166 
10 *580:66 *2039:GATE 44.3054 
11 *580:66 *2040:GATE 40 
12 *580:62 *580:90 44.841 
13 *580:90 *2043:GATE 20 
14 *580:12 *2045:GATE 20.5356 
*END

*D_NET *581 0.00564291
*CONN
*I *2188:A I *D sg13g2_buf_2
*I *2187:A I *D sg13g2_buf_8
*I *2186:A I *D sg13g2_buf_8
*I *2123:A I *D sg13g2_buf_1
*I *2189:X O *D sg13g2_buf_2
*CAP
1 *2188:A 0.000437794
2 *2187:A 0.000263433
3 *2186:A 0
4 *2123:A 0.000429358
5 *2189:X 0.000239504
6 *581:34 0.0013855
7 *581:25 0.000717713
8 *581:10 0.000702306
9 *2123:A *606:30 0
10 *2188:A *602:60 0.000274527
11 *581:10 *1888:A1 4.77425e-05
12 *581:10 *606:30 0
13 *2046:D *2187:A 0
14 *319:8 *2187:A 0
15 *327:12 *2123:A 0
16 *327:12 *581:10 0
17 *431:6 *2188:A 0.000274527
18 *432:14 *581:34 0
19 *432:26 *581:10 0
20 *443:34 *2187:A 0
21 *443:34 *2188:A 0
22 *522:38 *2123:A 8.00842e-05
23 *534:36 *581:25 4.77425e-05
24 *534:36 *581:34 0.000614933
25 *559:36 *2123:A 8.02267e-05
26 *579:8 *581:34 4.75166e-05
27 *579:12 *2187:A 0
28 *580:8 *2187:A 0
29 *580:8 *2188:A 0
*RES
1 *2189:X *581:10 41.9055 
2 *581:10 *2123:A 43.3578 
3 *581:10 *581:25 20.3193 
4 *581:25 *2186:A 20 
5 *581:25 *581:34 26.1594 
6 *581:34 *2187:A 42.0806 
7 *581:34 *2188:A 44.1612 
*END

*D_NET *582 0.0339129
*CONN
*I *1934:A0 I *D sg13g2_mux2_1
*I *1899:A0 I *D sg13g2_mux4_1
*I *1895:A0 I *D sg13g2_mux4_1
*I *2221:X O *D sg13g2_buf_2
*CAP
1 *1934:A0 0
2 *1899:A0 0.000394264
3 *1895:A0 0
4 *2221:X 5.92829e-05
5 *582:68 0.00100732
6 *582:51 0.00228413
7 *582:42 0.0010777
8 *582:34 0.00180436
9 *582:26 0.00181908
10 *582:18 0.00131944
11 *582:14 0.00448301
12 *582:12 0.00404683
13 *582:8 0.000732665
14 *1899:A0 *602:79 0.000177891
15 *1899:A0 *604:16 0.000391047
16 *582:14 *593:18 0
17 *582:18 *605:20 0.00102654
18 *582:18 *612:20 0
19 *582:26 *625:26 0.00038373
20 *582:34 *1895:A1 0
21 *582:34 *1925:A0 0.000143938
22 *582:34 *625:28 0
23 *582:34 *625:35 0
24 *582:42 *613:28 0.000282459
25 *582:68 *604:16 0.00204776
26 *1895:S0 *582:42 0.000145107
27 *1899:S0 *1899:A0 1.54008e-05
28 *1924:A2 *582:18 0
29 *1968:GATE *582:34 8.00842e-05
30 *2006:D *582:14 0
31 *2023:GATE *1899:A0 0.000176252
32 *2160:A *582:34 0
33 *2221:A *582:8 0
34 *120:9 *582:12 0.000449257
35 *122:13 *582:14 0
36 *123:11 *582:12 0
37 *123:11 *582:14 0.000112426
38 *124:11 *582:12 0
39 *127:7 *582:8 0
40 *128:11 *582:12 0
41 *135:13 *582:26 0
42 *261:14 *582:26 0.000384773
43 *274:10 *582:18 0
44 *275:8 *582:18 0
45 *286:10 *582:34 0.000208035
46 *288:12 *582:34 8.21586e-05
47 *422:79 *582:42 0
48 *422:79 *582:51 0.00153089
49 *424:16 *582:18 0
50 *425:42 *582:34 1.51e-05
51 *425:67 *582:34 0
52 *432:14 *582:68 0.000176367
53 *464:8 *582:51 0
54 *471:10 *582:26 8.09323e-05
55 *475:12 *1899:A0 0
56 *475:12 *582:68 0
57 *477:20 *582:14 0.0017591
58 *491:18 *582:68 0.000231432
59 *503:8 *582:42 0.000144915
60 *503:8 *582:51 0.00159571
61 *513:22 *1899:A0 0.000177977
62 *516:8 *582:68 0
63 *539:18 *582:14 0
64 *557:38 *582:18 0.000235141
65 *561:12 *582:12 0.00233652
66 *570:77 *582:18 0.00049391
*RES
1 *2221:X *582:8 40.5356 
2 *582:8 *582:12 30.7326 
3 *582:12 *582:14 33.6295 
4 *582:14 *582:18 30.4854 
5 *582:18 *582:26 42.4635 
6 *582:26 *582:34 34.3994 
7 *582:34 *582:42 42.3072 
8 *582:42 *1895:A0 20 
9 *582:42 *582:51 30.7017 
10 *582:51 *1899:A0 44.2539 
11 *582:51 *582:68 30.9283 
12 *582:68 *1934:A0 20 
*END

*D_NET *583 0.0363704
*CONN
*I *1898:A0 I *D sg13g2_mux4_1
*I *1894:A0 I *D sg13g2_mux4_1
*I *1935:A0 I *D sg13g2_mux2_1
*I *2222:X O *D sg13g2_buf_2
*CAP
1 *1898:A0 4.53135e-05
2 *1894:A0 0.00173308
3 *1935:A0 0
4 *2222:X 0.000195592
5 *583:49 0.00177839
6 *583:47 0.00239763
7 *583:32 0.00767892
8 *583:20 0.00708058
9 *583:12 0.00199488
10 *1894:A0 *616:38 0
11 *583:12 *593:10 0
12 *583:32 *605:53 0.000564517
13 *583:32 *605:59 0
14 *583:32 *616:16 0.000144768
15 *583:47 *586:31 0.000339197
16 *1894:S0 *1894:A0 1.54285e-05
17 *1898:S0 *1894:A0 0
18 *1898:S0 *1898:A0 1.54285e-05
19 *1918:S0 *1894:A0 0
20 *1935:A1 *583:32 0
21 *1935:S *583:32 0
22 *1965:GATE *1894:A0 0.000656819
23 *2025:GATE *583:47 0.000128039
24 *2032:GATE *583:32 4.77699e-05
25 *2045:D *583:47 1.55887e-05
26 *2053:GATE *583:32 0
27 *2056:D *583:32 0.000273394
28 *2184:A *583:32 0.000471837
29 *2219:A *583:12 4.77079e-05
30 *2221:A *583:20 0.0002349
31 *119:9 *583:20 0
32 *120:9 *583:20 0.000111876
33 *138:11 *583:20 0
34 *159:9 *583:20 0
35 *163:13 *583:12 7.49633e-05
36 *229:14 *583:32 0.000434147
37 *268:8 *583:32 0
38 *277:8 *1894:A0 0.000209729
39 *278:14 *1894:A0 0
40 *435:8 *583:32 0.000241193
41 *446:16 *583:47 0.00144802
42 *448:20 *583:47 0
43 *472:8 *583:32 7.92265e-05
44 *491:18 *583:47 0.000175693
45 *505:14 *583:47 0
46 *511:65 *583:32 0.000112426
47 *518:8 *583:32 0
48 *547:26 *1894:A0 0
49 *547:32 *1894:A0 0
50 *549:50 *1894:A0 0
51 *549:50 *1898:A0 8.01118e-05
52 *559:14 *583:20 0
53 *559:14 *583:32 0
54 *559:30 *583:32 0
55 *559:36 *583:32 1.51734e-05
56 *559:36 *583:47 0
57 *561:12 *583:20 0.00378198
58 *561:26 *583:32 0.000468121
59 *562:22 *583:47 0.00297082
60 *565:36 *1894:A0 0
61 *566:57 *1894:A0 0.000307126
62 *573:22 *583:47 0
*RES
1 *2222:X *583:12 42.163 
2 *583:12 *583:20 45.3689 
3 *583:20 *583:32 48.5439 
4 *583:32 *1935:A0 20 
5 *583:32 *583:47 45.5646 
6 *583:47 *583:49 20 
7 *583:49 *1894:A0 37.2422 
8 *583:49 *1898:A0 20.5356 
*END

*D_NET *584 0.0276931
*CONN
*I *1916:A0 I *D sg13g2_mux4_1
*I *1855:A I *D sg13g2_inv_1
*I *1858:A0 I *D sg13g2_mux4_1
*I *1873:A0 I *D sg13g2_mux4_1
*I *1911:A0 I *D sg13g2_mux4_1
*I *2224:X O *D sg13g2_buf_2
*CAP
1 *1916:A0 0
2 *1855:A 7.00632e-05
3 *1858:A0 0
4 *1873:A0 6.98508e-05
5 *1911:A0 0
6 *2224:X 0.000538534
7 *584:102 0.000153929
8 *584:96 0.00210665
9 *584:79 0.000224065
10 *584:73 0.000729723
11 *584:58 0.000218531
12 *584:38 0.00074709
13 *584:26 0.00128515
14 *584:22 0.00116131
15 *584:20 0.00181188
16 *584:18 0.00460219
17 *584:14 0.00288145
18 *584:10 0.00153211
19 *584:10 *589:8 0.000209669
20 *584:10 *594:8 0
21 *584:10 *600:10 0.000792047
22 *584:14 *589:16 0.000802408
23 *584:14 *599:22 0
24 *584:18 *589:32 0
25 *584:18 *617:10 0
26 *584:18 *620:8 0
27 *584:18 *628:16 0
28 *584:20 *589:32 0
29 *584:22 *585:74 0.000805306
30 *584:22 *589:32 0
31 *584:26 *1873:A1 0
32 *584:26 *588:60 0
33 *584:26 *588:62 0
34 *584:26 *601:60 0.000176083
35 *584:38 *1910:A1 8.01116e-05
36 *584:73 *612:30 0
37 *584:79 *612:38 0.000276948
38 *584:96 *1924:A3 0.000144655
39 *584:96 *593:18 0.000886497
40 *1864:A2 *584:38 0
41 *1878:S *584:38 0.000498172
42 *1887:A1 *584:38 0
43 *1945:A2 *1855:A 0.000112648
44 *2056:D *584:20 0.000286638
45 *2056:D *584:22 0.000548043
46 *2258:A *584:18 7.34081e-05
47 *138:13 *584:79 0
48 *223:26 *1873:A0 0
49 *223:56 *1873:A0 1.54008e-05
50 *223:77 *584:22 0.000705224
51 *223:77 *584:26 0.000181145
52 *231:57 *584:38 0.000186814
53 *231:77 *1873:A0 0
54 *231:77 *584:38 0
55 *234:31 *584:58 0.000155414
56 *257:28 *584:38 8.01116e-05
57 *268:14 *584:73 7.34783e-05
58 *279:22 *584:38 0.000231238
59 *371:22 *584:38 0.000549608
60 *375:20 *584:58 0
61 *399:18 *584:58 0.000240492
62 *404:8 *584:73 0
63 *424:33 *584:96 0
64 *424:54 *584:96 4.77699e-05
65 *426:14 *584:38 0.000273624
66 *435:8 *584:73 0
67 *444:18 *584:102 0.000388494
68 *447:12 *584:102 0
69 *504:10 *584:18 0
70 *504:10 *584:20 0
71 *534:53 *584:96 4.75151e-05
72 *539:18 *584:96 0
73 *557:30 *584:96 0
74 *557:38 *584:96 8.00842e-05
75 *561:26 *584:73 0.000402835
76 *576:26 *584:38 0
77 *576:74 *584:73 0.00020871
*RES
1 *2224:X *584:10 45.6444 
2 *584:10 *584:14 31.9995 
3 *584:14 *584:18 37.407 
4 *584:18 *584:20 6.5302 
5 *584:20 *584:22 6.7774 
6 *584:22 *584:26 24.0582 
7 *584:26 *584:38 48.5387 
8 *584:38 *1911:A0 20 
9 *584:26 *1873:A0 20.7519 
10 *584:22 *584:58 42.2145 
11 *584:58 *1858:A0 40 
12 *584:20 *584:73 45.2118 
13 *584:73 *584:79 41.8334 
14 *584:79 *1855:A 40.7519 
15 *584:18 *584:96 36.7787 
16 *584:96 *584:102 41.8334 
17 *584:102 *1916:A0 20 
*END

*D_NET *585 0.035063
*CONN
*I *1917:A0 I *D sg13g2_mux4_1
*I *1873:A1 I *D sg13g2_mux4_1
*I *1858:A1 I *D sg13g2_mux4_1
*I *1936:A_N I *D sg13g2_nand2b_1
*I *1910:A0 I *D sg13g2_mux4_1
*I *2225:X O *D sg13g2_buf_2
*CAP
1 *1917:A0 0
2 *1873:A1 0.000610659
3 *1858:A1 0
4 *1936:A_N 5.21147e-05
5 *1910:A0 0
6 *2225:X 0
7 *585:98 0.000674205
8 *585:90 0.00356953
9 *585:74 0.00352441
10 *585:53 0.00136074
11 *585:44 0.00054725
12 *585:31 0.000805952
13 *585:20 0.000751969
14 *585:12 0.00166413
15 *585:10 0.00256455
16 *585:6 0.00197998
17 *1873:A1 *587:52 0.000112533
18 *1873:A1 *587:63 1.54282e-05
19 *1873:A1 *601:60 0.000176083
20 *585:10 *587:12 0.0057125
21 *585:10 *601:10 0
22 *585:12 *596:16 0
23 *585:12 *600:18 0
24 *585:20 *587:34 0
25 *585:20 *590:26 0.000922767
26 *585:20 *591:26 0.000234224
27 *585:20 *592:29 0.000287342
28 *585:31 *596:16 0
29 *585:31 *600:18 0
30 *585:44 *1858:A2 0.000208293
31 *585:53 *1858:A2 1.54556e-05
32 *585:74 *589:32 0
33 *585:90 *612:107 0.000659518
34 *585:90 *623:34 0.000884596
35 *585:98 *603:14 0.000124547
36 *585:98 *612:107 0.000241956
37 *1858:S1 *585:74 0
38 *1864:A1 *1873:A1 0.000755576
39 *1895:A3 *585:90 8.02267e-05
40 *1900:S1 *585:90 4.96953e-05
41 *1908:S1 *585:90 0.000234994
42 *1910:S0 *585:20 1.54008e-05
43 *1917:S0 *585:98 1.54282e-05
44 *1925:A2 *585:90 8.00842e-05
45 *1927:S1 *585:90 0
46 *1936:B *1936:A_N 1.54008e-05
47 *1949:A1 *585:20 0
48 *1953:C *585:20 0
49 *1988:D *585:98 3.23417e-05
50 *2089:A *585:90 8.01995e-05
51 *2094:A *585:90 0
52 *135:13 *585:74 0
53 *223:26 *1873:A1 8.01995e-05
54 *223:34 *1873:A1 0
55 *232:10 *585:74 0
56 *235:16 *585:20 7.93436e-05
57 *272:12 *585:20 0.000812843
58 *280:32 *585:31 0
59 *325:22 *1936:A_N 8.01995e-05
60 *325:22 *585:10 0.000394387
61 *325:22 *585:44 0.000160292
62 *339:16 *585:98 0
63 *375:20 *585:53 0.000143379
64 *376:10 *585:53 0
65 *393:10 *1873:A1 0.000340655
66 *399:18 *585:44 0.000144168
67 *399:18 *585:53 0.000192837
68 *409:22 *585:20 0
69 *412:10 *585:20 0.00020852
70 *422:65 *585:90 0
71 *425:67 *585:90 0.000418467
72 *444:18 *585:74 0
73 *447:8 *585:90 4.77425e-05
74 *448:14 *585:90 0.00114449
75 *457:10 *585:10 0
76 *468:14 *585:98 0.000629178
77 *476:8 *1936:A_N 0
78 *476:8 *585:44 0
79 *500:50 *585:90 0
80 *500:66 *585:90 0.000241049
81 *511:20 *585:98 7.98582e-05
82 *551:67 *585:90 0
83 *584:22 *585:74 0.000805306
84 *584:26 *1873:A1 0
*RES
1 *2225:X *585:6 40 
2 *585:6 *585:10 49.5198 
3 *585:10 *585:12 6.592 
4 *585:12 *585:20 49.6614 
5 *585:20 *1910:A0 20 
6 *585:12 *585:31 43.5638 
7 *585:31 *1936:A_N 20.5356 
8 *585:31 *585:44 4.2642 
9 *585:44 *1858:A1 20 
10 *585:44 *585:53 21.4008 
11 *585:53 *1873:A1 46.8289 
12 *585:53 *585:74 46.077 
13 *585:74 *585:90 48.9018 
14 *585:90 *585:98 46.7568 
15 *585:98 *1917:A0 20 
*END

*D_NET *586 0.0115379
*CONN
*I *2041:D I *D sg13g2_dlhq_1
*I *2103:A I *D sg13g2_buf_1
*I *2009:D I *D sg13g2_dlhq_1
*I *1977:D I *D sg13g2_dlhq_1
*I *2245:X O *D sg13g2_buf_1
*CAP
1 *2041:D 0.000356209
2 *2103:A 0
3 *2009:D 0
4 *1977:D 0.000183902
5 *2245:X 0.000690512
6 *586:55 0.000568021
7 *586:47 0.00180206
8 *586:31 0.00173501
9 *586:23 0.00110195
10 *586:12 0.00111918
11 *1977:D *1898:A1 0.000337031
12 *586:31 *597:18 0
13 *586:47 *1898:A2 0.000240478
14 *586:47 *1914:A2 0
15 *586:55 *612:121 0.000979905
16 *586:55 *619:22 0
17 *1912:A3 *586:47 0
18 *1912:S1 *586:47 0
19 *1914:S0 *586:47 0
20 *130:21 *2041:D 0
21 *245:10 *586:47 0
22 *434:16 *2041:D 0
23 *434:16 *586:12 0
24 *434:16 *586:23 0
25 *456:22 *586:47 4.77083e-05
26 *456:35 *586:47 0
27 *456:50 *586:31 0
28 *456:50 *586:47 0
29 *467:40 *586:12 0.000144055
30 *478:34 *586:12 0.000144197
31 *505:14 *586:31 0.000340616
32 *533:83 *586:47 0
33 *546:43 *586:12 0
34 *549:34 *586:47 0.000207743
35 *549:50 *1977:D 0.000338708
36 *549:50 *586:47 0
37 *565:8 *586:12 0
38 *567:12 *586:47 0
39 *567:20 *586:47 0.00038601
40 *567:30 *586:47 0.000175778
41 *572:55 *586:55 0.00029967
42 *575:10 *2041:D 0
43 *575:10 *586:12 0
44 *575:10 *586:23 0
45 *583:47 *586:31 0.000339197
*RES
1 *2245:X *586:12 46.5508 
2 *586:12 *1977:D 42.266 
3 *586:12 *586:23 2.575 
4 *586:23 *586:31 44.9337 
5 *586:31 *586:47 31.785 
6 *586:47 *586:55 46.6023 
7 *586:55 *2009:D 20 
8 *586:47 *2103:A 20 
9 *586:23 *2041:D 43.3166 
*END

*D_NET *587 0.0284226
*CONN
*I *1942:A1 I *D sg13g2_o21ai_1
*I *1858:A2 I *D sg13g2_mux4_1
*I *1911:A1 I *D sg13g2_mux4_1
*I *1918:A0 I *D sg13g2_mux4_1
*I *1873:A2 I *D sg13g2_mux4_1
*I *2226:X O *D sg13g2_buf_2
*CAP
1 *1942:A1 7.90458e-05
2 *1858:A2 0.000688872
3 *1911:A1 2.92417e-05
4 *1918:A0 0
5 *1873:A2 0
6 *2226:X 2.41961e-05
7 *587:73 0.000196772
8 *587:67 0.00190873
9 *587:63 0.00331837
10 *587:52 0.00166673
11 *587:46 0.000603852
12 *587:38 0.000676353
13 *587:34 0.000989598
14 *587:20 0.00174464
15 *587:16 0.00117973
16 *587:12 0.00277737
17 *587:8 0.00187063
18 *1858:A2 *1937:A1 6.46834e-05
19 *1858:A2 *601:25 6.0197e-05
20 *1911:A1 *592:39 3.23417e-05
21 *587:12 *601:10 0
22 *587:16 *1931:A1 0
23 *587:16 *1931:A2 0.000208178
24 *587:16 *601:12 0
25 *587:16 *601:25 0
26 *587:20 *590:26 0
27 *587:20 *601:29 7.51285e-05
28 *587:34 *1911:A2 0.000288087
29 *587:34 *1950:B_N 0
30 *587:34 *590:26 0
31 *587:34 *591:26 0.00012816
32 *587:38 *592:39 0.000176626
33 *587:46 *591:68 0.000374711
34 *587:63 *1922:A1 0
35 *587:63 *588:62 0
36 *587:63 *628:16 0
37 *587:63 *628:22 0
38 *1862:B *1858:A2 4.75151e-05
39 *1873:A1 *587:52 0.000112533
40 *1873:A1 *587:63 1.54282e-05
41 *1940:A2 *587:16 0
42 *1941:A *1858:A2 8.00842e-05
43 *1970:D *587:67 8.02269e-05
44 *2050:D *587:67 0
45 *2080:A *587:34 0.00011265
46 *131:21 *587:63 0
47 *131:25 *587:67 0
48 *137:7 *587:16 0
49 *213:14 *587:63 0
50 *224:30 *587:63 0
51 *229:54 *587:20 0
52 *230:42 *1942:A1 1.54008e-05
53 *237:54 *587:63 0
54 *279:22 *587:46 0
55 *316:12 *587:63 0
56 *324:10 *587:63 0.000126047
57 *369:30 *587:38 0.000144027
58 *369:30 *587:46 7.51285e-05
59 *376:10 *1858:A2 0.000272976
60 *386:10 *587:63 0.000233442
61 *388:16 *1858:A2 0
62 *388:24 *587:46 0.000126354
63 *393:10 *587:52 0.000112533
64 *393:10 *587:63 9.7025e-05
65 *400:10 *1858:A2 0.00011101
66 *409:12 *587:46 0
67 *422:25 *587:16 0
68 *428:16 *587:63 0
69 *445:58 *587:63 0
70 *476:8 *1858:A2 0.000143351
71 *477:10 *587:34 0.000112458
72 *489:46 *587:73 0.000127853
73 *547:38 *587:63 0.000126358
74 *548:22 *587:73 0
75 *554:29 *587:67 0.00105172
76 *555:16 *587:73 0
77 *562:74 *587:63 0
78 *585:10 *587:12 0.0057125
79 *585:20 *587:34 0
80 *585:44 *1858:A2 0.000208293
81 *585:53 *1858:A2 1.54556e-05
*RES
1 *2226:X *587:8 40.3193 
2 *587:8 *587:12 47.7894 
3 *587:12 *587:16 8.0546 
4 *587:16 *587:20 21.5862 
5 *587:20 *587:34 48.7035 
6 *587:34 *587:38 21.1845 
7 *587:38 *587:46 46.1079 
8 *587:46 *587:52 40.7519 
9 *587:52 *1873:A2 20 
10 *587:52 *587:63 33.9565 
11 *587:63 *587:67 35.244 
12 *587:67 *587:73 41.8334 
13 *587:73 *1918:A0 20 
14 *587:38 *1911:A1 20.3193 
15 *587:20 *1858:A2 46.8289 
16 *587:16 *1942:A1 20.7519 
*END

*D_NET *588 0.031533
*CONN
*I *1919:A0 I *D sg13g2_mux4_1
*I *1873:A3 I *D sg13g2_mux4_1
*I *1910:A1 I *D sg13g2_mux4_1
*I *1858:A3 I *D sg13g2_mux4_1
*I *1938:B_N I *D sg13g2_nor2b_1
*I *2227:X O *D sg13g2_buf_2
*CAP
1 *1919:A0 0
2 *1873:A3 0
3 *1910:A1 0.000408984
4 *1858:A3 0
5 *1938:B_N 0
6 *2227:X 0.00033563
7 *588:114 0.000726386
8 *588:106 0.00193621
9 *588:94 0.00160973
10 *588:68 0.000923562
11 *588:62 0.000906155
12 *588:60 0.00148024
13 *588:49 0.00131432
14 *588:34 0.000708432
15 *588:26 0.000306243
16 *588:18 0.00157561
17 *588:12 0.00168786
18 *1910:A1 *592:33 0
19 *1910:A1 *592:39 0
20 *588:12 *600:10 0
21 *588:18 *591:14 0.00538396
22 *588:18 *592:10 0.00490433
23 *588:18 *600:12 0
24 *588:18 *612:42 0.000144683
25 *588:18 *612:48 0.000175836
26 *588:18 *623:18 0
27 *588:26 *590:26 7.48209e-05
28 *588:26 *612:38 7.33256e-05
29 *588:34 *623:34 0.0001122
30 *588:49 *623:34 0.000498484
31 *588:60 *589:43 0.000684933
32 *588:60 *589:51 0.000227932
33 *588:60 *628:16 0
34 *588:62 *628:16 0
35 *588:94 *589:51 0
36 *588:106 *1920:A0 0.000436006
37 *588:106 *600:65 0
38 *588:106 *600:73 0
39 *588:106 *610:45 0.000338299
40 *588:106 *618:44 8.00842e-05
41 *588:106 *626:34 0
42 *588:114 *606:89 0
43 *588:114 *609:41 0
44 *588:114 *618:34 0
45 *1859:A *588:60 3.23417e-05
46 *1872:A2 *588:49 0.000112648
47 *1872:A2 *588:60 0.000322116
48 *1877:C *1910:A1 0
49 *1880:A2 *1910:A1 0
50 *1919:S0 *588:114 1.54282e-05
51 *1949:B1 *1910:A1 0.000192146
52 *1967:GATE *588:114 0.000467536
53 *2227:A *588:12 0
54 *2229:A *588:12 0
55 *135:13 *588:26 0.000377316
56 *137:13 *588:12 0.000273151
57 *223:34 *588:62 0
58 *223:56 *588:62 0.00023464
59 *223:77 *588:60 0
60 *229:16 *588:34 7.30101e-05
61 *230:10 *588:34 7.30101e-05
62 *233:12 *588:60 0.000208062
63 *257:28 *1910:A1 0
64 *260:12 *588:106 0.000268003
65 *279:22 *588:68 0
66 *280:24 *588:114 0.000208853
67 *285:8 *588:106 0.000144655
68 *388:24 *1910:A1 0.00011243
69 *409:12 *588:68 0.000768288
70 *444:12 *588:49 0
71 *500:83 *588:34 0.0001122
72 *500:83 *588:49 0.000322791
73 *545:80 *588:60 0
74 *560:10 *588:12 0
75 *571:121 *588:114 0
76 *576:18 *588:49 7.99736e-05
77 *584:26 *588:60 0
78 *584:26 *588:62 0
79 *584:38 *1910:A1 8.01116e-05
80 *587:63 *588:62 0
*RES
1 *2227:X *588:12 43.3346 
2 *588:12 *588:18 47.1199 
3 *588:18 *588:26 42.8325 
4 *588:26 *588:34 41.1021 
5 *588:34 *1938:B_N 20 
6 *588:34 *588:49 45.9328 
7 *588:49 *1858:A3 20 
8 *588:49 *588:60 27.313 
9 *588:60 *588:62 3.5638 
10 *588:62 *588:68 45.0779 
11 *588:68 *1910:A1 43.9706 
12 *588:62 *1873:A3 40 
13 *588:60 *588:94 44.2127 
14 *588:94 *588:106 31.4227 
15 *588:106 *588:114 46.8804 
16 *588:114 *1919:A0 20 
*END

*D_NET *589 0.0247717
*CONN
*I *1951:A1 I *D sg13g2_a22oi_1
*I *1943:A I *D sg13g2_nand2_1
*I *1860:B I *D sg13g2_nor2_1
*I *1911:A2 I *D sg13g2_mux4_1
*I *1920:A0 I *D sg13g2_mux4_1
*I *1875:A I *D sg13g2_nor2_1
*I *2228:X O *D sg13g2_buf_2
*CAP
1 *1951:A1 0
2 *1943:A 7.09547e-05
3 *1860:B 5.97548e-05
4 *1911:A2 0.00036732
5 *1920:A0 0.000761247
6 *1875:A 0
7 *2228:X 0.000133036
8 *589:76 0.000612058
9 *589:74 0.000377116
10 *589:68 0.000749288
11 *589:51 0.00145827
12 *589:43 0.00168702
13 *589:32 0.00372861
14 *589:26 0.00399479
15 *589:16 0.00110195
16 *589:8 0.000606919
17 *1911:A2 *592:39 0
18 *1920:A0 *600:73 0.000176369
19 *589:8 *594:8 0.000242125
20 *589:8 *600:10 0
21 *589:16 *627:10 0
22 *589:26 *598:12 0
23 *589:26 *625:12 0
24 *589:26 *629:12 0.000112386
25 *589:32 *617:10 0
26 *589:32 *623:34 0.00020815
27 *589:43 *623:34 4.77425e-05
28 *589:68 *600:26 0.000176365
29 *589:68 *600:30 0.000562939
30 *589:68 *600:41 0.000240492
31 *589:68 *601:60 0.000305064
32 *589:74 *600:26 0.000112418
33 *1870:S0 *1920:A0 0.00020871
34 *1871:B *589:43 0.000710169
35 *1923:S0 *1911:A2 0.000175693
36 *1929:S1 *1920:A0 0
37 *1959:D *1860:B 0.000112456
38 *2055:D *589:68 8.00842e-05
39 *2257:A *589:26 0
40 *2265:A *589:16 0.000127271
41 *2265:A *589:26 0.000209614
42 *2269:A *589:26 0.000112533
43 *2270:A *589:26 0
44 *2271:A *589:26 0
45 *223:77 *589:43 0
46 *233:8 *589:32 0.000126358
47 *237:102 *1943:A 0
48 *237:102 *589:76 0.000181192
49 *280:32 *589:51 0.000960545
50 *285:8 *1920:A0 1.54008e-05
51 *361:10 *589:76 0
52 *368:14 *589:43 0
53 *369:30 *1911:A2 0.000111685
54 *369:30 *589:76 0
55 *374:12 *1860:B 0.000112456
56 *382:12 *589:68 0.000112541
57 *388:10 *589:32 0.000176484
58 *394:14 *589:51 0
59 *414:12 *589:68 0
60 *414:12 *589:74 0
61 *424:8 *589:32 0.000396405
62 *426:26 *1911:A2 0
63 *545:80 *589:43 7.30101e-05
64 *545:101 *589:43 0.00022762
65 *584:10 *589:8 0.000209669
66 *584:14 *589:16 0.000802408
67 *584:18 *589:32 0
68 *584:20 *589:32 0
69 *584:22 *589:32 0
70 *585:74 *589:32 0
71 *587:34 *1911:A2 0.000288087
72 *588:60 *589:43 0.000684933
73 *588:60 *589:51 0.000227932
74 *588:94 *589:51 0
75 *588:106 *1920:A0 0.000436006
*RES
1 *2228:X *589:8 41.6171 
2 *589:8 *589:16 45.8916 
3 *589:16 *589:26 46.1147 
4 *589:26 *589:32 47.707 
5 *589:32 *1875:A 20 
6 *589:32 *589:43 25.3663 
7 *589:43 *589:51 47.4675 
8 *589:51 *1920:A0 47.0246 
9 *589:43 *589:68 26.8289 
10 *589:68 *589:74 21.2875 
11 *589:74 *589:76 2.0806 
12 *589:76 *1911:A2 43.8625 
13 *589:76 *1860:B 40.7519 
14 *589:74 *1943:A 40.7519 
15 *589:68 *1951:A1 20 
*END

*D_NET *590 0.0325104
*CONN
*I *1910:A2 I *D sg13g2_mux4_1
*I *1876:A I *D sg13g2_nor2b_1
*I *1921:A0 I *D sg13g2_mux4_1
*I *1861:A I *D sg13g2_nor2b_1
*I *1949:B2 I *D sg13g2_a221oi_1
*I *2229:X O *D sg13g2_buf_2
*CAP
1 *1910:A2 0
2 *1876:A 3.34444e-05
3 *1921:A0 0
4 *1861:A 0
5 *1949:B2 9.77312e-05
6 *2229:X 0.00036486
7 *590:120 0
8 *590:102 0.00360496
9 *590:80 0.00371937
10 *590:74 0.00103871
11 *590:70 0.00138237
12 *590:55 0.000577311
13 *590:49 0.000536746
14 *590:41 0.000557126
15 *590:26 0.00345083
16 *590:16 0.0035449
17 *590:16 *594:8 0
18 *590:16 *600:10 1.51749e-05
19 *590:16 *623:10 0
20 *590:16 *624:8 0
21 *590:26 *612:38 0
22 *590:26 *615:12 0
23 *590:26 *629:14 0.000929881
24 *590:26 *629:24 0.00139946
25 *590:102 *1906:A3 0.000112198
26 *590:102 *1907:A1 4.75166e-05
27 *590:102 *620:34 0
28 *1870:A2 *590:80 7.33225e-05
29 *1921:S0 *590:102 1.54008e-05
30 *1929:S0 *590:102 4.77702e-05
31 *1949:B1 *1949:B2 8.00842e-05
32 *1953:C *590:55 0.000273394
33 *2047:GATE *590:70 0
34 *2254:A *590:16 0
35 *133:11 *590:41 0
36 *133:11 *590:49 0
37 *133:11 *590:74 0.00151901
38 *211:58 *590:102 0
39 *217:12 *590:102 4.78853e-05
40 *218:10 *590:102 0
41 *224:30 *590:70 0
42 *224:32 *590:70 0
43 *227:18 *590:74 0.000571547
44 *229:54 *590:26 0
45 *237:75 *1949:B2 0.000178206
46 *237:75 *590:26 0.000372054
47 *237:90 *590:26 0.000234224
48 *257:28 *590:102 0
49 *261:14 *590:80 0
50 *272:12 *1949:B2 0.000176396
51 *272:12 *590:26 0.000551443
52 *279:10 *590:102 0
53 *282:18 *590:70 4.23604e-05
54 *305:8 *590:102 0
55 *375:12 *590:70 7.9225e-05
56 *380:10 *590:102 4.77425e-05
57 *381:10 *590:80 0.000283802
58 *387:12 *1876:A 4.77425e-05
59 *390:14 *590:55 0.000273394
60 *390:14 *590:70 0.000240404
61 *408:8 *590:26 0
62 *409:12 *590:41 4.73089e-05
63 *409:12 *590:74 0
64 *423:20 *590:102 8.00842e-05
65 *423:63 *590:102 0.000177109
66 *438:10 *590:26 0.00288648
67 *493:18 *590:102 0.000853733
68 *500:83 *590:26 0
69 *539:10 *590:16 0
70 *539:10 *590:26 0
71 *555:37 *590:102 0.000112541
72 *555:49 *590:102 0.000498782
73 *562:50 *590:49 0
74 *566:20 *590:102 0
75 *573:8 *590:102 0.000273394
76 *576:32 *590:70 1.54285e-05
77 *585:20 *590:26 0.000922767
78 *587:20 *590:26 0
79 *587:34 *590:26 0
80 *588:26 *590:26 7.48209e-05
*RES
1 *2229:X *590:16 43.4351 
2 *590:16 *590:26 37.286 
3 *590:26 *1949:B2 41.3802 
4 *590:26 *590:41 21.6171 
5 *590:41 *590:49 44.0685 
6 *590:49 *590:55 41.8334 
7 *590:55 *1861:A 20 
8 *590:55 *590:70 24.0891 
9 *590:70 *590:74 30.0528 
10 *590:74 *590:80 41.339 
11 *590:80 *590:102 33.5471 
12 *590:102 *1921:A0 20 
13 *590:70 *1876:A 40.3193 
14 *590:41 *590:120 40 
15 *590:120 *1910:A2 20 
*END

*D_NET *591 0.024477
*CONN
*I *1911:A3 I *D sg13g2_mux4_1
*I *1878:A0 I *D sg13g2_mux2_1
*I *1863:A0 I *D sg13g2_mux2_1
*I *1952:A1 I *D sg13g2_o21ai_1
*I *1922:A0 I *D sg13g2_mux4_1
*I *2230:X O *D sg13g2_buf_2
*CAP
1 *1911:A3 4.77348e-05
2 *1878:A0 2.92417e-05
3 *1863:A0 4.72746e-05
4 *1952:A1 0
5 *1922:A0 0.000335598
6 *2230:X 4.37077e-05
7 *591:68 0.000304113
8 *591:42 0.000994045
9 *591:38 0.000915285
10 *591:36 0.000298954
11 *591:30 0.000552276
12 *591:26 0.000627773
13 *591:14 0.00226417
14 *591:8 0.00191494
15 *1878:A0 *592:39 3.23417e-05
16 *591:8 *594:8 8.00842e-05
17 *591:8 *623:10 8.00842e-05
18 *591:14 *1931:A2 1.55212e-05
19 *591:14 *592:10 0.00140402
20 *591:14 *600:12 0
21 *591:14 *622:22 0.0059631
22 *591:14 *622:24 0
23 *591:26 *629:24 0
24 *591:36 *1863:A1 0
25 *591:36 *592:39 0.000144053
26 *1923:S0 *591:30 0.000370231
27 *1923:S0 *591:36 9.7025e-05
28 *1959:D *591:26 0.00017625
29 *2080:A *1911:A3 0
30 *2080:A *591:30 0
31 *231:28 *1863:A0 4.77425e-05
32 *231:57 *1911:A3 0
33 *231:57 *591:36 0.000102089
34 *234:12 *1922:A0 0
35 *234:12 *591:42 0
36 *234:12 *591:68 0
37 *272:12 *591:30 0.000107274
38 *324:14 *1922:A0 0.000273509
39 *391:8 *591:42 0.000384193
40 *415:8 *591:42 0.000231161
41 *477:10 *591:26 7.9225e-05
42 *512:12 *1922:A0 0.000392883
43 *512:12 *591:42 0
44 *571:42 *1922:A0 0
45 *585:20 *591:26 0.000234224
46 *587:34 *591:26 0.00012816
47 *587:46 *591:68 0.000374711
48 *588:18 *591:14 0.00538396
*RES
1 *2230:X *591:8 40.5356 
2 *591:8 *591:14 34.6389 
3 *591:14 *591:26 44.2436 
4 *591:26 *591:30 22.4823 
5 *591:30 *591:36 2.7501 
6 *591:36 *591:38 20 
7 *591:38 *591:42 5.6135 
8 *591:42 *1922:A0 43.6668 
9 *591:42 *1952:A1 40 
10 *591:38 *591:68 42.8325 
11 *591:68 *1863:A0 40.4274 
12 *591:36 *1878:A0 20.3193 
13 *591:30 *1911:A3 20.5974 
*END

*D_NET *592 0.0197832
*CONN
*I *1910:A3 I *D sg13g2_mux4_1
*I *1863:A1 I *D sg13g2_mux2_1
*I *1878:A1 I *D sg13g2_mux2_1
*I *1923:A0 I *D sg13g2_mux4_1
*I *2231:X O *D sg13g2_buf_1
*CAP
1 *1910:A3 2.77263e-05
2 *1863:A1 0.000254559
3 *1878:A1 0
4 *1923:A0 0.000162863
5 *2231:X 5.7611e-05
6 *592:39 0.000708377
7 *592:33 0.000598865
8 *592:29 0.000419528
9 *592:10 0.00208113
10 *592:8 0.00167367
11 *1923:A0 *1897:A1 0
12 *1923:A0 *629:24 0
13 *592:8 *595:12 0
14 *592:10 *600:12 0.00598695
15 *592:10 *622:24 0
16 *1878:A0 *592:39 3.23417e-05
17 *1878:S *1863:A1 0
18 *1910:A1 *592:33 0
19 *1910:A1 *592:39 0
20 *1911:A1 *592:39 3.23417e-05
21 *1911:A2 *592:39 0
22 *1923:S0 *1923:A0 0.000144956
23 *1923:S0 *592:29 0.000240933
24 *1949:B1 *592:33 0
25 *1949:A1 *592:33 0
26 *1949:A2 *1910:A3 0
27 *231:28 *1863:A1 0
28 *231:32 *1863:A1 1.54008e-05
29 *231:57 *1863:A1 1.54008e-05
30 *272:12 *592:29 7.9225e-05
31 *369:30 *592:33 0
32 *369:30 *592:39 0
33 *388:24 *592:39 0.000144025
34 *409:22 *1910:A3 0
35 *409:22 *592:33 0.000111761
36 *560:10 *592:8 7.91919e-05
37 *562:50 *592:10 0
38 *585:20 *592:29 0.000287342
39 *587:38 *592:39 0.000176626
40 *588:18 *592:10 0.00490433
41 *591:14 *592:10 0.00140402
42 *591:36 *1863:A1 0
43 *591:36 *592:39 0.000144053
*RES
1 *2231:X *592:8 40.5356 
2 *592:8 *592:10 31.7446 
3 *592:10 *1923:A0 41.5656 
4 *592:10 *592:29 43.3887 
5 *592:29 *592:33 21.1845 
6 *592:33 *592:39 4.9131 
7 *592:39 *1878:A1 20 
8 *592:39 *1863:A1 22.4514 
9 *592:33 *1910:A3 20.3502 
*END

*D_NET *593 0.0260934
*CONN
*I *1924:A0 I *D sg13g2_mux4_1
*I *1901:A0 I *D sg13g2_mux4_1
*I *1882:A0 I *D sg13g2_mux2_1
*I *1867:A0 I *D sg13g2_mux2_1
*I *1909:A0 I *D sg13g2_mux4_1
*I *2232:X O *D sg13g2_buf_2
*CAP
1 *1924:A0 0.000548785
2 *1901:A0 0
3 *1882:A0 5.98967e-05
4 *1867:A0 0.000392235
5 *1909:A0 0
6 *2232:X 0.000234736
7 *593:69 0.000242931
8 *593:50 0.000302828
9 *593:37 0.00058048
10 *593:26 0.00154803
11 *593:20 0.0021501
12 *593:18 0.00313186
13 *593:14 0.0043152
14 *593:10 0.00165961
15 *1867:A0 *1867:A1 0
16 *1867:A0 *594:39 2.17891e-05
17 *1867:A0 *616:24 0
18 *1924:A0 *605:20 0.000111568
19 *593:18 *615:14 0
20 *593:20 *616:16 0.000655023
21 *593:26 *1929:A0 8.00842e-05
22 *593:26 *594:39 0
23 *593:26 *616:16 0.000596033
24 *593:26 *620:16 0
25 *593:37 *1929:A0 4.77425e-05
26 *593:37 *594:39 0.000369803
27 *593:37 *616:24 0
28 *593:69 *1946:A 0
29 *593:69 *624:28 0.000125088
30 *1885:A0 *593:26 0
31 *2054:D *593:18 0.000305966
32 *2151:A *593:18 0
33 *2219:A *593:10 0
34 *2232:A *593:10 0.000145105
35 *2235:A *593:14 0
36 *122:11 *593:14 0
37 *129:13 *593:10 0
38 *134:9 *593:14 0.00343213
39 *224:12 *1867:A0 0
40 *257:28 *1882:A0 6.919e-05
41 *257:28 *593:69 0.000288119
42 *261:8 *1924:A0 7.9225e-05
43 *261:14 *593:69 1.54008e-05
44 *274:16 *593:26 1.54008e-05
45 *274:16 *593:37 3.23417e-05
46 *364:8 *593:26 0.000181192
47 *380:10 *593:69 0.00020871
48 *409:8 *593:69 7.30101e-05
49 *458:14 *593:20 0
50 *458:14 *593:26 0.0024493
51 *534:53 *593:18 0.000498792
52 *536:10 *593:14 0
53 *539:18 *593:18 0
54 *562:42 *1867:A0 0.000126724
55 *570:64 *1924:A0 0.000112426
56 *582:14 *593:18 0
57 *583:12 *593:10 0
58 *584:96 *593:18 0.000886497
*RES
1 *2232:X *593:10 42.3999 
2 *593:10 *593:14 36.9126 
3 *593:14 *593:18 48.8709 
4 *593:18 *593:20 3.0694 
5 *593:20 *593:26 35.2234 
6 *593:26 *1909:A0 20 
7 *593:26 *593:37 22.1527 
8 *593:37 *1867:A0 43.1415 
9 *593:37 *593:50 20 
10 *593:50 *1882:A0 20.6695 
11 *593:50 *593:69 42.7501 
12 *593:69 *1901:A0 20 
13 *593:20 *1924:A0 44.8822 
*END

*D_NET *594 0.0288492
*CONN
*I *1925:A0 I *D sg13g2_mux4_1
*I *1908:A0 I *D sg13g2_mux4_1
*I *1882:A1 I *D sg13g2_mux2_1
*I *1867:A1 I *D sg13g2_mux2_1
*I *1900:A0 I *D sg13g2_mux4_1
*I *2233:X O *D sg13g2_buf_2
*CAP
1 *1925:A0 0.00073748
2 *1908:A0 0
3 *1882:A1 0
4 *1867:A1 0.000378765
5 *1900:A0 0
6 *2233:X 0.0017889
7 *594:39 0.0010912
8 *594:33 0.000870435
9 *594:26 0.000331122
10 *594:20 0.00304141
11 *594:18 0.00340577
12 *594:14 0.00151991
13 *594:8 0.00203384
14 *1925:A0 *596:35 8.00842e-05
15 *1925:A0 *596:42 0.000305175
16 *1925:A0 *596:55 8.00842e-05
17 *594:8 *598:12 0
18 *594:8 *600:10 0
19 *594:8 *623:10 0
20 *594:18 *622:18 0
21 *594:20 *598:18 0
22 *594:20 *598:22 0
23 *594:20 *599:32 0.00641451
24 *594:26 *596:28 0.000287758
25 *594:26 *598:22 0
26 *594:26 *599:32 0.00012816
27 *594:39 *620:16 0.00106883
28 *1867:A0 *1867:A1 0
29 *1867:A0 *594:39 2.17891e-05
30 *1886:B *594:26 0
31 *1900:S0 *594:26 0
32 *1908:S0 *594:33 0.000208035
33 *2226:A *594:8 8.03692e-05
34 *2228:A *594:8 8.03692e-05
35 *2230:A *594:8 0.000145105
36 *2233:A *594:8 0.000273882
37 *2236:A *594:8 0
38 *2237:A *594:8 8.02269e-05
39 *2238:A *594:8 0
40 *2241:A *594:20 0
41 *2254:A *594:14 0
42 *2262:A *594:14 0
43 *2263:A *594:14 0
44 *129:13 *594:8 0
45 *232:44 *1925:A0 0.000170861
46 *232:44 *594:26 8.00842e-05
47 *232:44 *594:33 0.000272718
48 *233:32 *1925:A0 0.000176882
49 *276:8 *594:20 0.00180753
50 *384:14 *1925:A0 0
51 *435:12 *594:20 0
52 *458:14 *1867:A1 0
53 *458:14 *594:39 0
54 *472:12 *594:20 0
55 *512:26 *594:18 0.00105195
56 *582:34 *1925:A0 0.000143938
57 *584:10 *594:8 0
58 *589:8 *594:8 0.000242125
59 *590:16 *594:8 0
60 *591:8 *594:8 8.00842e-05
61 *593:26 *594:39 0
62 *593:37 *594:39 0.000369803
*RES
1 *2233:X *594:8 36.4594 
2 *594:8 *594:14 41.8334 
3 *594:14 *594:18 33.081 
4 *594:18 *594:20 30.5086 
5 *594:20 *594:26 22.1218 
6 *594:26 *1900:A0 20 
7 *594:26 *594:33 1.8334 
8 *594:33 *594:39 27.5911 
9 *594:39 *1867:A1 42.575 
10 *594:39 *1882:A1 40 
11 *594:33 *1908:A0 20 
12 *594:20 *1925:A0 46.8598 
*END

*D_NET *595 0.0275672
*CONN
*I *1881:A0 I *D sg13g2_mux2_1
*I *1909:A2 I *D sg13g2_mux4_1
*I *1866:A0 I *D sg13g2_mux2_1
*I *1901:A2 I *D sg13g2_mux4_1
*I *1926:A0 I *D sg13g2_mux4_1
*I *2235:X O *D sg13g2_buf_2
*CAP
1 *1881:A0 8.92038e-05
2 *1909:A2 0
3 *1866:A0 0
4 *1901:A2 0.000174365
5 *1926:A0 0.000659748
6 *2235:X 0.000152869
7 *595:66 0.000627661
8 *595:56 0.000955298
9 *595:30 0.00103317
10 *595:28 0.000867778
11 *595:24 0.000671035
12 *595:20 0.00241159
13 *595:12 0.00526067
14 *595:8 0.00324269
15 *1881:A0 *1881:A1 1.54008e-05
16 *1901:A2 *1929:A0 0
17 *1926:A0 *624:28 0
18 *1926:A0 *624:43 0
19 *595:8 *596:12 0.00044917
20 *595:20 *605:28 0.000963816
21 *595:20 *616:24 0.00149861
22 *595:20 *620:16 0.00340828
23 *595:20 *624:22 1.55958e-05
24 *595:20 *624:28 0
25 *595:56 *598:43 0
26 *595:66 *1909:A1 1.69409e-05
27 *595:66 *596:28 1.54008e-05
28 *595:66 *598:34 0.000601144
29 *1881:S *1881:A0 0.000144102
30 *1881:S *595:24 0.000336542
31 *1885:A0 *1901:A2 0
32 *1926:S0 *1926:A0 1.53311e-05
33 *127:9 *595:12 0
34 *129:13 *595:8 0
35 *232:44 *595:20 0.00023464
36 *237:54 *595:66 8.01118e-05
37 *237:64 *1926:A0 0
38 *257:28 *595:66 1.54008e-05
39 *260:12 *595:20 0
40 *260:12 *595:56 0.000268003
41 *261:14 *1926:A0 0.000390441
42 *261:14 *595:28 0.000791737
43 *261:14 *595:30 0.00042019
44 *326:24 *595:20 0.000286781
45 *363:12 *595:24 0
46 *381:10 *1926:A0 0
47 *383:10 *595:66 0
48 *424:14 *595:12 0
49 *445:58 *1926:A0 0
50 *504:12 *595:12 0.000921014
51 *511:65 *595:20 0.000177891
52 *551:8 *1926:A0 0
53 *551:8 *595:28 0
54 *551:8 *595:30 0
55 *551:67 *595:28 0
56 *560:10 *595:12 0
57 *570:64 *595:20 0.00028128
58 *571:26 *1926:A0 7.32897e-05
59 *571:42 *1926:A0 0
60 *592:8 *595:12 0
*RES
1 *2235:X *595:8 42.0806 
2 *595:8 *595:12 47.7894 
3 *595:12 *595:20 46.6976 
4 *595:20 *595:24 22.266 
5 *595:24 *595:28 23.811 
6 *595:28 *595:30 2.0806 
7 *595:30 *1926:A0 45.768 
8 *595:30 *1901:A2 41.5347 
9 *595:28 *595:56 22.9149 
10 *595:56 *595:66 45.7165 
11 *595:66 *1866:A0 20 
12 *595:56 *1909:A2 20 
13 *595:24 *1881:A0 20.9682 
*END

*D_NET *596 0.0195688
*CONN
*I *1927:A0 I *D sg13g2_mux4_1
*I *1881:A1 I *D sg13g2_mux2_1
*I *1908:A2 I *D sg13g2_mux4_1
*I *1900:A2 I *D sg13g2_mux4_1
*I *1866:A1 I *D sg13g2_mux2_1
*I *2236:X O *D sg13g2_buf_2
*CAP
1 *1927:A0 0.000782692
2 *1881:A1 9.41391e-05
3 *1908:A2 0
4 *1900:A2 0
5 *1866:A1 0
6 *2236:X 2.41961e-05
7 *596:55 0.00147636
8 *596:42 0.000770158
9 *596:35 0.00023699
10 *596:28 0.000763907
11 *596:20 0.000886759
12 *596:16 0.00213086
13 *596:12 0.00449458
14 *596:8 0.0024444
15 *1927:A0 *609:41 0
16 *1927:A0 *625:28 0
17 *596:16 *617:16 0
18 *596:20 *599:42 8.00425e-05
19 *596:28 *1869:A1 0.000499905
20 *596:28 *599:42 0
21 *596:28 *599:55 0.000181192
22 *596:28 *600:58 0
23 *596:35 *1908:A1 4.77425e-05
24 *596:35 *599:42 6.46834e-05
25 *596:42 *1908:A1 0.000257433
26 *596:55 *625:28 0
27 *1881:A0 *1881:A1 1.54008e-05
28 *1881:S *1881:A1 0
29 *1881:S *596:55 0
30 *1900:S0 *596:28 0
31 *1909:S1 *1927:A0 0
32 *1920:S1 *1927:A0 0.000592159
33 *1925:A0 *596:35 8.00842e-05
34 *1925:A0 *596:42 0.000305175
35 *1925:A0 *596:55 8.00842e-05
36 *1927:S0 *1927:A0 4.77425e-05
37 *129:13 *596:12 0
38 *134:9 *596:12 0
39 *135:13 *596:16 0
40 *224:77 *596:28 0.00118098
41 *232:44 *596:55 0.000170861
42 *233:18 *596:16 0.000309722
43 *233:32 *596:20 0
44 *257:28 *596:28 0.000112426
45 *326:8 *1927:A0 8.00842e-05
46 *398:8 *596:28 0
47 *422:31 *596:16 0
48 *428:16 *596:28 0
49 *503:8 *1927:A0 0
50 *545:66 *596:16 0
51 *545:88 *596:16 0.000605729
52 *585:12 *596:16 0
53 *585:31 *596:16 0
54 *594:26 *596:28 0.000287758
55 *595:8 *596:12 0.00044917
56 *595:66 *596:28 1.54008e-05
*RES
1 *2236:X *596:8 40.3193 
2 *596:8 *596:12 47.5422 
3 *596:12 *596:16 44.3286 
4 *596:16 *596:20 20.5356 
5 *596:20 *596:28 49.5069 
6 *596:28 *1866:A1 20 
7 *596:20 *596:35 0.7519 
8 *596:35 *1900:A2 20 
9 *596:35 *596:42 2.0497 
10 *596:42 *1908:A2 20 
11 *596:42 *596:55 6.0049 
12 *596:55 *1881:A1 21.133 
13 *596:55 *1927:A0 28.4048 
*END

*D_NET *597 0.0110066
*CONN
*I *2010:D I *D sg13g2_dlhq_1
*I *2104:A I *D sg13g2_buf_1
*I *2042:D I *D sg13g2_dlhq_1
*I *1978:D I *D sg13g2_dlhq_1
*I *2256:X O *D sg13g2_buf_1
*CAP
1 *2010:D 0
2 *2104:A 0
3 *2042:D 0.000305018
4 *1978:D 0.000472133
5 *2256:X 0.000882253
6 *597:57 0.00042503
7 *597:42 0.00132441
8 *597:18 0.00182129
9 *597:10 0.00194351
10 *597:8 0.000882253
11 *1898:S1 *597:18 0.000235662
12 *1914:A3 *597:18 4.77425e-05
13 *1977:GATE *597:18 1.54008e-05
14 *2078:A *597:42 0
15 *2093:A *2042:D 0.000237211
16 *2165:A *597:18 0
17 *130:21 *2042:D 0
18 *299:8 *597:8 0
19 *423:16 *597:8 0
20 *449:16 *597:18 0
21 *456:35 *597:42 0
22 *456:50 *1978:D 0.000272633
23 *456:50 *597:18 0
24 *456:50 *597:42 0
25 *456:64 *1978:D 0
26 *486:14 *597:42 0
27 *486:30 *597:57 0
28 *533:60 *1978:D 0.000594805
29 *533:60 *597:18 0
30 *533:83 *597:8 0
31 *549:34 *597:57 0
32 *564:16 *597:8 0
33 *566:43 *2042:D 0
34 *566:49 *1978:D 0
35 *567:30 *597:8 0
36 *567:36 *597:8 0
37 *572:20 *597:57 0
38 *575:10 *1978:D 0
39 *575:20 *597:18 0
40 *575:41 *597:42 0.00137078
41 *575:41 *597:57 0.000176442
42 *586:31 *597:18 0
*RES
1 *2256:X *597:8 47.7662 
2 *597:8 *597:10 20 
3 *597:10 *597:18 28.9919 
4 *597:18 *1978:D 44.841 
5 *597:18 *2042:D 42.575 
6 *597:10 *597:42 9.785 
7 *597:42 *2104:A 20 
8 *597:42 *597:57 44.2333 
9 *597:57 *2010:D 20 
*END

*D_NET *598 0.0255891
*CONN
*I *1884:A0 I *D sg13g2_mux2_1
*I *1909:A1 I *D sg13g2_mux4_1
*I *1928:A0 I *D sg13g2_mux4_1
*I *1901:A1 I *D sg13g2_mux4_1
*I *1869:A0 I *D sg13g2_mux2_1
*I *2237:X O *D sg13g2_buf_2
*CAP
1 *1884:A0 5.10268e-05
2 *1909:A1 5.68457e-05
3 *1928:A0 0.000527879
4 *1901:A1 0
5 *1869:A0 0
6 *2237:X 0.000102721
7 *598:51 0.000181617
8 *598:43 0.000860187
9 *598:41 0.000366247
10 *598:34 0.000398795
11 *598:26 0.000812838
12 *598:22 0.00123526
13 *598:18 0.00396507
14 *598:12 0.00555365
15 *598:8 0.0026202
16 *1884:A0 *1884:A1 8.00842e-05
17 *1928:A0 *1929:A2 4.77425e-05
18 *1928:A0 *1929:A3 0
19 *1928:A0 *610:45 0
20 *1928:A0 *618:44 0.000112596
21 *1928:A0 *620:26 0.000208035
22 *1928:A0 *627:34 0
23 *598:12 *599:14 0
24 *598:12 *622:14 0
25 *598:12 *624:12 0.00153377
26 *598:12 *625:12 0
27 *598:12 *629:12 0
28 *598:18 *621:12 2.1976e-05
29 *598:22 *599:42 0.00118179
30 *598:22 *601:86 0.00107274
31 *598:22 *621:12 0
32 *598:26 *1884:A1 0
33 *598:26 *1929:A0 0.000176883
34 *598:34 *1869:A1 1.54008e-05
35 *598:41 *1929:A0 0.000223436
36 *598:43 *1929:A0 0.000227307
37 *598:51 *1946:A 0
38 *598:51 *624:28 0.000393072
39 *1886:A_N *598:22 0
40 *2226:A *598:12 8.02269e-05
41 *2228:A *598:12 8.02269e-05
42 *2230:A *598:12 0.000144772
43 *2236:A *598:8 0
44 *2237:A *598:12 8.00842e-05
45 *2238:A *598:8 0
46 *2241:A *598:18 0
47 *2257:A *598:12 0.000112314
48 *2259:A *598:12 0.000112656
49 *2260:A *598:18 0
50 *2261:A *598:18 0
51 *2263:A *598:12 0
52 *2266:A *598:12 8.02269e-05
53 *2269:A *598:12 0
54 *2271:A *598:12 0.00017625
55 *223:123 *598:34 0
56 *231:85 *598:34 0.000756802
57 *231:89 *598:34 0.000386844
58 *274:16 *598:51 0.000179386
59 *276:8 *598:22 0
60 *380:10 *598:51 8.01995e-05
61 *422:57 *598:22 0
62 *435:12 *598:18 0
63 *445:58 *598:34 4.77079e-05
64 *458:14 *598:34 0
65 *460:22 *1928:A0 0
66 *500:58 *598:22 0
67 *534:68 *598:18 0.000340288
68 *570:14 *598:18 0.000285868
69 *589:26 *598:12 0
70 *594:8 *598:12 0
71 *594:20 *598:18 0
72 *594:20 *598:22 0
73 *594:26 *598:22 0
74 *595:56 *598:43 0
75 *595:66 *1909:A1 1.69409e-05
76 *595:66 *598:34 0.000601144
*RES
1 *2237:X *598:8 40.8446 
2 *598:8 *598:12 43.4634 
3 *598:12 *598:18 45.3277 
4 *598:18 *598:22 30.7635 
5 *598:22 *598:26 2.3999 
6 *598:26 *598:34 45.6135 
7 *598:34 *1869:A0 20 
8 *598:26 *598:41 1.6068 
9 *598:41 *598:43 1.6274 
10 *598:43 *598:51 42.369 
11 *598:51 *1901:A1 20 
12 *598:43 *1928:A0 24.8987 
13 *598:41 *1909:A1 20.7107 
14 *598:22 *1884:A0 20.5356 
*END

*D_NET *599 0.0306318
*CONN
*I *1908:A1 I *D sg13g2_mux4_1
*I *1900:A1 I *D sg13g2_mux4_1
*I *1929:A0 I *D sg13g2_mux4_1
*I *1869:A1 I *D sg13g2_mux2_1
*I *1884:A1 I *D sg13g2_mux2_1
*I *2238:X O *D sg13g2_buf_2
*CAP
1 *1908:A1 0.000198992
2 *1900:A1 0
3 *1929:A0 0.000800018
4 *1869:A1 0.000485481
5 *1884:A1 8.29359e-05
6 *2238:X 0.000258725
7 *599:55 0.00142131
8 *599:42 0.000638246
9 *599:34 0.000618491
10 *599:32 0.00195139
11 *599:30 0.00195139
12 *599:28 0.000386403
13 *599:22 0.000758924
14 *599:14 0.00174358
15 *599:10 0.00162978
16 *1869:A1 *600:58 0.000815725
17 *1929:A0 *1901:A3 4.77425e-05
18 *1929:A0 *620:34 7.53965e-05
19 *599:10 *600:10 0
20 *599:14 *622:18 0.000987034
21 *599:14 *624:12 0.00053379
22 *599:28 *625:16 0.00072807
23 *599:32 *616:16 0
24 *599:55 *600:58 0.000159096
25 *1884:A0 *1884:A1 8.00842e-05
26 *1900:S0 *599:32 0.00185813
27 *1901:A2 *1929:A0 0
28 *1929:S0 *1929:A0 4.77702e-05
29 *2006:GATE *599:32 0
30 *2225:A *599:10 0
31 *2240:A *599:10 0.000447782
32 *2244:A *599:32 0.000234311
33 *2246:A *599:32 0
34 *2269:A *599:22 7.33225e-05
35 *224:22 *1869:A1 0
36 *224:77 *1869:A1 0
37 *231:89 *1869:A1 0
38 *232:44 *1908:A1 0
39 *232:44 *599:42 0
40 *233:32 *599:42 0
41 *274:16 *1929:A0 4.77425e-05
42 *305:8 *1929:A0 1.54556e-05
43 *383:10 *1869:A1 0
44 *428:16 *599:42 0.00107242
45 *445:58 *1869:A1 0
46 *458:14 *599:32 0
47 *512:26 *599:28 0.00072807
48 *522:61 *599:32 0.00012785
49 *584:14 *599:22 0
50 *593:26 *1929:A0 8.00842e-05
51 *593:37 *1929:A0 4.77425e-05
52 *594:20 *599:32 0.00641451
53 *594:26 *599:32 0.00012816
54 *596:20 *599:42 8.00425e-05
55 *596:28 *1869:A1 0.000499905
56 *596:28 *599:42 0
57 *596:28 *599:55 0.000181192
58 *596:35 *1908:A1 4.77425e-05
59 *596:35 *599:42 6.46834e-05
60 *596:42 *1908:A1 0.000257433
61 *598:12 *599:14 0
62 *598:22 *599:42 0.00118179
63 *598:26 *1884:A1 0
64 *598:26 *1929:A0 0.000176883
65 *598:34 *1869:A1 1.54008e-05
66 *598:41 *1929:A0 0.000223436
67 *598:43 *1929:A0 0.000227307
*RES
1 *2238:X *599:10 43.0951 
2 *599:10 *599:14 33.5136 
3 *599:14 *599:22 44.3466 
4 *599:22 *599:28 44.8616 
5 *599:28 *599:30 20 
6 *599:30 *599:32 30.5086 
7 *599:32 *599:34 20 
8 *599:34 *599:42 46.9422 
9 *599:42 *1884:A1 20.7519 
10 *599:42 *599:55 21.5965 
11 *599:55 *1869:A1 45.768 
12 *599:55 *1929:A0 47.9928 
13 *599:34 *1900:A1 20 
14 *599:34 *1908:A1 22.0497 
*END

*D_NET *600 0.0296863
*CONN
*I *1909:A3 I *D sg13g2_mux4_1
*I *1901:A3 I *D sg13g2_mux4_1
*I *1946:A I *D sg13g2_nor2_1
*I *1930:A0 I *D sg13g2_mux4_1
*I *1883:A0 I *D sg13g2_mux2_1
*I *1868:A0 I *D sg13g2_mux2_1
*I *2239:X O *D sg13g2_buf_2
*CAP
1 *1909:A3 0
2 *1901:A3 3.34444e-05
3 *1946:A 0.000331746
4 *1930:A0 0
5 *1883:A0 0
6 *1868:A0 0.000203148
7 *2239:X 0.000833171
8 *600:73 0.000731166
9 *600:65 0.000647299
10 *600:58 0.000483272
11 *600:50 0.0010051
12 *600:41 0.000546711
13 *600:30 0.000901558
14 *600:26 0.000606478
15 *600:18 0.000571149
16 *600:12 0.00255881
17 *600:10 0.00303511
18 *1868:A0 *601:64 0.000144657
19 *1946:A *624:28 0
20 *600:10 *623:10 0.000241052
21 *600:12 *629:14 0
22 *600:26 *601:60 0.00030569
23 *600:41 *601:64 0.000144657
24 *600:41 *601:71 0.000240377
25 *600:41 *601:86 4.77425e-05
26 *600:50 *601:86 3.23417e-05
27 *1864:B1 *1868:A0 0
28 *1865:A2 *600:30 0
29 *1869:A1 *600:58 0.000815725
30 *1870:S0 *600:65 0.000175725
31 *1885:A3 *600:65 0.000176394
32 *1920:A0 *600:73 0.000176369
33 *1929:A0 *1901:A3 4.77425e-05
34 *1959:D *600:30 0
35 *1960:GATE *600:12 0.00127569
36 *2225:A *600:10 0.000208968
37 *2227:A *600:10 0.000209756
38 *2229:A *600:10 0.000274297
39 *2238:A *600:10 1.54556e-05
40 *2240:A *600:10 0.000144168
41 *2254:A *600:12 0.000394519
42 *224:22 *600:58 7.9225e-05
43 *224:77 *600:65 0
44 *268:14 *600:26 0.00018156
45 *274:16 *1946:A 0.000128112
46 *274:16 *600:73 0.000419477
47 *381:10 *1946:A 0.000857676
48 *381:10 *600:73 0.000440375
49 *382:12 *600:50 0
50 *382:12 *600:65 0
51 *409:8 *1946:A 0.000280964
52 *414:12 *600:26 0
53 *428:16 *600:58 0.00128542
54 *445:58 *600:58 0
55 *539:10 *600:12 0
56 *562:42 *1946:A 4.79124e-05
57 *562:50 *600:12 0.000179762
58 *576:26 *600:26 0.000180885
59 *584:10 *600:10 0.000792047
60 *585:12 *600:18 0
61 *585:31 *600:18 0
62 *588:12 *600:10 0
63 *588:18 *600:12 0
64 *588:106 *600:65 0
65 *588:106 *600:73 0
66 *589:8 *600:10 0
67 *589:68 *600:26 0.000176365
68 *589:68 *600:30 0.000562939
69 *589:68 *600:41 0.000240492
70 *589:74 *600:26 0.000112418
71 *590:16 *600:10 1.51749e-05
72 *591:14 *600:12 0
73 *592:10 *600:12 0.00598695
74 *593:69 *1946:A 0
75 *594:8 *600:10 0
76 *596:28 *600:58 0
77 *598:51 *1946:A 0
78 *599:10 *600:10 0
79 *599:55 *600:58 0.000159096
*RES
1 *2239:X *600:10 49.5687 
2 *600:10 *600:12 31.003 
3 *600:12 *600:18 43.7801 
4 *600:18 *600:26 42.8943 
5 *600:26 *600:30 23.7801 
6 *600:30 *1868:A0 21.9982 
7 *600:30 *600:41 3.1312 
8 *600:41 *1883:A0 20 
9 *600:41 *600:50 2.0291 
10 *600:50 *600:58 47.2203 
11 *600:58 *1930:A0 20 
12 *600:50 *600:65 2.9149 
13 *600:65 *600:73 24.4805 
14 *600:73 *1946:A 44.3775 
15 *600:73 *1901:A3 40.3193 
16 *600:65 *1909:A3 20 
*END

*D_NET *601 0.0185949
*CONN
*I *1937:A1 I *D sg13g2_o21ai_1
*I *1908:A3 I *D sg13g2_mux4_1
*I *1900:A3 I *D sg13g2_mux4_1
*I *1883:A1 I *D sg13g2_mux2_1
*I *1868:A1 I *D sg13g2_mux2_1
*I *1950:B_N I *D sg13g2_nor2b_1
*I *1931:A0 I *D sg13g2_mux4_1
*I *2240:X O *D sg13g2_buf_2
*CAP
1 *1937:A1 4.21736e-05
2 *1908:A3 0.000185378
3 *1900:A3 0
4 *1883:A1 0
5 *1868:A1 0
6 *1950:B_N 0.000301186
7 *1931:A0 0
8 *2240:X 0
9 *601:86 0.000806347
10 *601:71 0.000777022
11 *601:64 0.000234726
12 *601:60 0.000853327
13 *601:48 0.00103486
14 *601:29 0.000684023
15 *601:25 0.000399821
16 *601:12 0.00103465
17 *601:10 0.00368691
18 *601:6 0.00288728
19 *601:12 *1931:A2 0
20 *601:25 *1931:A1 0
21 *601:25 *1931:A2 0
22 *601:86 *621:12 0
23 *1858:S0 *601:60 0.000112656
24 *1858:A2 *1937:A1 6.46834e-05
25 *1858:A2 *601:25 6.0197e-05
26 *1864:B1 *601:71 0
27 *1868:A0 *601:64 0.000144657
28 *1873:A1 *601:60 0.000176083
29 *1886:A_N *601:86 0.000387447
30 *1923:S1 *1950:B_N 8.01118e-05
31 *1931:S0 *601:12 4.78853e-05
32 *1931:S0 *601:25 0
33 *1936:B *601:48 0
34 *1960:D *601:12 0
35 *2150:A *601:12 0.000371783
36 *137:7 *601:12 0
37 *229:54 *1937:A1 4.77425e-05
38 *230:48 *1950:B_N 0
39 *230:48 *601:29 0
40 *231:85 *601:71 0
41 *233:24 *601:86 7.30101e-05
42 *276:18 *1908:A3 4.77425e-05
43 *276:18 *601:86 0.000112453
44 *325:22 *601:12 0
45 *325:22 *601:25 0
46 *325:22 *601:60 0.00040146
47 *361:10 *1950:B_N 0.000544881
48 *369:30 *601:48 0
49 *374:12 *1950:B_N 0
50 *384:14 *1908:A3 6.46382e-05
51 *384:14 *601:86 0.000306639
52 *407:8 *601:48 0
53 *422:39 *601:86 0
54 *425:42 *1908:A3 0.000175826
55 *425:42 *601:86 0
56 *437:10 *601:10 0
57 *440:10 *601:10 0
58 *476:8 *601:48 4.75151e-05
59 *584:26 *601:60 0.000176083
60 *585:10 *601:10 0
61 *587:12 *601:10 0
62 *587:16 *601:12 0
63 *587:16 *601:25 0
64 *587:20 *601:29 7.51285e-05
65 *587:34 *1950:B_N 0
66 *589:68 *601:60 0.000305064
67 *598:22 *601:86 0.00107274
68 *600:26 *601:60 0.00030569
69 *600:41 *601:64 0.000144657
70 *600:41 *601:71 0.000240377
71 *600:41 *601:86 4.77425e-05
72 *600:50 *601:86 3.23417e-05
*RES
1 *2240:X *601:6 40 
2 *601:6 *601:10 48.0366 
3 *601:10 *601:12 7.8898 
4 *601:12 *1931:A0 20 
5 *601:12 *601:25 2.42565 
6 *601:25 *601:29 21.0918 
7 *601:29 *1950:B_N 43.1106 
8 *601:29 *601:48 42.0291 
9 *601:48 *601:60 47.9207 
10 *601:60 *601:64 20.9682 
11 *601:64 *1868:A1 20 
12 *601:64 *601:71 1.6171 
13 *601:71 *1883:A1 20 
14 *601:71 *601:86 47.6323 
15 *601:86 *1900:A3 20 
16 *601:86 *1908:A3 21.8334 
17 *601:25 *1937:A1 20.5356 
*END

*D_NET *602 0.0291762
*CONN
*I *1905:A0 I *D sg13g2_mux4_1
*I *1915:A0 I *D sg13g2_mux4_1
*I *1888:A2 I *D sg13g2_mux4_1
*I *1916:A3 I *D sg13g2_mux4_1
*I *1924:A3 I *D sg13g2_mux4_1
*I *2241:X O *D sg13g2_buf_2
*CAP
1 *1905:A0 0.000420346
2 *1915:A0 0
3 *1888:A2 0
4 *1916:A3 0
5 *1924:A3 0.000190242
6 *2241:X 0.000488349
7 *602:95 0.000511017
8 *602:91 0.00102553
9 *602:79 0.00178874
10 *602:71 0.00215982
11 *602:60 0.00263779
12 *602:37 0.00179688
13 *602:22 0.00197301
14 *602:20 0.00158824
15 *602:14 0.000758846
16 *1905:A0 *1905:A1 0.000565377
17 *602:14 *605:14 1.55212e-05
18 *602:14 *606:14 0.0001716
19 *602:14 *610:18 0
20 *602:14 *616:10 0
21 *602:20 *607:10 0.000434315
22 *602:20 *609:14 0
23 *602:22 *604:8 0
24 *602:22 *609:16 0
25 *602:60 *1888:A1 0
26 *602:60 *613:20 0.000111567
27 *602:71 *611:16 0
28 *602:79 *1899:A1 0.00098273
29 *602:79 *1904:A1 4.77425e-05
30 *602:91 *610:97 0
31 *602:95 *1905:A1 4.78578e-05
32 *1892:A0 *602:60 0
33 *1899:A0 *602:79 0.000177891
34 *1905:S0 *1905:A0 0
35 *1905:A3 *1905:A0 0
36 *1915:S0 *1905:A0 6.46834e-05
37 *1915:S0 *602:95 1.54282e-05
38 *1924:S1 *602:37 0.000111828
39 *1982:GATE *602:71 0.000367175
40 *2024:D *602:79 0
41 *2035:D *602:91 3.15716e-05
42 *2037:GATE *602:60 0
43 *2045:D *602:71 0
44 *2188:A *602:60 0.000274527
45 *2241:A *602:14 1.54285e-05
46 *2242:A *602:22 0
47 *2246:A *602:14 0.000145099
48 *2248:A *602:14 0.000143456
49 *2248:A *602:20 4.77702e-05
50 *2250:A *602:20 0.000208035
51 *211:40 *602:91 0.000235347
52 *216:10 *1905:A0 0
53 *222:10 *602:60 4.75151e-05
54 *222:18 *602:60 0.000143379
55 *243:8 *602:60 7.99004e-05
56 *284:14 *1905:A0 0
57 *284:14 *602:91 0
58 *284:14 *602:95 7.98582e-05
59 *329:12 *602:22 0
60 *424:33 *1924:A3 0.00014499
61 *424:54 *602:60 0
62 *425:67 *602:71 0
63 *430:22 *602:37 0.000436343
64 *430:22 *602:60 0.000273168
65 *431:6 *602:60 7.92265e-05
66 *431:6 *602:71 0
67 *446:10 *602:79 0
68 *448:20 *602:71 0.00176506
69 *460:32 *602:91 0.000208035
70 *460:44 *602:91 0
71 *475:12 *602:79 0.000549114
72 *477:20 *602:22 0
73 *477:20 *602:37 0
74 *477:40 *602:37 0
75 *480:16 *602:22 0.00256712
76 *481:8 *602:91 0.000353792
77 *500:101 *602:71 7.30101e-05
78 *508:12 *602:91 0.000235153
79 *513:22 *602:79 0
80 *516:6 *602:60 0
81 *516:8 *602:60 0.000177332
82 *555:53 *602:91 0.000112418
83 *557:24 *602:60 0.000306524
84 *557:30 *602:37 0.000597434
85 *557:30 *602:60 0.000348477
86 *557:38 *602:37 0.000209056
87 *558:46 *602:22 0
88 *560:10 *602:14 0
89 *560:22 *602:60 0
90 *567:47 *602:71 0.000287036
91 *579:104 *602:60 0.000403894
92 *584:96 *1924:A3 0.000144655
*RES
1 *2241:X *602:14 44.8307 
2 *602:14 *602:20 42.9149 
3 *602:20 *602:22 16.6654 
4 *602:22 *1924:A3 42.06 
5 *602:22 *602:37 25.2942 
6 *602:37 *1916:A3 20 
7 *602:37 *602:60 14.0904 
8 *602:60 *1888:A2 20 
9 *602:60 *602:71 33.9874 
10 *602:71 *602:79 49.167 
11 *602:79 *602:91 49.4348 
12 *602:91 *602:95 20.8714 
13 *602:95 *1915:A0 20 
14 *602:95 *1905:A0 24.753 
*END

*D_NET *603 0.0219531
*CONN
*I *1904:A1 I *D sg13g2_mux4_1
*I *1907:A3 I *D sg13g2_mux4_1
*I *1914:A1 I *D sg13g2_mux4_1
*I *1898:A2 I *D sg13g2_mux4_1
*I *2242:X O *D sg13g2_buf_1
*CAP
1 *1904:A1 2.60565e-05
2 *1907:A3 3.78077e-05
3 *1914:A1 3.34444e-05
4 *1898:A2 0.000215429
5 *2242:X 0.00164941
6 *603:18 0.000939235
7 *603:16 0.00107803
8 *603:14 0.00329797
9 *603:10 0.00457146
10 *1898:A2 *1914:A0 0.000180603
11 *1904:A1 *1904:A2 4.77425e-05
12 *1914:A1 *1914:A2 4.77425e-05
13 *603:10 *613:10 0.000336919
14 *603:14 *611:16 0
15 *603:16 *609:67 0.000527744
16 *603:16 *611:16 0
17 *603:16 *611:24 0.000760137
18 *603:16 *613:36 0
19 *603:18 *1914:A0 0.000392113
20 *603:18 *1914:A2 0
21 *603:18 *609:67 0.000550979
22 *603:18 *611:24 0.000264849
23 *603:18 *611:26 0.00127031
24 *1904:A3 *603:14 5.33604e-05
25 *1932:A1 *603:14 0.000497644
26 *2278:A *603:10 0
27 *212:58 *603:14 0.00012816
28 *507:22 *603:10 0
29 *532:10 *603:14 0
30 *533:98 *603:14 0.000134877
31 *533:98 *603:16 0
32 *549:50 *1898:A2 0
33 *560:10 *603:10 0.00114224
34 *560:16 *603:10 0
35 *560:16 *603:14 0.00238145
36 *560:22 *603:14 0.000974644
37 *562:10 *603:14 0
38 *562:16 *603:14 0
39 *585:98 *603:14 0.000124547
40 *586:47 *1898:A2 0.000240478
41 *602:79 *1904:A1 4.77425e-05
*RES
1 *2242:X *603:10 36.4697 
2 *603:10 *603:14 48.0366 
3 *603:14 *603:16 4.5526 
4 *603:16 *603:18 9.0022 
5 *603:18 *1898:A2 42.4617 
6 *603:18 *1914:A1 40.3193 
7 *603:16 *1907:A3 40.3193 
8 *603:14 *1904:A1 40.3193 
*END

*D_NET *604 0.0201328
*CONN
*I *1899:A2 I *D sg13g2_mux4_1
*I *1902:A1 I *D sg13g2_mux4_1
*I *1912:A1 I *D sg13g2_mux4_1
*I *2243:X O *D sg13g2_buf_1
*CAP
1 *1899:A2 0
2 *1902:A1 0.000387243
3 *1912:A1 0
4 *2243:X 0.000333954
5 *604:26 0.000387243
6 *604:24 0.00193506
7 *604:20 0.00206246
8 *604:16 0.0028165
9 *604:12 0.00458155
10 *604:8 0.00222641
11 *1902:A1 *1902:A2 9.72278e-05
12 *1902:A1 *1912:A2 0.000467865
13 *604:8 *609:16 0.000765469
14 *1899:A0 *604:16 0.000391047
15 *2242:A *604:8 7.51811e-05
16 *245:10 *604:24 0
17 *246:10 *1902:A1 0.00020894
18 *265:8 *604:16 0.000230615
19 *310:8 *604:16 0.000340463
20 *438:12 *604:12 0
21 *446:10 *604:20 0.000175693
22 *468:14 *604:16 0
23 *473:16 *604:16 0
24 *474:18 *604:24 0
25 *475:12 *604:16 0
26 *475:12 *604:24 0
27 *476:18 *604:16 0
28 *483:24 *1902:A1 0
29 *497:12 *604:24 0
30 *513:22 *604:24 0
31 *514:12 *604:24 0.000602117
32 *515:18 *604:8 0
33 *549:34 *604:24 0
34 *582:68 *604:16 0.00204776
35 *602:22 *604:8 0
*RES
1 *2243:X *604:8 44.3054 
2 *604:8 *604:12 41.733 
3 *604:12 *604:16 46.8006 
4 *604:16 *604:20 21.1845 
5 *604:20 *604:24 36.4182 
6 *604:24 *604:26 20 
7 *604:26 *1912:A1 20 
8 *604:26 *1902:A1 23.9964 
9 *604:20 *1899:A2 20 
*END

*D_NET *605 0.0306312
*CONN
*I *1917:A3 I *D sg13g2_mux4_1
*I *1889:A2 I *D sg13g2_mux4_1
*I *1913:A0 I *D sg13g2_mux4_1
*I *1906:A0 I *D sg13g2_mux4_1
*I *1903:A0 I *D sg13g2_mux4_1
*I *1925:A3 I *D sg13g2_mux4_1
*I *2244:X O *D sg13g2_buf_2
*CAP
1 *1917:A3 2.77263e-05
2 *1889:A2 0
3 *1913:A0 0.000121098
4 *1906:A0 0
5 *1903:A0 0.000248555
6 *1925:A3 0
7 *2244:X 0.000459886
8 *605:114 0.000424215
9 *605:79 0.000248555
10 *605:77 0.000832209
11 *605:65 0.00196187
12 *605:61 0.00192624
13 *605:59 0.00276197
14 *605:53 0.00300725
15 *605:36 9.80973e-05
16 *605:28 0.00139062
17 *605:20 0.00249735
18 *605:14 0.00243119
19 *1903:A0 *619:22 8.01995e-05
20 *605:14 *606:14 0.000181385
21 *605:14 *607:10 0.000240749
22 *605:14 *618:12 0
23 *605:20 *606:14 0
24 *605:20 *610:18 0
25 *605:20 *612:20 0
26 *605:20 *624:22 0
27 *605:28 *624:28 0.000963227
28 *605:36 *627:20 0.000179389
29 *605:53 *612:87 0.000370534
30 *605:53 *627:20 0
31 *605:59 *612:87 0.000369932
32 *605:77 *612:121 0.000125175
33 *605:77 *619:22 0
34 *605:114 *1889:A1 0.000112228
35 *1889:A3 *605:114 4.68848e-05
36 *1893:A3 *605:61 0.000112314
37 *1893:A3 *605:114 6.34947e-05
38 *1903:S0 *1903:A0 0
39 *1906:S0 *1903:A0 1.54282e-05
40 *1906:S0 *605:77 0.000401857
41 *1913:S0 *1913:A0 1.54282e-05
42 *1924:A0 *605:20 0.000111568
43 *1925:S1 *605:53 0
44 *1935:S *605:59 0.000240404
45 *1989:D *605:53 8.00842e-05
46 *2004:D *605:28 0.000305175
47 *2004:D *605:53 0.00019424
48 *2032:GATE *605:59 4.77699e-05
49 *2035:GATE *605:65 0.000179389
50 *2036:D *605:59 0
51 *2067:A *605:59 2.62436e-05
52 *2241:A *605:14 1.54285e-05
53 *2246:A *605:14 0.00014436
54 *2248:A *605:14 0.00011101
55 *133:31 *1913:A0 0
56 *211:36 *605:114 0.000273049
57 *211:40 *605:114 0.000289113
58 *250:8 *605:77 0
59 *256:8 *605:77 0
60 *275:8 *605:20 7.51285e-05
61 *302:10 *605:65 0
62 *302:10 *605:77 0
63 *306:10 *605:53 0
64 *326:14 *605:53 0
65 *359:8 *605:77 0
66 *422:65 *605:36 4.7885e-05
67 *424:16 *605:20 0
68 *452:12 *605:59 0
69 *452:12 *605:61 0
70 *452:12 *605:114 0
71 *470:12 *605:65 0
72 *480:8 *605:28 0.000433684
73 *486:30 *605:65 0
74 *486:30 *605:77 0
75 *491:18 *605:59 0
76 *492:8 *605:59 7.9225e-05
77 *493:18 *1913:A0 0.000144931
78 *500:50 *605:36 4.77699e-05
79 *508:12 *605:114 0.000341216
80 *533:112 *605:65 0
81 *539:22 *605:36 0
82 *545:30 *605:114 0
83 *545:51 *605:59 0.000402316
84 *545:51 *605:61 0.000515848
85 *556:47 *605:59 0
86 *561:26 *605:53 0
87 *561:42 *605:65 0.000601042
88 *562:16 *605:59 0.000305735
89 *562:22 *605:59 4.77425e-05
90 *564:46 *605:77 0
91 *572:12 *605:77 0
92 *574:20 *1903:A0 0
93 *579:76 *605:59 0
94 *579:76 *605:114 0
95 *580:43 *605:65 0.00128537
96 *582:18 *605:20 0.00102654
97 *583:32 *605:53 0.000564517
98 *583:32 *605:59 0
99 *595:20 *605:28 0.000963816
100 *602:14 *605:14 1.55212e-05
*RES
1 *2244:X *605:14 45.1088 
2 *605:14 *605:20 39.8893 
3 *605:20 *605:28 47.6838 
4 *605:28 *605:36 41.1639 
5 *605:36 *1925:A3 20 
6 *605:28 *605:53 47.6735 
7 *605:53 *605:59 19.8378 
8 *605:59 *605:61 4.6453 
9 *605:61 *605:65 31.7214 
10 *605:65 *605:77 47.4263 
11 *605:77 *605:79 20 
12 *605:79 *1903:A0 22.1836 
13 *605:79 *1906:A0 20 
14 *605:65 *1913:A0 41.2875 
15 *605:61 *605:114 44.8204 
16 *605:114 *1889:A2 20 
17 *605:59 *1917:A3 20.3502 
*END

*D_NET *606 0.0315733
*CONN
*I *1905:A2 I *D sg13g2_mux4_1
*I *1915:A2 I *D sg13g2_mux4_1
*I *1918:A3 I *D sg13g2_mux4_1
*I *1926:A3 I *D sg13g2_mux4_1
*I *1894:A2 I *D sg13g2_mux4_1
*I *2246:X O *D sg13g2_buf_2
*CAP
1 *1905:A2 0.000480108
2 *1915:A2 0
3 *1918:A3 0
4 *1926:A3 0
5 *1894:A2 3.03991e-05
6 *2246:X 0.000311582
7 *606:97 0.000705597
8 *606:89 0.00310564
9 *606:67 0.000552596
10 *606:50 0.000634558
11 *606:44 0.000455128
12 *606:36 0.00194713
13 *606:30 0.00756967
14 *606:24 0.00408528
15 *606:14 0.00125092
16 *1905:A2 *1905:A1 0
17 *606:14 *624:22 0.000356761
18 *606:24 *607:10 0
19 *606:24 *610:8 0.000112341
20 *606:24 *612:10 0.0001122
21 *606:24 *613:10 0
22 *606:24 *618:12 0
23 *606:30 *607:20 0
24 *606:30 *614:12 0
25 *606:30 *617:22 0
26 *606:30 *618:24 0
27 *606:44 *616:55 7.44406e-05
28 *606:50 *1918:A1 0
29 *606:67 *624:43 0.000496964
30 *606:89 *1899:A1 0
31 *606:89 *609:41 0.000596534
32 *606:89 *609:67 0
33 *606:89 *609:75 0.0011108
34 *606:89 *609:77 0
35 *606:97 *609:77 0.000175721
36 E1BEG[0] *606:24 4.77425e-05
37 E1BEG[0] *606:30 0
38 *1890:S1 *606:89 0
39 *1899:S0 *606:89 0.000208227
40 *1904:S0 *606:89 0.000208035
41 *1905:A3 *1905:A2 0
42 *1968:D *606:89 0
43 *1971:GATE *606:36 0
44 *2014:GATE *606:89 1.54008e-05
45 *2023:GATE *606:89 0
46 *2071:A *1905:A2 0.000208968
47 *2123:A *606:30 0
48 *2158:A *606:89 0
49 *2243:A *606:24 0.000177183
50 *2249:A *606:24 8.03692e-05
51 *2251:A *606:24 8.01116e-05
52 *2366:A *606:24 0
53 *2367:A *606:24 0.000176714
54 *122:21 *606:30 0
55 *211:40 *606:97 0.000286281
56 *280:24 *606:89 0
57 *282:8 *606:36 0
58 *284:14 *606:89 0.000405111
59 *285:8 *606:89 0
60 *289:8 *606:30 0
61 *291:14 *606:36 0.000286916
62 *327:12 *606:30 0
63 *338:10 *606:30 0
64 *431:18 *606:30 0.00219915
65 *432:26 *606:30 0.00150285
66 *433:22 *606:24 0
67 *443:20 *606:30 7.30101e-05
68 *444:18 *606:30 0
69 *445:52 *606:36 0
70 *447:12 *606:30 0
71 *451:12 *606:30 0
72 *456:64 *606:36 0.000112198
73 *470:12 *606:97 0
74 *491:10 *606:89 4.75151e-05
75 *533:45 *606:67 0
76 *533:60 *606:50 0
77 *544:20 *1905:A2 0
78 *544:28 *1905:A2 8.01995e-05
79 *544:28 *606:97 0.000175721
80 *547:38 *606:44 0
81 *548:22 *606:36 0
82 *548:22 *606:44 0
83 *548:39 *606:36 0
84 *549:56 *606:44 5.02734e-05
85 *549:64 *606:67 0.000241023
86 *555:20 *606:36 0
87 *555:37 *606:36 0
88 *558:16 *606:36 0
89 *560:10 *606:14 0
90 *563:31 *606:67 0.000392974
91 *571:26 *606:36 0
92 *571:90 *606:36 0
93 *571:94 *606:36 0
94 *571:121 *606:30 0
95 *571:121 *606:36 0
96 *581:10 *606:30 0
97 *588:114 *606:89 0
98 *602:14 *606:14 0.0001716
99 *605:14 *606:14 0.000181385
100 *605:20 *606:14 0
*RES
1 *2246:X *606:14 43.6539 
2 *606:14 *606:24 48.5902 
3 *606:24 *606:30 32.9703 
4 *606:30 *606:36 34.2037 
5 *606:36 *606:44 44.6247 
6 *606:44 *606:50 40.5356 
7 *606:50 *1894:A2 20.3502 
8 *606:50 *606:67 46.2109 
9 *606:67 *1926:A3 20 
10 *606:36 *1918:A3 20 
11 *606:30 *606:89 46.4069 
12 *606:89 *606:97 42.5235 
13 *606:97 *1915:A2 20 
14 *606:97 *1905:A2 25.047 
*END

*D_NET *607 0.0301159
*CONN
*I *1927:A3 I *D sg13g2_mux4_1
*I *1895:A2 I *D sg13g2_mux4_1
*I *1919:A3 I *D sg13g2_mux4_1
*I *1913:A2 I *D sg13g2_mux4_1
*I *1906:A2 I *D sg13g2_mux4_1
*I *1903:A2 I *D sg13g2_mux4_1
*I *2247:X O *D sg13g2_buf_2
*CAP
1 *1927:A3 2.41961e-05
2 *1895:A2 0.000391998
3 *1919:A3 6.88756e-05
4 *1913:A2 0.000561615
5 *1906:A2 0
6 *1903:A2 0
7 *2247:X 0.000796849
8 *607:45 0.000839986
9 *607:36 0.00254919
10 *607:30 0.00241254
11 *607:26 0.000903508
12 *607:20 0.00240693
13 *607:16 0.00235581
14 *607:10 0.00120859
15 *1895:A2 *1895:A1 0.00046561
16 *1913:A2 *610:71 0
17 *1919:A3 *1899:A1 0
18 *607:10 *609:14 0
19 *607:10 *610:8 0.000112341
20 *607:10 *612:10 0.0001122
21 *607:10 *618:12 0
22 *607:26 *1895:A1 0.000129255
23 *607:26 *617:16 0.00012559
24 *607:26 *617:22 0.00012651
25 *607:26 *625:35 0.000273509
26 *607:36 *609:41 0.000655565
27 *607:36 *609:57 0
28 *607:45 *1903:A1 0
29 *1907:S0 *607:36 4.77425e-05
30 *1920:S1 *1919:A3 0.000112314
31 *2009:GATE *1913:A2 2.18151e-05
32 *2009:GATE *607:45 0
33 *2253:A *607:10 0.00011243
34 *211:58 *1913:A2 0.000112198
35 *211:58 *607:45 0
36 *279:10 *607:36 0
37 *286:10 *1895:A2 4.7885e-05
38 *288:12 *607:30 0.000159096
39 *288:12 *607:36 0.00198165
40 *327:12 *607:20 0.00271513
41 *432:26 *607:20 0
42 *435:22 *607:20 0.000660813
43 *439:12 *607:20 0.00256021
44 *441:18 *607:20 0
45 *474:10 *1913:A2 0
46 *480:20 *607:16 0.000768267
47 *503:8 *1895:A2 0.000515323
48 *503:8 *607:26 0.000402879
49 *510:14 *607:20 0
50 *551:25 *607:36 0
51 *558:16 *607:20 0.00165316
52 *558:16 *607:26 0
53 *562:28 *607:36 0.00104931
54 *566:20 *607:36 0
55 *566:20 *607:45 0
56 *566:33 *607:36 0
57 *566:43 *607:36 0
58 *573:18 *607:36 0
59 *574:16 *607:36 0
60 *574:20 *1913:A2 0
61 *579:34 *607:36 0
62 *602:20 *607:10 0.000434315
63 *605:14 *607:10 0.000240749
64 *606:24 *607:10 0
65 *606:30 *607:20 0
*RES
1 *2247:X *607:10 47.5911 
2 *607:10 *607:16 45.0779 
3 *607:16 *607:20 27.1199 
4 *607:20 *607:26 24.532 
5 *607:26 *607:30 20.8446 
6 *607:30 *607:36 44.0608 
7 *607:36 *1903:A2 20 
8 *607:36 *607:45 2.3999 
9 *607:45 *1906:A2 20 
10 *607:45 *1913:A2 25.047 
11 *607:30 *1919:A3 40.7519 
12 *607:26 *1895:A2 24.7277 
13 *607:20 *1927:A3 40.3193 
*END

*D_NET *608 0.0123136
*CONN
*I *1979:D I *D sg13g2_dlhq_1
*I *2043:D I *D sg13g2_dlhq_1
*I *2105:A I *D sg13g2_buf_1
*I *2011:D I *D sg13g2_dlhq_1
*I *2267:X O *D sg13g2_buf_1
*CAP
1 *1979:D 0
2 *2043:D 0.000262588
3 *2105:A 0.000213869
4 *2011:D 2.16785e-05
5 *2267:X 0.000219966
6 *608:35 0.000605917
7 *608:24 0.000656424
8 *608:20 0.00175113
9 *608:16 0.00286072
10 *608:8 0.00183484
11 *2267:A *608:8 0
12 *133:31 *2011:D 4.77425e-05
13 *133:31 *2105:A 0
14 *251:10 *2043:D 0
15 *434:12 *608:16 0.00102099
16 *460:44 *2043:D 0
17 *500:8 *608:20 0
18 *500:12 *608:16 0.00163723
19 *511:16 *608:8 0
20 *522:16 *608:20 0
21 *522:16 *608:24 0
22 *541:10 *2043:D 0
23 *541:10 *608:20 0
24 *541:10 *608:24 0
25 *541:10 *608:35 0
26 *544:20 *2043:D 0
27 *553:48 *608:8 0
28 *572:97 *2043:D 0.00012816
29 *572:97 *608:24 0.000712197
30 *572:97 *608:35 0.000340145
*RES
1 *2267:X *608:8 42.0806 
2 *608:8 *608:16 39.5906 
3 *608:16 *608:20 32.9574 
4 *608:20 *608:24 5.3663 
5 *608:24 *2011:D 40.3193 
6 *608:24 *608:35 1.5862 
7 *608:35 *2105:A 42.266 
8 *608:35 *2043:D 42.6471 
9 *608:20 *1979:D 40 
*END

*D_NET *609 0.0298822
*CONN
*I *1920:A3 I *D sg13g2_mux4_1
*I *1890:A2 I *D sg13g2_mux4_1
*I *1907:A0 I *D sg13g2_mux4_1
*I *1915:A1 I *D sg13g2_mux4_1
*I *1905:A1 I *D sg13g2_mux4_1
*I *1928:A3 I *D sg13g2_mux4_1
*I *2248:X O *D sg13g2_buf_2
*CAP
1 *1920:A3 7.12026e-05
2 *1890:A2 0
3 *1907:A0 4.29286e-05
4 *1915:A1 0
5 *1905:A1 0.000454351
6 *1928:A3 0
7 *2248:X 0.000595287
8 *609:77 0.000902328
9 *609:75 0.00113004
10 *609:67 0.00124564
11 *609:57 0.00169608
12 *609:45 0.00134494
13 *609:41 0.00124196
14 *609:35 0.00121798
15 *609:26 0.000141515
16 *609:18 0.000301705
17 *609:16 0.00334579
18 *609:14 0.00394108
19 *609:41 *1899:A1 0
20 *609:41 *617:22 0
21 *609:45 *1890:A1 0.000434744
22 *609:67 *1914:A2 0.000232421
23 *609:67 *610:45 2.21754e-05
24 *609:67 *613:36 0.00087177
25 *609:75 *610:45 0.00085348
26 *609:75 *610:97 0.000240377
27 *609:75 *614:24 0.00028973
28 *1905:A0 *1905:A1 0.000565377
29 *1905:A2 *1905:A1 0
30 *1907:S0 *1907:A0 8.00842e-05
31 *1907:S0 *609:57 0.000143351
32 *1909:S1 *609:26 0.000112198
33 *1909:S1 *609:35 3.17099e-05
34 *1927:A0 *609:41 0
35 *1967:GATE *609:41 0
36 *1968:GATE *609:41 0
37 *2035:GATE *609:77 0.00020911
38 *2071:A *1905:A1 0
39 *2158:A *609:77 8.01118e-05
40 *2248:A *609:14 1.54285e-05
41 *2250:A *609:14 0.000208062
42 *2252:A *609:14 0
43 *2253:A *609:14 0.000112763
44 *217:12 *609:57 0.000181383
45 *218:10 *609:57 0
46 *278:22 *609:26 0.000178153
47 *279:10 *609:57 0
48 *430:26 *609:16 0
49 *434:16 *609:57 0
50 *446:10 *609:77 1.54008e-05
51 *477:20 *609:16 0
52 *487:10 *609:75 0.000287776
53 *507:8 *609:57 0
54 *515:18 *609:16 0
55 *544:28 *609:77 0
56 *544:75 *609:26 7.30101e-05
57 *551:25 *609:41 7.35515e-05
58 *556:14 *609:16 0
59 *558:46 *609:16 0
60 *560:10 *609:14 0
61 *561:32 *609:16 0
62 *563:53 *609:16 0
63 *563:61 *609:16 0
64 *563:72 *609:16 0
65 *566:33 *609:57 0
66 *566:41 *609:45 0.000370243
67 *578:35 *609:16 0.00196811
68 *578:35 *609:26 0
69 *579:34 *609:57 0.00012816
70 *588:114 *609:41 0
71 *602:20 *609:14 0
72 *602:22 *609:16 0
73 *602:95 *1905:A1 4.78578e-05
74 *603:16 *609:67 0.000527744
75 *603:18 *609:67 0.000550979
76 *604:8 *609:16 0.000765469
77 *606:89 *609:41 0.000596534
78 *606:89 *609:67 0
79 *606:89 *609:75 0.0011108
80 *606:89 *609:77 0
81 *606:97 *609:77 0.000175721
82 *607:10 *609:14 0
83 *607:36 *609:41 0.000655565
84 *607:36 *609:57 0
*RES
1 *2248:X *609:14 45.4487 
2 *609:14 *609:16 30.7558 
3 *609:16 *609:18 20 
4 *609:18 *609:26 41.5965 
5 *609:26 *1928:A3 20 
6 *609:18 *609:35 1.1651 
7 *609:35 *609:41 29.4428 
8 *609:41 *609:45 22.9149 
9 *609:45 *609:57 49.7747 
10 *609:57 *609:67 47.8795 
11 *609:67 *609:75 48.7962 
12 *609:75 *609:77 4.429 
13 *609:77 *1905:A1 24.841 
14 *609:77 *1915:A1 20 
15 *609:57 *1907:A0 20.4841 
16 *609:45 *1890:A2 20 
17 *609:35 *1920:A3 20.8446 
*END

*D_NET *610 0.0304688
*CONN
*I *1921:A3 I *D sg13g2_mux4_1
*I *1891:A2 I *D sg13g2_mux4_1
*I *1913:A1 I *D sg13g2_mux4_1
*I *1906:A1 I *D sg13g2_mux4_1
*I *1903:A1 I *D sg13g2_mux4_1
*I *1929:A3 I *D sg13g2_mux4_1
*I *2249:X O *D sg13g2_buf_2
*CAP
1 *1921:A3 0
2 *1891:A2 0.000301976
3 *1913:A1 0
4 *1906:A1 0
5 *1903:A1 0.000226542
6 *1929:A3 8.47807e-05
7 *2249:X 6.07865e-05
8 *610:97 0.000286613
9 *610:71 0.000782131
10 *610:53 0.000405643
11 *610:49 0.0010024
12 *610:45 0.00346403
13 *610:24 0.00359724
14 *610:18 0.00287081
15 *610:8 0.0022534
16 *610:18 *612:20 0.00240811
17 *610:18 *625:22 0.000393192
18 *610:18 *625:26 0.00276819
19 *610:24 *626:34 0
20 *610:24 *627:20 0.00122888
21 *610:45 *1890:A1 0
22 *610:45 *618:44 0
23 *610:45 *626:34 8.01118e-05
24 *610:49 *612:111 0
25 *610:53 *612:121 0
26 *610:71 *1906:A3 4.77425e-05
27 *1913:A2 *610:71 0
28 *1921:S0 *1891:A2 0.00014476
29 *1921:S0 *610:71 0
30 *1928:A0 *1929:A3 0
31 *1928:A0 *610:45 0
32 *1981:GATE *610:45 0.000112198
33 *2003:GATE *610:45 0.000596991
34 *2009:GATE *1903:A1 0
35 *2023:D *610:49 0.000390334
36 *2083:A *610:45 0.000338865
37 *2250:A *610:18 0.000181192
38 *211:58 *610:71 0.00014454
39 *212:18 *610:97 0.00023464
40 *261:14 *610:18 0.000964821
41 *278:22 *610:24 0
42 *284:14 *610:97 1.73259e-05
43 *285:8 *610:45 0
44 *326:14 *610:24 0
45 *366:8 *610:49 0.000496575
46 *394:8 *610:24 0.000492171
47 *444:18 *610:18 0
48 *460:22 *610:45 0
49 *471:10 *610:18 0
50 *481:8 *610:45 0.000788709
51 *481:8 *610:97 6.46834e-05
52 *486:30 *610:97 0.00023464
53 *493:18 *1891:A2 0
54 *493:20 *1891:A2 0.0001122
55 *497:12 *610:49 0
56 *497:12 *610:53 0
57 *534:51 *610:18 0.000229431
58 *544:75 *610:24 0
59 *566:37 *610:45 4.77699e-05
60 *566:41 *610:45 0.000661383
61 *572:12 *1891:A2 0
62 *574:20 *1903:A1 0.000273997
63 *588:106 *610:45 0.000338299
64 *602:14 *610:18 0
65 *602:91 *610:97 0
66 *605:20 *610:18 0
67 *606:24 *610:8 0.000112341
68 *607:10 *610:8 0.000112341
69 *607:45 *1903:A1 0
70 *609:67 *610:45 2.21754e-05
71 *609:75 *610:45 0.00085348
72 *609:75 *610:97 0.000240377
*RES
1 *2249:X *610:8 40.7519 
2 *610:8 *610:18 47.604 
3 *610:18 *610:24 48.2606 
4 *610:24 *1929:A3 20.7519 
5 *610:24 *610:45 28.3147 
6 *610:45 *610:49 24.3054 
7 *610:49 *610:53 21.339 
8 *610:53 *1903:A1 22.1836 
9 *610:53 *1906:A1 20 
10 *610:49 *610:71 23.9964 
11 *610:71 *1913:A1 20 
12 *610:71 *1891:A2 23.1003 
13 *610:45 *610:97 43.3578 
14 *610:97 *1921:A3 20 
*END

*D_NET *611 0.0346283
*CONN
*I *1904:A0 I *D sg13g2_mux4_1
*I *1907:A2 I *D sg13g2_mux4_1
*I *1922:A3 I *D sg13g2_mux4_1
*I *1930:A3 I *D sg13g2_mux4_1
*I *1896:A2 I *D sg13g2_mux4_1
*I *1914:A0 I *D sg13g2_mux4_1
*I *2250:X O *D sg13g2_buf_2
*CAP
1 *1904:A0 0
2 *1907:A2 0
3 *1922:A3 0.000485319
4 *1930:A3 0
5 *1896:A2 0.000125449
6 *1914:A0 0.000185935
7 *2250:X 0.000206313
8 *611:56 0.000887772
9 *611:41 0.000527902
10 *611:39 0.00241558
11 *611:26 0.00286651
12 *611:24 0.000480097
13 *611:20 0.000294931
14 *611:16 0.00392557
15 *611:14 0.00384573
16 *611:12 0.00190314
17 *611:8 0.00210945
18 *1922:A3 *1922:A2 0.00049778
19 *611:12 *618:12 0.000531364
20 *611:16 *613:36 0.000285198
21 *611:56 *628:47 0.000179009
22 E1BEG[1] *611:12 0
23 E2BEG[4] *611:12 0
24 E2BEG[6] *611:12 0
25 E2BEGb[0] *611:12 0
26 E2BEGb[4] *611:12 0
27 E2BEGb[5] *611:16 0.000342386
28 E2BEGb[6] *611:16 0
29 *1898:A2 *1914:A0 0.000180603
30 *1904:S0 *611:20 0.0001122
31 *1932:A1 *611:16 0.000477086
32 *1982:GATE *611:16 0
33 *2252:A *611:8 0
34 *2275:A *611:12 0
35 *2367:A *611:12 0
36 *130:13 *611:39 0
37 *212:58 *611:16 0.00012816
38 *237:40 *1922:A3 0
39 *344:10 *1896:A2 0
40 *344:10 *611:56 0
41 *425:67 *611:16 0.000280967
42 *428:16 *1896:A2 0
43 *433:22 *611:12 0
44 *441:18 *611:12 0
45 *442:16 *611:8 0.000499557
46 *442:16 *611:12 0
47 *445:58 *1922:A3 0.000273043
48 *445:58 *611:56 0
49 *448:20 *611:16 0
50 *507:22 *611:12 0
51 *512:26 *611:12 0.00147308
52 *515:24 *611:16 0
53 *533:68 *611:39 0
54 *533:83 *1914:A0 0.000233706
55 *533:98 *1914:A0 5.15366e-05
56 *533:98 *611:24 0.00102488
57 *533:98 *611:26 0.00128984
58 *550:40 *611:39 0.00235922
59 *550:46 *611:39 0.00146162
60 *602:71 *611:16 0
61 *603:14 *611:16 0
62 *603:16 *611:16 0
63 *603:16 *611:24 0.000760137
64 *603:18 *1914:A0 0.000392113
65 *603:18 *611:24 0.000264849
66 *603:18 *611:26 0.00127031
*RES
1 *2250:X *611:8 42.3278 
2 *611:8 *611:12 38.9211 
3 *611:12 *611:14 20 
4 *611:14 *611:16 33.2278 
5 *611:16 *611:20 20.7519 
6 *611:20 *611:24 24.7998 
7 *611:24 *611:26 6.0358 
8 *611:26 *1914:A0 42.8222 
9 *611:26 *611:39 45.1938 
10 *611:39 *611:41 20 
11 *611:41 *1896:A2 41.0918 
12 *611:41 *611:56 23.7554 
13 *611:56 *1930:A3 20 
14 *611:56 *1922:A3 25.1912 
15 *611:24 *1907:A2 40 
16 *611:20 *1904:A0 20 
*END

*D_NET *612 0.0446769
*CONN
*I *1906:A3 I *D sg13g2_mux4_1
*I *1902:A0 I *D sg13g2_mux4_1
*I *1912:A0 I *D sg13g2_mux4_1
*I *1931:A3 I *D sg13g2_mux4_1
*I *1923:A3 I *D sg13g2_mux4_1
*I *1897:A2 I *D sg13g2_mux4_1
*I *2251:X O *D sg13g2_buf_2
*CAP
1 *1906:A3 0.000130995
2 *1902:A0 0.000223134
3 *1912:A0 0.000232087
4 *1931:A3 0
5 *1923:A3 0
6 *1897:A2 0.000389949
7 *2251:X 0.000186755
8 *612:121 0.00176291
9 *612:111 0.00251143
10 *612:107 0.00242482
11 *612:99 0.00222427
12 *612:87 0.00203432
13 *612:48 0.000922917
14 *612:42 0.000656628
15 *612:38 0.00073027
16 *612:30 0.00213507
17 *612:20 0.00419387
18 *612:16 0.00160814
19 *612:10 0.000291606
20 *1897:A2 *1897:A1 0.000273739
21 *1897:A2 *622:24 0
22 *1897:A2 *629:32 7.52158e-05
23 *612:10 *625:22 0.000340253
24 *612:48 *622:22 0.000262174
25 *612:48 *622:24 0.00119032
26 *612:107 *1889:A1 0.000434315
27 *612:111 *614:24 0
28 *612:121 *619:22 0
29 *1895:S1 *612:99 0.00023511
30 *1902:S0 *1902:A0 1.54285e-05
31 *1917:S0 *612:107 0
32 *1924:A2 *612:20 0.000176399
33 *1925:S1 *612:87 0.000107036
34 *1935:A1 *612:99 0
35 *1989:D *612:87 8.02267e-05
36 *1998:GATE *1902:A0 0.000339124
37 *1998:GATE *1912:A0 1.54008e-05
38 *2004:D *612:87 0
39 *2023:D *612:111 0
40 *2036:D *612:99 0.000112359
41 *2067:A *612:99 8.03146e-05
42 *2090:A *612:30 0.000112426
43 *135:13 *612:38 0
44 *138:13 *612:38 0
45 *211:58 *612:121 0
46 *256:8 *612:121 0
47 *261:14 *612:20 0.000649308
48 *274:10 *612:20 0.000597771
49 *329:8 *612:87 8.00842e-05
50 *331:12 *612:48 0.00108159
51 *408:8 *612:38 0
52 *422:25 *612:42 0
53 *422:25 *612:48 0
54 *424:16 *612:20 0.00314667
55 *425:26 *612:30 0
56 *425:67 *612:107 0.00053085
57 *425:71 *612:107 0
58 *425:86 *612:107 0.000209339
59 *434:35 *612:99 0
60 *442:16 *612:10 7.50938e-05
61 *459:18 *612:99 0.000177069
62 *480:8 *612:30 0.000724341
63 *481:14 *612:111 0
64 *483:24 *1912:A0 0
65 *486:8 *612:121 0.000344697
66 *495:16 *1902:A0 0
67 *495:16 *1912:A0 0
68 *497:12 *612:121 0
69 *498:16 *612:38 0.000178985
70 *498:24 *612:30 0.000401903
71 *500:24 *612:111 0.00134216
72 *500:24 *612:121 2.20966e-05
73 *500:50 *612:99 0.000403827
74 *500:83 *612:38 0
75 *506:10 *1897:A2 0
76 *534:51 *612:20 0.000229431
77 *551:67 *612:30 0
78 *556:16 *612:87 0
79 *556:32 *612:87 0
80 *556:47 *612:87 0.000726057
81 *556:47 *612:99 0
82 *557:14 *612:87 0.000181608
83 *561:26 *612:30 0
84 *561:26 *612:87 0.00011101
85 *567:73 *612:111 0.000391104
86 *567:106 *612:107 0.00014391
87 *570:77 *612:20 0
88 *576:10 *612:30 0
89 *576:74 *612:30 0.00020871
90 *579:70 *612:107 0
91 *582:18 *612:20 0
92 *584:73 *612:30 0
93 *584:79 *612:38 0.000276948
94 *585:90 *612:107 0.000659518
95 *585:98 *612:107 0.000241956
96 *586:55 *612:121 0.000979905
97 *588:18 *612:42 0.000144683
98 *588:18 *612:48 0.000175836
99 *588:26 *612:38 7.33256e-05
100 *590:26 *612:38 0
101 *590:102 *1906:A3 0.000112198
102 *605:20 *612:20 0
103 *605:53 *612:87 0.000370534
104 *605:59 *612:87 0.000369932
105 *605:77 *612:121 0.000125175
106 *606:24 *612:10 0.0001122
107 *607:10 *612:10 0.0001122
108 *610:18 *612:20 0.00240811
109 *610:49 *612:111 0
110 *610:53 *612:121 0
111 *610:71 *1906:A3 4.77425e-05
*RES
1 *2251:X *612:10 42.3381 
2 *612:10 *612:16 40.7519 
3 *612:16 *612:20 42.5982 
4 *612:20 *612:30 34.1007 
5 *612:30 *612:38 46.3242 
6 *612:38 *612:42 21.1845 
7 *612:42 *612:48 28.6108 
8 *612:48 *1897:A2 43.9861 
9 *612:48 *1923:A3 40 
10 *612:42 *1931:A3 20 
11 *612:20 *612:87 32.0201 
12 *612:87 *612:99 48.1679 
13 *612:99 *612:107 33.7814 
14 *612:107 *612:111 30.7326 
15 *612:111 *612:121 32.6484 
16 *612:121 *1912:A0 21.8334 
17 *612:121 *1902:A0 22.266 
18 *612:111 *1906:A3 41.4214 
*END

*D_NET *613 0.0213103
*CONN
*I *1892:A2 I *D sg13g2_mux4_1
*I *1904:A2 I *D sg13g2_mux4_1
*I *1907:A1 I *D sg13g2_mux4_1
*I *1914:A2 I *D sg13g2_mux4_1
*I *2252:X O *D sg13g2_buf_1
*CAP
1 *1892:A2 0
2 *1904:A2 9.17792e-05
3 *1907:A1 7.20656e-05
4 *1914:A2 0.001027
5 *2252:X 0.000955135
6 *613:36 0.00166487
7 *613:28 0.00204927
8 *613:20 0.00157169
9 *613:12 0.00199741
10 *613:10 0.00277253
11 *613:28 *1899:A1 0
12 E2BEG[3] *613:10 0.000207809
13 *1904:A1 *1904:A2 4.77425e-05
14 *1914:A1 *1914:A2 4.77425e-05
15 *1982:D *613:28 0
16 *2037:GATE *613:20 0.000176393
17 *2038:GATE *613:28 5.30319e-05
18 *2072:A *613:28 1.54556e-05
19 *2242:A *613:10 0.000240231
20 *2375:A *613:10 0
21 *212:83 *613:28 0.00275319
22 *243:18 *613:20 0
23 *279:10 *1907:A1 0.0001122
24 *348:10 *613:12 0.000128248
25 *422:79 *613:28 0
26 *424:54 *613:20 1.54008e-05
27 *433:22 *613:10 0
28 *434:31 *613:28 0
29 *438:18 *613:12 0.000655809
30 *440:16 *613:12 0
31 *442:26 *613:10 0
32 *446:10 *1904:A2 0.00014391
33 *446:10 *613:28 0.000240933
34 *464:8 *613:28 0
35 *501:10 *613:12 0
36 *507:8 *613:12 0
37 *533:83 *1914:A2 0.0001122
38 *560:10 *613:10 0
39 *567:36 *1914:A2 0
40 *567:36 *613:36 0
41 *567:47 *613:36 0.000337717
42 *579:12 *613:28 0.00123292
43 *579:85 *613:28 0.000419774
44 *582:42 *613:28 0.000282459
45 *586:47 *1914:A2 0
46 *590:102 *1907:A1 4.75166e-05
47 *602:60 *613:20 0.000111567
48 *603:10 *613:10 0.000336919
49 *603:16 *613:36 0
50 *603:18 *1914:A2 0
51 *606:24 *613:10 0
52 *609:67 *1914:A2 0.000232421
53 *609:67 *613:36 0.00087177
54 *611:16 *613:36 0.000285198
*RES
1 *2252:X *613:10 49.5378 
2 *613:10 *613:12 15.9238 
3 *613:12 *613:20 41.7819 
4 *613:20 *613:28 39.0035 
5 *613:28 *613:36 26.7053 
6 *613:36 *1914:A2 48.0237 
7 *613:36 *1907:A1 40.7519 
8 *613:28 *1904:A2 20.9682 
9 *613:12 *1892:A2 40 
*END

*D_NET *614 0.0296096
*CONN
*I *1893:A2 I *D sg13g2_mux4_1
*I *1902:A2 I *D sg13g2_mux4_1
*I *1912:A2 I *D sg13g2_mux4_1
*I *2253:X O *D sg13g2_buf_1
*CAP
1 *1893:A2 6.20563e-05
2 *1902:A2 7.32888e-05
3 *1912:A2 0.000314216
4 *2253:X 0.000480732
5 *614:24 0.00243528
6 *614:20 0.0036973
7 *614:16 0.00384955
8 *614:12 0.00274281
9 *1893:A2 *1889:A1 0.0001122
10 *614:12 *618:24 0.000764392
11 *1902:A1 *1902:A2 9.72278e-05
12 *1902:A1 *1912:A2 0.000467865
13 *1912:A3 *614:24 0
14 *2242:A *614:12 0.000240231
15 *2366:A *614:12 0.000144542
16 *127:9 *614:16 0.00363374
17 *212:18 *614:24 0
18 *242:8 *614:20 0
19 *249:8 *614:24 0.000393941
20 *425:86 *1893:A2 0.0001122
21 *456:22 *614:24 0
22 *479:14 *614:20 0
23 *481:14 *614:20 0
24 *482:8 *614:20 0.00463734
25 *482:8 *614:24 0.00091703
26 *487:10 *614:24 0
27 *500:24 *614:24 0.00181732
28 *504:12 *614:16 0
29 *505:18 *614:16 0.0018235
30 *549:50 *1912:A2 0.000112763
31 *567:12 *1902:A2 0
32 *567:12 *1912:A2 0
33 *567:73 *614:24 0.000390358
34 *606:30 *614:12 0
35 *609:75 *614:24 0.00028973
36 *612:111 *614:24 0
*RES
1 *2253:X *614:12 45.7474 
2 *614:12 *614:16 44.3286 
3 *614:16 *614:20 41.6094 
4 *614:20 *614:24 40.8678 
5 *614:24 *1912:A2 23.1312 
6 *614:24 *1902:A2 20.7519 
7 *614:20 *1893:A2 40.7519 
*END

*D_NET *615 0.0160276
*CONN
*I *1916:A1 I *D sg13g2_mux4_1
*I *1888:A1 I *D sg13g2_mux4_1
*I *1924:A1 I *D sg13g2_mux4_1
*I *2254:X O *D sg13g2_buf_1
*CAP
1 *1916:A1 0
2 *1888:A1 0.00128985
3 *1924:A1 0
4 *2254:X 9.85565e-05
5 *615:29 0.00185051
6 *615:22 8.57658e-05
7 *615:14 0.00271169
8 *615:12 0.00393736
9 *615:8 0.00197065
10 *615:12 *626:14 0
11 *1892:S0 *1888:A1 0
12 *1892:A0 *1888:A1 0.0005319
13 *1924:A2 *615:22 4.77425e-05
14 *2006:GATE *615:14 4.77425e-05
15 *2037:GATE *1888:A1 0.000466931
16 *2038:D *1888:A1 0
17 *2052:D *615:14 0
18 *2053:D *615:14 0
19 *2054:D *615:14 0
20 *2151:A *615:14 0
21 *222:10 *1888:A1 4.75151e-05
22 *326:14 *615:14 0.000466143
23 *326:14 *615:29 0.000323022
24 *424:33 *615:14 0.000208035
25 *424:33 *615:29 0.000921244
26 *424:54 *1888:A1 0
27 *432:14 *1888:A1 0
28 *480:16 *615:22 0.000229428
29 *522:55 *615:22 4.77425e-05
30 *534:36 *1888:A1 0
31 *534:36 *615:29 0
32 *534:51 *615:29 0
33 *534:53 *615:14 0
34 *539:22 *615:22 0.000229428
35 *558:16 *1888:A1 0
36 *579:104 *1888:A1 0.000468577
37 *581:10 *1888:A1 4.77425e-05
38 *590:26 *615:12 0
39 *593:18 *615:14 0
40 *602:60 *1888:A1 0
*RES
1 *2254:X *615:8 40.7519 
2 *615:8 *615:12 35.9238 
3 *615:12 *615:14 18.0559 
4 *615:14 *615:22 41.4111 
5 *615:22 *1924:A1 20 
6 *615:14 *615:29 6.1594 
7 *615:29 *1888:A1 32.9368 
8 *615:29 *1916:A1 20 
*END

*D_NET *616 0.0262759
*CONN
*I *1926:A2 I *D sg13g2_mux4_1
*I *1898:A1 I *D sg13g2_mux4_1
*I *1918:A2 I *D sg13g2_mux4_1
*I *2255:X O *D sg13g2_buf_1
*CAP
1 *1926:A2 0
2 *1898:A1 0.000964431
3 *1918:A2 1.29511e-05
4 *2255:X 0.000763198
5 *616:55 0.00131785
6 *616:38 0.00119669
7 *616:34 0.00123016
8 *616:28 0.00049854
9 *616:24 0.00164423
10 *616:16 0.00380918
11 *616:10 0.00302684
12 *616:10 *618:12 0
13 *616:10 *620:14 0
14 *616:10 *622:14 0
15 *616:10 *628:10 0.00040088
16 *616:16 *620:16 0
17 *616:16 *624:22 0
18 *616:24 *620:16 0
19 *616:24 *624:28 0.000972362
20 *616:28 *624:28 0.000111985
21 *616:34 *624:43 0
22 *616:38 *1918:A1 0.000597807
23 *616:38 *624:43 0
24 *1867:A0 *616:24 0
25 *1894:S0 *616:38 0
26 *1894:A0 *616:38 0
27 *1965:GATE *616:38 0.000177474
28 *1977:D *1898:A1 0.000337031
29 *2020:D *616:16 0.000473722
30 *2034:GATE *616:38 0.000209198
31 *2174:A *1898:A1 0.000289323
32 *2241:A *616:10 0
33 *240:10 *616:38 0.000112501
34 *260:12 *616:24 0.00223196
35 *277:8 *616:38 0.000209614
36 *303:8 *616:24 0
37 *303:8 *616:34 0
38 *304:8 *616:34 0.000235992
39 *344:10 *616:34 0
40 *456:50 *1898:A1 0
41 *456:64 *1898:A1 0.000240297
42 *456:64 *616:55 0.000379951
43 *458:14 *616:16 0
44 *458:14 *616:24 0
45 *511:69 *616:16 0.000754501
46 *533:45 *616:34 0
47 *548:22 *616:55 0
48 *549:50 *1898:A1 0
49 *549:50 *1918:A2 4.77083e-05
50 *549:50 *616:38 0
51 *549:50 *616:55 0
52 *549:64 *616:38 0
53 *551:8 *616:34 0
54 *561:26 *616:16 0.000144883
55 *562:42 *616:24 0
56 *563:31 *616:34 0.000498771
57 *566:49 *1898:A1 0.000112099
58 *571:42 *616:28 0
59 *573:41 *1898:A1 0.000304869
60 *583:32 *616:16 0.000144768
61 *593:20 *616:16 0.000655023
62 *593:26 *616:16 0.000596033
63 *593:37 *616:24 0
64 *595:20 *616:24 0.00149861
65 *599:32 *616:16 0
66 *602:14 *616:10 0
67 *606:44 *616:55 7.44406e-05
*RES
1 *2255:X *616:10 47.622 
2 *616:10 *616:16 43.072 
3 *616:16 *616:24 39.2816 
4 *616:24 *616:28 20.9682 
5 *616:28 *616:34 44.5526 
6 *616:34 *616:38 8.9198 
7 *616:38 *1918:A2 20.3193 
8 *616:38 *616:55 43.4917 
9 *616:55 *1898:A1 29.7541 
10 *616:28 *1926:A2 20 
*END

*D_NET *617 0.0205679
*CONN
*I *1927:A2 I *D sg13g2_mux4_1
*I *1899:A1 I *D sg13g2_mux4_1
*I *1919:A2 I *D sg13g2_mux4_1
*I *2257:X O *D sg13g2_buf_1
*CAP
1 *1927:A2 0
2 *1899:A1 0.00183029
3 *1919:A2 0
4 *2257:X 0
5 *617:22 0.00229188
6 *617:16 0.00237803
7 *617:10 0.00517441
8 *617:6 0.00325798
9 *617:10 *622:14 7.4933e-05
10 *1890:S1 *1899:A1 0.000107416
11 *1895:S0 *1899:A1 0
12 *1919:A3 *1899:A1 0
13 *1920:S1 *1899:A1 0
14 *1920:S1 *617:22 0
15 *1968:D *1899:A1 0
16 *1982:D *1899:A1 0.000112458
17 *2014:GATE *1899:A1 4.77425e-05
18 *2023:GATE *1899:A1 0.000208062
19 *2072:A *1899:A1 8.03692e-05
20 *2255:A *617:10 0
21 *135:13 *617:16 0
22 *231:10 *617:10 0
23 *233:8 *617:10 0.000280967
24 *233:18 *617:16 0
25 *289:8 *617:22 0.000235556
26 *388:10 *617:10 0.000126354
27 *422:31 *617:16 0
28 *423:63 *1899:A1 4.77425e-05
29 *424:8 *617:10 0.000396485
30 *446:10 *1899:A1 0
31 *464:8 *1899:A1 0
32 *479:10 *617:16 0
33 *491:10 *1899:A1 4.75151e-05
34 *512:12 *617:10 0
35 *512:16 *617:10 0
36 *545:66 *617:16 0.00263492
37 *558:16 *617:22 0
38 *584:18 *617:10 0
39 *589:32 *617:10 0
40 *596:16 *617:16 0
41 *602:79 *1899:A1 0.00098273
42 *606:30 *617:22 0
43 *606:89 *1899:A1 0
44 *607:26 *617:16 0.00012559
45 *607:26 *617:22 0.00012651
46 *609:41 *1899:A1 0
47 *609:41 *617:22 0
48 *613:28 *1899:A1 0
*RES
1 *2257:X *617:6 40 
2 *617:6 *617:10 47.7894 
3 *617:10 *617:16 39.7348 
4 *617:16 *617:22 24.6247 
5 *617:22 *1919:A2 20 
6 *617:22 *1899:A1 37.6748 
7 *617:16 *1927:A2 40 
*END

*D_NET *618 0.0208556
*CONN
*I *1920:A2 I *D sg13g2_mux4_1
*I *1890:A1 I *D sg13g2_mux4_1
*I *1928:A2 I *D sg13g2_mux4_1
*I *2258:X O *D sg13g2_buf_1
*CAP
1 *1920:A2 0
2 *1890:A1 0.000868742
3 *1928:A2 0
4 *2258:X 0.00145601
5 *618:44 0.000438858
6 *618:34 0.00154271
7 *618:30 0.00106372
8 *618:24 0.00362839
9 *618:12 0.00425579
10 *618:12 *622:14 0
11 *618:12 *624:12 0.000660179
12 *618:12 *625:16 0
13 *618:34 *1920:A1 0.000126462
14 *618:34 *626:61 0.000442707
15 *618:44 *626:34 0.000122871
16 E1BEG[0] *618:24 0.000283191
17 *1928:A0 *618:44 0.000112596
18 *1989:GATE *618:24 0.000229428
19 *2243:A *618:12 0.000176585
20 *2249:A *618:12 8.02269e-05
21 *2251:A *618:12 8.00842e-05
22 *2260:A *618:12 0.000112596
23 *278:22 *618:44 0
24 *334:10 *618:30 0.000334588
25 *394:8 *618:44 0
26 *447:12 *618:24 0
27 *447:12 *618:30 0.000605864
28 *460:22 *1890:A1 0.00142141
29 *460:22 *618:44 0.00024108
30 *515:18 *618:24 0.000300519
31 *563:53 *618:24 0.000438183
32 *563:53 *618:30 2.22695e-05
33 *571:94 *618:34 0
34 *571:121 *618:30 0
35 *588:106 *618:44 8.00842e-05
36 *588:114 *618:34 0
37 *605:14 *618:12 0
38 *606:24 *618:12 0
39 *606:30 *618:24 0
40 *607:10 *618:12 0
41 *609:45 *1890:A1 0.000434744
42 *610:45 *1890:A1 0
43 *610:45 *618:44 0
44 *611:12 *618:12 0.000531364
45 *614:12 *618:24 0.000764392
46 *616:10 *618:12 0
*RES
1 *2258:X *618:12 34.6878 
2 *618:12 *618:24 46.0693 
3 *618:24 *618:30 8.2194 
4 *618:30 *618:34 22.8222 
5 *618:34 *618:44 44.326 
6 *618:44 *1928:A2 20 
7 *618:34 *1890:A1 29.6202 
8 *618:30 *1920:A2 40 
*END

*D_NET *619 0.0127257
*CONN
*I *2044:D I *D sg13g2_dlhq_1
*I *2106:A I *D sg13g2_buf_1
*I *1980:D I *D sg13g2_dlhq_1
*I *2012:D I *D sg13g2_dlhq_1
*I *2272:X O *D sg13g2_buf_1
*CAP
1 *2044:D 0.000169506
2 *2106:A 0.00023425
3 *1980:D 0
4 *2012:D 2.41461e-05
5 *2272:X 9.94234e-05
6 *619:52 0.00105188
7 *619:41 0.000868913
8 *619:26 0.000375166
9 *619:22 0.00216658
10 *619:8 0.00213577
11 *1903:A0 *619:22 8.01995e-05
12 *1905:S1 *2106:A 0.000144216
13 *1906:S0 *619:22 0.000466028
14 *1913:S1 *619:22 0.000527573
15 *2012:GATE *619:41 5.30319e-05
16 *2039:GATE *619:41 0
17 *2077:A *619:22 4.77425e-05
18 *2124:A *2012:D 1.54008e-05
19 *2124:A *619:41 0.00027444
20 *2124:A *619:52 3.24568e-05
21 *2181:A *619:26 7.33256e-05
22 *219:8 *2044:D 0
23 *251:10 *619:52 0
24 *252:8 *619:52 0
25 *256:8 *619:22 0.000234093
26 *460:44 *619:52 0
27 *460:54 *2044:D 0
28 *467:40 *619:8 0.000144985
29 *486:34 *2044:D 0
30 *486:34 *2106:A 0
31 *497:12 *619:22 0.00214563
32 *500:24 *619:22 0
33 *503:16 *2044:D 4.77699e-05
34 *541:10 *619:52 0
35 *544:20 *2106:A 0
36 *547:16 *619:8 0
37 *564:46 *619:22 0
38 *568:31 *619:52 0
39 *568:35 *619:41 0
40 *568:35 *619:52 0
41 *568:41 *619:52 0.000497316
42 *572:12 *2012:D 4.77425e-05
43 *574:20 *619:22 0.000144998
44 *574:28 *619:22 4.77699e-05
45 *574:41 *619:26 0.000319022
46 *574:41 *619:41 7.51285e-05
47 *580:90 *2044:D 0.000106064
48 *580:90 *619:52 7.51285e-05
49 *586:55 *619:22 0
50 *605:77 *619:22 0
51 *612:121 *619:22 0
*RES
1 *2272:X *619:8 40.9682 
2 *619:8 *619:22 42.8969 
3 *619:22 *619:26 21.8334 
4 *619:26 *2012:D 40.3193 
5 *619:26 *619:41 22.6471 
6 *619:41 *1980:D 20 
7 *619:41 *619:52 27.8383 
8 *619:52 *2106:A 42.1836 
9 *619:52 *2044:D 41.9055 
*END

*D_NET *620 0.0274942
*CONN
*I *1929:A2 I *D sg13g2_mux4_1
*I *1891:A1 I *D sg13g2_mux4_1
*I *1921:A2 I *D sg13g2_mux4_1
*I *2259:X O *D sg13g2_buf_1
*CAP
1 *1929:A2 1.89189e-05
2 *1891:A1 0
3 *1921:A2 0
4 *2259:X 0.000319371
5 *620:63 0.000661378
6 *620:44 0.000716607
7 *620:38 0.00173933
8 *620:34 0.00287818
9 *620:26 0.00136421
10 *620:22 0.000341812
11 *620:16 0.00273084
12 *620:14 0.00304912
13 *620:8 0.000828257
14 *620:8 *621:12 0
15 *620:14 *628:10 0
16 *620:16 *624:22 0
17 *620:34 *626:61 0
18 *620:34 *627:34 0.000403213
19 *620:44 *627:34 8.00842e-05
20 *620:44 *627:49 1.54008e-05
21 *620:63 *627:49 0.000483621
22 *1891:S0 *620:63 0
23 *1891:A3 *620:63 0.000111568
24 *1928:A0 *1929:A2 4.77425e-05
25 *1928:A0 *620:26 0.000208035
26 *1929:A0 *620:34 7.53965e-05
27 *1967:D *620:34 0.000498857
28 *2020:D *620:16 0.000495819
29 *2035:D *620:63 0
30 *2040:D *620:63 4.77425e-05
31 *2258:A *620:8 0
32 *2260:A *620:8 0
33 *133:31 *620:63 0.000144998
34 *260:12 *620:16 0.0026515
35 *279:22 *620:22 0
36 *305:8 *620:34 0.00111425
37 *460:44 *620:63 0
38 *511:69 *620:16 0.000754085
39 *536:22 *620:22 0.000343891
40 *536:22 *620:38 0
41 *555:49 *620:34 0
42 *560:10 *620:14 0.000819577
43 *566:14 *620:38 0
44 *566:43 *620:34 7.33225e-05
45 *570:64 *620:16 0
46 *584:18 *620:8 0
47 *590:102 *620:34 0
48 *593:26 *620:16 0
49 *594:39 *620:16 0.00106883
50 *595:20 *620:16 0.00340828
51 *616:10 *620:14 0
52 *616:16 *620:16 0
53 *616:24 *620:16 0
*RES
1 *2259:X *620:8 43.3166 
2 *620:8 *620:14 45.5105 
3 *620:14 *620:16 31.7446 
4 *620:16 *620:22 42.266 
5 *620:22 *620:26 21.4008 
6 *620:26 *620:34 32.5454 
7 *620:34 *620:38 37.8396 
8 *620:38 *620:44 40.5356 
9 *620:44 *1921:A2 20 
10 *620:44 *620:63 46.9731 
11 *620:63 *1891:A1 20 
12 *620:26 *1929:A2 20.3193 
*END

*D_NET *621 0.0193259
*CONN
*I *1930:A2 I *D sg13g2_mux4_1
*I *1922:A2 I *D sg13g2_mux4_1
*I *1896:A1 I *D sg13g2_mux4_1
*I *2260:X O *D sg13g2_buf_1
*CAP
1 *1930:A2 2.60565e-05
2 *1922:A2 0.000407575
3 *1896:A1 0.000501835
4 *2260:X 0
5 *621:14 0.000956085
6 *621:12 0.00372807
7 *621:6 0.00365534
8 *1896:A1 *1922:A1 0
9 *1896:A1 *628:22 0
10 *1922:A2 *1922:A1 0
11 *1922:A2 *628:22 1.5617e-05
12 *1930:A2 *1930:A1 4.77425e-05
13 *621:12 *628:16 0.00522863
14 *621:12 *628:22 5.15366e-05
15 *621:14 *628:22 0.000127328
16 *1886:A_N *621:12 0.001214
17 *1922:A3 *1922:A2 0.00049778
18 *1930:S0 *1896:A1 0.000547832
19 *1930:S0 *621:12 0.000335729
20 *1930:S0 *621:14 0.000179017
21 *213:14 *1896:A1 0.0002294
22 *223:67 *621:12 0.000862796
23 *226:25 *621:12 0
24 *227:18 *621:12 0.000282102
25 *233:24 *621:12 7.44263e-05
26 *328:16 *1896:A1 0
27 *385:10 *621:12 0.000287256
28 *445:58 *1930:A2 4.77425e-05
29 *571:42 *1896:A1 0
30 *598:18 *621:12 2.1976e-05
31 *598:22 *621:12 0
32 *601:86 *621:12 0
33 *620:8 *621:12 0
*RES
1 *2260:X *621:6 40 
2 *621:6 *621:12 39.5829 
3 *621:12 *621:14 0.8446 
4 *621:14 *1896:A1 45.1912 
5 *621:14 *1922:A2 44.5114 
6 *621:12 *1930:A2 40.3193 
*END

*D_NET *622 0.0208607
*CONN
*I *1931:A2 I *D sg13g2_mux4_1
*I *1923:A2 I *D sg13g2_mux4_1
*I *1897:A1 I *D sg13g2_mux4_1
*I *2261:X O *D sg13g2_buf_1
*CAP
1 *1931:A2 0.000148206
2 *1923:A2 3.03288e-05
3 *1897:A1 0.000297094
4 *2261:X 0.000523536
5 *622:24 0.000958473
6 *622:22 0.00294596
7 *622:18 0.00313516
8 *622:14 0.00149199
9 *1897:A1 *629:32 0.00012816
10 *1923:A2 *629:24 4.77425e-05
11 *622:18 *625:16 0.000436188
12 *622:22 *623:18 0
13 *1897:A2 *1897:A1 0.000273739
14 *1897:A2 *622:24 0
15 *1923:A0 *1897:A1 0
16 *1960:D *1931:A2 0.000175693
17 *2231:A *622:22 0.00102793
18 *2254:A *622:22 0
19 *2255:A *622:14 0
20 *2257:A *622:14 0.000232418
21 *2258:A *622:14 0
22 *2259:A *622:14 0
23 *331:12 *622:22 0
24 *512:26 *622:18 0.000306822
25 *587:16 *1931:A2 0.000208178
26 *591:14 *1931:A2 1.55212e-05
27 *591:14 *622:22 0.0059631
28 *591:14 *622:24 0
29 *592:10 *622:24 0
30 *594:18 *622:18 0
31 *598:12 *622:14 0
32 *599:14 *622:18 0.000987034
33 *601:12 *1931:A2 0
34 *601:25 *1931:A2 0
35 *612:48 *622:22 0.000262174
36 *612:48 *622:24 0.00119032
37 *616:10 *622:14 0
38 *617:10 *622:14 7.4933e-05
39 *618:12 *622:14 0
*RES
1 *2261:X *622:14 45.2015 
2 *622:14 *622:18 30.0528 
3 *622:18 *622:22 49.5198 
4 *622:22 *622:24 6.7774 
5 *622:24 *1897:A1 43.1106 
6 *622:24 *1923:A2 40.3193 
7 *622:22 *1931:A2 41.7201 
*END

*D_NET *623 0.0287592
*CONN
*I *1925:A1 I *D sg13g2_mux4_1
*I *1889:A1 I *D sg13g2_mux4_1
*I *1917:A1 I *D sg13g2_mux4_1
*I *2262:X O *D sg13g2_buf_2
*CAP
1 *1925:A1 0
2 *1889:A1 0.000792846
3 *1917:A1 0
4 *2262:X 0.000270101
5 *623:48 0.000792846
6 *623:46 0.00262889
7 *623:40 0.00266756
8 *623:34 0.00181475
9 *623:28 0.0019875
10 *623:18 0.00357041
11 *623:10 0.00362909
12 *623:40 *627:20 7.30101e-05
13 *1893:A2 *1889:A1 0.0001122
14 *1925:A2 *623:34 1.54008e-05
15 *1931:S1 *623:18 0
16 *1939:A2 *623:18 0
17 *1944:A *623:28 0
18 *1944:A *623:34 0.000401459
19 *1991:GATE *1889:A1 0
20 *1992:D *1889:A1 0.000217391
21 *2036:D *1889:A1 0
22 *2063:D *1889:A1 0.000337622
23 *2089:A *623:34 8.01995e-05
24 *2231:A *623:18 0
25 *135:13 *623:46 0.00381354
26 *137:13 *623:18 0
27 *229:14 *623:28 0.000160341
28 *229:16 *623:28 0.000126445
29 *331:12 *623:18 0.000975709
30 *369:12 *623:28 0.000180044
31 *422:25 *623:18 0
32 *422:39 *623:34 0.000304948
33 *425:42 *623:34 0.000497757
34 *425:71 *1889:A1 1.54008e-05
35 *425:86 *1889:A1 0.000224976
36 *427:8 *623:18 0
37 *427:8 *623:28 0
38 *471:10 *623:46 0
39 *474:18 *623:46 0
40 *498:10 *623:28 4.77702e-05
41 *500:66 *623:34 0
42 *500:83 *623:28 4.77425e-05
43 *506:10 *623:18 0
44 *514:12 *623:46 0.000177442
45 *545:30 *1889:A1 0
46 *545:51 *1889:A1 0.000176997
47 *551:67 *623:40 0
48 *585:90 *623:34 0.000884596
49 *588:18 *623:18 0
50 *588:34 *623:34 0.0001122
51 *588:49 *623:34 0.000498484
52 *589:32 *623:34 0.00020815
53 *589:43 *623:34 4.77425e-05
54 *590:16 *623:10 0
55 *591:8 *623:10 8.00842e-05
56 *594:8 *623:10 0
57 *600:10 *623:10 0.000241052
58 *605:114 *1889:A1 0.000112228
59 *612:107 *1889:A1 0.000434315
60 *622:22 *623:18 0
*RES
1 *2262:X *623:10 42.6162 
2 *623:10 *623:18 49.5101 
3 *623:18 *623:28 42.8428 
4 *623:28 *623:34 17.4276 
5 *623:34 *623:40 40.3502 
6 *623:40 *623:46 46.0384 
7 *623:46 *623:48 20 
8 *623:48 *1917:A1 20 
9 *623:48 *1889:A1 28.5902 
10 *623:34 *1925:A1 20 
*END

*D_NET *624 0.0256923
*CONN
*I *1894:A1 I *D sg13g2_mux4_1
*I *1918:A1 I *D sg13g2_mux4_1
*I *1926:A1 I *D sg13g2_mux4_1
*I *2263:X O *D sg13g2_buf_1
*CAP
1 *1894:A1 0
2 *1918:A1 0.000427236
3 *1926:A1 0
4 *2263:X 0.000205222
5 *624:43 0.00128667
6 *624:28 0.00303358
7 *624:22 0.0045437
8 *624:12 0.0036174
9 *624:8 0.00145307
10 *624:12 *625:16 0.00166702
11 *1926:S0 *624:28 0
12 *1926:A0 *624:28 0
13 *1926:A0 *624:43 0
14 *1946:A *624:28 0
15 *2248:A *624:22 0.000394151
16 *2249:A *624:22 0
17 *2260:A *624:12 0
18 *2263:A *624:8 0
19 *2264:A *624:8 0.000128247
20 *2265:A *624:8 0
21 *232:44 *624:28 0.000235153
22 *240:10 *624:43 0.000111827
23 *274:16 *624:28 0
24 *275:8 *624:28 0.00133445
25 *326:24 *624:22 0.000285521
26 *409:8 *624:28 0
27 *533:60 *1918:A1 0
28 *549:50 *1918:A1 0
29 *549:64 *624:43 0.0002085
30 *551:8 *624:43 0
31 *571:26 *624:28 0
32 *571:26 *624:43 0
33 *571:42 *624:43 0
34 *590:16 *624:8 0
35 *593:69 *624:28 0.000125088
36 *595:20 *624:22 1.55958e-05
37 *595:20 *624:28 0
38 *598:12 *624:12 0.00153377
39 *598:51 *624:28 0.000393072
40 *599:14 *624:12 0.00053379
41 *605:20 *624:22 0
42 *605:28 *624:28 0.000963227
43 *606:14 *624:22 0.000356761
44 *606:50 *1918:A1 0
45 *606:67 *624:43 0.000496964
46 *616:16 *624:22 0
47 *616:24 *624:28 0.000972362
48 *616:28 *624:28 0.000111985
49 *616:34 *624:43 0
50 *616:38 *1918:A1 0.000597807
51 *616:38 *624:43 0
52 *618:12 *624:12 0.000660179
53 *620:16 *624:22 0
*RES
1 *2263:X *624:8 42.0806 
2 *624:8 *624:12 35.244 
3 *624:12 *624:22 42.0729 
4 *624:22 *624:28 42.6085 
5 *624:28 *1926:A1 20 
6 *624:28 *624:43 48.4048 
7 *624:43 *1918:A1 24.3466 
8 *624:43 *1894:A1 20 
*END

*D_NET *625 0.0251265
*CONN
*I *1895:A1 I *D sg13g2_mux4_1
*I *1919:A1 I *D sg13g2_mux4_1
*I *1927:A1 I *D sg13g2_mux4_1
*I *2264:X O *D sg13g2_buf_1
*CAP
1 *1895:A1 0.000436873
2 *1919:A1 0
3 *1927:A1 0
4 *2264:X 0.000539337
5 *625:41 0.000189517
6 *625:35 0.00082549
7 *625:28 0.00118023
8 *625:26 0.00289866
9 *625:22 0.00219014
10 *625:16 0.00148366
11 *625:12 0.0017504
12 *1895:A2 *1895:A1 0.00046561
13 *1927:A0 *625:28 0
14 *1968:GATE *1895:A1 8.00842e-05
15 *2266:A *625:12 8.03692e-05
16 *2269:A *625:12 0
17 *2270:A *625:12 0
18 *261:14 *625:26 0
19 *286:10 *1895:A1 0
20 *288:12 *1895:A1 8.21246e-05
21 *288:12 *625:41 0
22 *330:8 *625:26 0
23 *334:10 *625:28 8.01116e-05
24 *442:16 *625:26 0.00273851
25 *480:16 *625:26 0
26 *503:8 *625:28 0
27 *512:26 *625:16 0
28 *518:12 *625:41 0.000553766
29 *539:22 *625:26 0.00243218
30 *582:26 *625:26 0.00038373
31 *582:34 *1895:A1 0
32 *582:34 *625:28 0
33 *582:34 *625:35 0
34 *589:26 *625:12 0
35 *596:55 *625:28 0
36 *598:12 *625:12 0
37 *599:28 *625:16 0.00072807
38 *607:26 *1895:A1 0.000129255
39 *607:26 *625:35 0.000273509
40 *610:18 *625:22 0.000393192
41 *610:18 *625:26 0.00276819
42 *612:10 *625:22 0.000340253
43 *618:12 *625:16 0
44 *622:18 *625:16 0.000436188
45 *624:12 *625:16 0.00166702
*RES
1 *2264:X *625:12 44.5732 
2 *625:12 *625:16 33.081 
3 *625:16 *625:22 23.3887 
4 *625:22 *625:26 46.8006 
5 *625:26 *625:28 8.5387 
6 *625:28 *1927:A1 20 
7 *625:28 *625:35 2.0497 
8 *625:35 *625:41 42.575 
9 *625:41 *1919:A1 20 
10 *625:35 *1895:A1 24.3466 
*END

*D_NET *626 0.0229666
*CONN
*I *1920:A1 I *D sg13g2_mux4_1
*I *1890:A0 I *D sg13g2_mux4_1
*I *1928:A1 I *D sg13g2_mux4_1
*I *2265:X O *D sg13g2_buf_1
*CAP
1 *1920:A1 2.94462e-05
2 *1890:A0 0
3 *1928:A1 0
4 *2265:X 2.44042e-05
5 *626:61 0.00118777
6 *626:43 0.00141968
7 *626:34 0.000149482
8 *626:26 0.00211118
9 *626:24 0.00218923
10 *626:14 0.00298959
11 *626:8 0.002584
12 *626:14 *627:10 0
13 *626:61 *627:34 0.00117902
14 *1967:D *626:61 0.000584988
15 *2031:D *626:61 3.15716e-05
16 *229:14 *626:14 0.000401686
17 *230:8 *626:14 0.000582183
18 *230:10 *626:14 7.5468e-05
19 *230:22 *626:24 0.000126358
20 *268:14 *626:24 0
21 *278:22 *626:34 0.000283955
22 *280:32 *626:26 0.00266346
23 *280:32 *626:43 0.000326466
24 *325:10 *626:26 0
25 *369:24 *626:24 0.00012785
26 *369:30 *626:24 0.000655186
27 *388:24 *626:24 0.000706722
28 *404:8 *626:24 0.000387033
29 *405:8 *626:24 0.000651942
30 *544:47 *626:26 0
31 *544:47 *626:43 0
32 *555:49 *626:61 0
33 *563:38 *1920:A1 5.18521e-05
34 *563:38 *626:61 0.000599211
35 *563:53 *1920:A1 7.4773e-05
36 *571:94 *626:61 0
37 *588:106 *626:34 0
38 *610:24 *626:34 0
39 *610:45 *626:34 8.01118e-05
40 *615:12 *626:14 0
41 *618:34 *1920:A1 0.000126462
42 *618:34 *626:61 0.000442707
43 *618:44 *626:34 0.000122871
44 *620:34 *626:61 0
*RES
1 *2265:X *626:8 40.3193 
2 *626:8 *626:14 45.456 
3 *626:14 *626:24 47.416 
4 *626:24 *626:26 17.6233 
5 *626:26 *626:34 41.8746 
6 *626:34 *1928:A1 20 
7 *626:26 *626:43 22.266 
8 *626:43 *626:61 33.6964 
9 *626:61 *1890:A0 20 
10 *626:43 *1920:A1 40.5974 
*END

*D_NET *627 0.030485
*CONN
*I *1929:A1 I *D sg13g2_mux4_1
*I *1891:A0 I *D sg13g2_mux4_1
*I *1921:A1 I *D sg13g2_mux4_1
*I *2266:X O *D sg13g2_buf_2
*CAP
1 *1929:A1 0
2 *1891:A0 0
3 *1921:A1 0
4 *2266:X 0
5 *627:49 0.000485683
6 *627:34 0.00337243
7 *627:22 0.00288675
8 *627:20 0.00248074
9 *627:10 0.00487945
10 *627:6 0.00239871
11 *1891:S0 *627:49 1.54008e-05
12 *1903:S1 *627:34 0
13 *1906:S1 *627:34 0.000235217
14 *1925:S0 *627:20 0.000860467
15 *1928:A0 *627:34 0
16 *2023:D *627:34 0
17 *2035:D *627:34 0
18 *2087:A *627:34 8.00842e-05
19 *2268:A *627:10 0
20 *133:21 *627:34 0
21 *133:31 *627:34 1.54008e-05
22 *133:31 *627:49 0.000483621
23 *136:13 *627:20 0
24 *138:13 *627:20 0.00243453
25 *211:46 *627:49 0.000501386
26 *268:14 *627:10 0
27 *278:22 *627:20 0
28 *306:10 *627:20 0.000441247
29 *326:14 *627:20 0
30 *329:12 *627:20 0.000336987
31 *394:8 *627:20 0.000651029
32 *425:14 *627:10 0
33 *460:10 *627:20 0
34 *460:22 *627:34 0.00373686
35 *469:8 *627:34 4.78498e-05
36 *480:16 *627:20 0
37 *508:12 *627:49 0.000498508
38 *539:22 *627:20 0
39 *551:67 *627:20 0
40 *555:49 *627:34 0
41 *589:16 *627:10 0
42 *605:36 *627:20 0.000179389
43 *605:53 *627:20 0
44 *610:24 *627:20 0.00122888
45 *620:34 *627:34 0.000403213
46 *620:44 *627:34 8.00842e-05
47 *620:44 *627:49 1.54008e-05
48 *620:63 *627:49 0.000483621
49 *623:40 *627:20 7.30101e-05
50 *626:14 *627:10 0
51 *626:61 *627:34 0.00117902
*RES
1 *2266:X *627:6 40 
2 *627:6 *627:10 42.351 
3 *627:10 *627:20 49.4889 
4 *627:20 *627:22 20 
5 *627:22 *627:34 31.0854 
6 *627:34 *1921:A1 20 
7 *627:34 *627:49 46.6435 
8 *627:49 *1891:A0 20 
9 *627:22 *1929:A1 20 
*END

*D_NET *628 0.0185957
*CONN
*I *1930:A1 I *D sg13g2_mux4_1
*I *1896:A0 I *D sg13g2_mux4_1
*I *1922:A1 I *D sg13g2_mux4_1
*I *2268:X O *D sg13g2_buf_1
*CAP
1 *1930:A1 4.87124e-05
2 *1896:A0 2.59337e-05
3 *1922:A1 0.000419291
4 *2268:X 0.000466402
5 *628:47 0.000431577
6 *628:22 0.00106323
7 *628:16 0.00373655
8 *628:10 0.00391594
9 *1896:S0 *1896:A0 4.77425e-05
10 *1896:S0 *628:47 0
11 *1896:A1 *1922:A1 0
12 *1896:A1 *628:22 0
13 *1922:A2 *1922:A1 0
14 *1922:A2 *628:22 1.5617e-05
15 *1930:A2 *1930:A1 4.77425e-05
16 *2056:D *628:16 0
17 *2270:A *628:10 0.000240361
18 *213:14 *1922:A1 2.20362e-05
19 *223:56 *628:16 0
20 *223:67 *628:16 0.000866425
21 *224:22 *1930:A1 8.00842e-05
22 *237:54 *628:16 0.000368727
23 *237:54 *628:22 7.44077e-05
24 *324:14 *1922:A1 0.000401619
25 *368:14 *628:16 0
26 *385:10 *628:16 0.000288184
27 *428:16 *628:47 0
28 *504:10 *628:16 0
29 *560:10 *628:10 0
30 *571:42 *1896:A0 4.77699e-05
31 *584:18 *628:16 0
32 *587:63 *1922:A1 0
33 *587:63 *628:16 0
34 *587:63 *628:22 0
35 *588:60 *628:16 0
36 *588:62 *628:16 0
37 *611:56 *628:47 0.000179009
38 *616:10 *628:10 0.00040088
39 *620:14 *628:10 0
40 *621:12 *628:16 0.00522863
41 *621:12 *628:22 5.15366e-05
42 *621:14 *628:22 0.000127328
*RES
1 *2268:X *628:10 44.9955 
2 *628:10 *628:16 38.5941 
3 *628:16 *628:22 2.5029 
4 *628:22 *1922:A1 44.429 
5 *628:22 *628:47 43.6462 
6 *628:47 *1896:A0 40.3193 
7 *628:16 *1930:A1 40.5356 
*END

*D_NET *629 0.0152502
*CONN
*I *1931:A1 I *D sg13g2_mux4_1
*I *1923:A1 I *D sg13g2_mux4_1
*I *1897:A0 I *D sg13g2_mux4_1
*I *2269:X O *D sg13g2_buf_1
*CAP
1 *1931:A1 3.62964e-05
2 *1923:A1 0
3 *1897:A0 0
4 *2269:X 0.00056843
5 *629:32 0.000343382
6 *629:24 0.00105432
7 *629:14 0.00335665
8 *629:12 0.00317784
9 *1897:S0 *629:32 0.000273509
10 *1897:A1 *629:32 0.00012816
11 *1897:A2 *629:32 7.52158e-05
12 *1923:S0 *629:32 1.54008e-05
13 *1923:A0 *629:24 0
14 *1923:A2 *629:24 4.77425e-05
15 *1960:GATE *629:14 0
16 *1960:GATE *629:24 0
17 *2080:A *629:24 4.77425e-05
18 *2263:A *629:12 0
19 *2265:A *629:12 0.000242098
20 *2268:A *629:12 0
21 *237:90 *629:24 0.000553661
22 *438:10 *629:14 0.00288804
23 *506:10 *629:32 0
24 *539:10 *629:14 0
25 *545:88 *629:24 0
26 *560:10 *629:12 0
27 *562:50 *629:24 0
28 *587:16 *1931:A1 0
29 *589:26 *629:12 0.000112386
30 *590:26 *629:14 0.000929881
31 *590:26 *629:24 0.00139946
32 *591:26 *629:24 0
33 *598:12 *629:12 0
34 *600:12 *629:14 0
35 *601:25 *1931:A1 0
*RES
1 *2269:X *629:12 45.7783 
2 *629:12 *629:14 26.8006 
3 *629:14 *629:24 29.2494 
4 *629:24 *629:32 43.8522 
5 *629:32 *1897:A0 20 
6 *629:24 *1923:A1 20 
7 *629:14 *1931:A1 40.3193 
*END
